MPI startup(): shm:dapl fabric is unknown or has been removed from the product, please use ofi or shm:ofi instead.

     Program PWSCF v.6.7MaX starts on 31Mar2023 at 15:21: 6 

     This program is part of the open-source Quantum ESPRESSO suite
     for quantum simulation of materials; please cite
         "P. Giannozzi et al., J. Phys.:Condens. Matter 21 395502 (2009);
         "P. Giannozzi et al., J. Phys.:Condens. Matter 29 465901 (2017);
          URL http://www.quantum-espresso.org", 
     in publications or presentations arising from this work. More details at
     http://www.quantum-espresso.org/quote

     Parallel version (MPI), running on     8 processors

     MPI processes distributed on     1 nodes
     R & G space division:  proc/nbgrp/npool/nimage =       8
     Reading input from H20.pwi

     Current dimensions of program PWSCF are:
     Max number of different atomic species (ntypx) = 10
     Max number of k-points (npk) =  40000
     Max angular momentum in pseudopotentials (lmaxx) =  3

     gamma-point specific algorithms are used

     Subspace diagonalization in iterative solution of the eigenvalue problem:
     a serial algorithm will be used

 
     Parallelization info
     --------------------
     sticks:   dense  smooth     PW     G-vecs:    dense   smooth      PW
     Min        8948    4471   1119              1801980   637119   79681
     Max        8950    4474   1122              1801990   637130   79690
     Sum       71593   35781   8969             14415877  5096985  637483
 


     bravais-lattice index     =            1
     lattice parameter (alat)  =      56.6918  a.u.
     unit-cell volume          =  182205.0314 (a.u.)^3
     number of atoms/cell      =            3
     number of atomic types    =            2
     number of electrons       =         8.00
     number of Kohn-Sham states=            4
     kinetic-energy cutoff     =      35.0000  Ry
     charge density cutoff     =     280.0000  Ry
     scf convergence threshold =      1.0E-08
     mixing beta               =       0.6000
     number of iterations used =            8  plain     mixing
     energy convergence thresh.=      1.0E-04
     force convergence thresh. =      1.0E-03
     Exchange-correlation= PBE
                           (   1   4   3   4   0   0   0)
     nstep                     =           50


     celldm(1)=  56.691784  celldm(2)=   0.000000  celldm(3)=   0.000000
     celldm(4)=   0.000000  celldm(5)=   0.000000  celldm(6)=   0.000000

     crystal axes: (cart. coord. in units of alat)
               a(1) = (   1.000000   0.000000   0.000000 )  
               a(2) = (   0.000000   1.000000   0.000000 )  
               a(3) = (   0.000000   0.000000   1.000000 )  

     reciprocal axes: (cart. coord. in units 2 pi/alat)
               b(1) = (  1.000000  0.000000  0.000000 )  
               b(2) = (  0.000000  1.000000  0.000000 )  
               b(3) = (  0.000000  0.000000  1.000000 )  


     PseudoPot. # 1 for O  read from file:
     /home/software/materia/pseudo/O.pbe-n-rrkjus_psl.1.0.0.UPF
     MD5 check sum: ca931990f1bb9c6410385342d9df37e8
     Pseudo is Ultrasoft + core correction, Zval =  6.0
     Generated using &quot;atomic&quot; code by A. Dal Corso  v.6.3MaX
     Using radial grid of 1095 points,  4 beta functions with: 
                l(1) =   0
                l(2) =   0
                l(3) =   1
                l(4) =   1
     Q(r) pseudized with 0 coefficients 


     PseudoPot. # 2 for H  read from file:
     /home/software/materia/pseudo/H.pbe-rrkjus_psl.1.0.0.UPF
     MD5 check sum: 0983d12fac67ba31e86b7425e5b50dcf
     Pseudo is Ultrasoft, Zval =  1.0
     Generated using &quot;atomic&quot; code by A. Dal Corso  v.6.3MaX
     Using radial grid of  929 points,  2 beta functions with: 
                l(1) =   0
                l(2) =   0
     Q(r) pseudized with 0 coefficients 


     atomic species   valence    mass     pseudopotential
        O              6.00    15.99900     O ( 1.00)
        H              1.00     1.00784     H ( 1.00)

     No symmetry found



   Cartesian axes

     site n.     atom                  positions (alat units)
         1           O   tau(   1) = (   0.0249305  -0.0015941   0.3219817  )
         2           H   tau(   2) = (  -0.0037295   0.0000718   0.3062920  )
         3           H   tau(   3) = (   0.0309795   0.0301124   0.3304643  )

     number of k points=     1
                       cart. coord. in units 2pi/alat
        k(    1) = (   0.0000000   0.0000000   0.0000000), wk =   2.0000000

     Dense  grid:  7207939 G-vectors     FFT dimensions: ( 320, 320, 320)

     Smooth grid:  2548493 G-vectors     FFT dimensions: ( 216, 216, 216)

     Estimated max dynamical RAM per process >       1.34 GB

     Estimated total dynamical RAM >      10.76 GB

     Initial potential from superposition of free atoms

     starting charge    7.99998, renormalised to    8.00000

     negative rho (up, down):  2.613E-03 0.000E+00
     Starting wfcs are    6 randomized atomic wfcs

     total cpu time spent up to now is       12.5 secs

     Self-consistent Calculation

     iteration #  1     ecut=    35.00 Ry     beta= 0.60
     Davidson diagonalization with overlap
     ethr =  1.00E-02,  avg # of iterations =  4.0

     negative rho (up, down):  3.977E-03 0.000E+00

     total cpu time spent up to now is       22.5 secs

     total energy              =     -34.56932061 Ry
     estimated scf accuracy    <       0.44978563 Ry

     iteration #  2     ecut=    35.00 Ry     beta= 0.60
     Davidson diagonalization with overlap
     ethr =  5.62E-03,  avg # of iterations =  3.0

     negative rho (up, down):  7.009E-03 0.000E+00

     total cpu time spent up to now is       32.7 secs

     total energy              =     -34.73206624 Ry
     estimated scf accuracy    <       0.09484859 Ry

     iteration #  3     ecut=    35.00 Ry     beta= 0.60
     Davidson diagonalization with overlap
     ethr =  1.19E-03,  avg # of iterations =  3.0

     negative rho (up, down):  6.454E-03 0.000E+00

     total cpu time spent up to now is       42.6 secs

     total energy              =     -34.74727202 Ry
     estimated scf accuracy    <       0.02680049 Ry

     iteration #  4     ecut=    35.00 Ry     beta= 0.60
     Davidson diagonalization with overlap
     ethr =  3.35E-04,  avg # of iterations =  3.0

     negative rho (up, down):  9.569E-03 0.000E+00

     total cpu time spent up to now is       52.6 secs

     total energy              =     -34.75463083 Ry
     estimated scf accuracy    <       0.00115048 Ry

     iteration #  5     ecut=    35.00 Ry     beta= 0.60
     Davidson diagonalization with overlap
     ethr =  1.44E-05,  avg # of iterations =  6.0

     negative rho (up, down):  6.108E-03 0.000E+00

     total cpu time spent up to now is       63.3 secs

     total energy              =     -34.75636153 Ry
     estimated scf accuracy    <       0.00423206 Ry

     iteration #  6     ecut=    35.00 Ry     beta= 0.60
     Davidson diagonalization with overlap
     ethr =  1.44E-05,  avg # of iterations =  2.0

     negative rho (up, down):  6.180E-03 0.000E+00

     total cpu time spent up to now is       73.2 secs

     total energy              =     -34.75633435 Ry
     estimated scf accuracy    <       0.00151519 Ry

     iteration #  7     ecut=    35.00 Ry     beta= 0.60
     Davidson diagonalization with overlap
     ethr =  1.44E-05,  avg # of iterations =  1.0

     negative rho (up, down):  6.518E-03 0.000E+00

     total cpu time spent up to now is       82.9 secs

     total energy              =     -34.75633372 Ry
     estimated scf accuracy    <       0.00090066 Ry

     iteration #  8     ecut=    35.00 Ry     beta= 0.60
     Davidson diagonalization with overlap
     ethr =  1.13E-05,  avg # of iterations =  1.0

     negative rho (up, down):  6.335E-03 0.000E+00

     total cpu time spent up to now is       92.7 secs

     total energy              =     -34.75599473 Ry
     estimated scf accuracy    <       0.00078833 Ry

     iteration #  9     ecut=    35.00 Ry     beta= 0.60
     Davidson diagonalization with overlap
     ethr =  9.85E-06,  avg # of iterations =  4.0

     negative rho (up, down):  5.702E-03 0.000E+00

     total cpu time spent up to now is      102.9 secs

     total energy              =     -34.75639253 Ry
     estimated scf accuracy    <       0.00015167 Ry

     iteration # 10     ecut=    35.00 Ry     beta= 0.60
     Davidson diagonalization with overlap
     ethr =  1.90E-06,  avg # of iterations =  4.0

     negative rho (up, down):  5.672E-03 0.000E+00

     total cpu time spent up to now is      113.1 secs

     total energy              =     -34.75640215 Ry
     estimated scf accuracy    <       0.00017093 Ry

     iteration # 11     ecut=    35.00 Ry     beta= 0.60
     Davidson diagonalization with overlap
     ethr =  1.90E-06,  avg # of iterations =  1.0

     negative rho (up, down):  5.701E-03 0.000E+00

     total cpu time spent up to now is      122.8 secs

     total energy              =     -34.75638703 Ry
     estimated scf accuracy    <       0.00013400 Ry

     iteration # 12     ecut=    35.00 Ry     beta= 0.60
     Davidson diagonalization with overlap
     ethr =  1.68E-06,  avg # of iterations =  1.0

     negative rho (up, down):  6.127E-03 0.000E+00

     total cpu time spent up to now is      132.5 secs

     total energy              =     -34.75635708 Ry
     estimated scf accuracy    <       0.00008078 Ry

     iteration # 13     ecut=    35.00 Ry     beta= 0.60
     Davidson diagonalization with overlap
     ethr =  1.01E-06,  avg # of iterations =  2.0

     negative rho (up, down):  6.412E-03 0.000E+00

     total cpu time spent up to now is      142.5 secs

     total energy              =     -34.75637324 Ry
     estimated scf accuracy    <       0.00000877 Ry

     iteration # 14     ecut=    35.00 Ry     beta= 0.60
     Davidson diagonalization with overlap
     ethr =  1.10E-07,  avg # of iterations =  7.0

     negative rho (up, down):  6.386E-03 0.000E+00

     total cpu time spent up to now is      153.5 secs

     total energy              =     -34.75639692 Ry
     estimated scf accuracy    <       0.00007971 Ry

     iteration # 15     ecut=    35.00 Ry     beta= 0.60
     Davidson diagonalization with overlap
     ethr =  1.10E-07,  avg # of iterations =  1.0

     negative rho (up, down):  6.094E-03 0.000E+00

     total cpu time spent up to now is      163.2 secs

     total energy              =     -34.75642988 Ry
     estimated scf accuracy    <       0.00007783 Ry

     iteration # 16     ecut=    35.00 Ry     beta= 0.60
     Davidson diagonalization with overlap
     ethr =  1.10E-07,  avg # of iterations =  6.0

     negative rho (up, down):  5.443E-03 0.000E+00

     total cpu time spent up to now is      174.0 secs

     total energy              =     -34.75636435 Ry
     estimated scf accuracy    <       0.00021158 Ry

     iteration # 17     ecut=    35.00 Ry     beta= 0.60
     Davidson diagonalization with overlap
     ethr =  1.10E-07,  avg # of iterations =  7.0

     negative rho (up, down):  5.397E-03 0.000E+00

     total cpu time spent up to now is      185.1 secs

     total energy              =     -34.75636811 Ry
     estimated scf accuracy    <       0.00003283 Ry

     iteration # 18     ecut=    35.00 Ry     beta= 0.60
     Davidson diagonalization with overlap
     ethr =  1.10E-07,  avg # of iterations =  4.0

     negative rho (up, down):  5.373E-03 0.000E+00

     total cpu time spent up to now is      195.4 secs

     total energy              =     -34.75637239 Ry
     estimated scf accuracy    <       0.00000202 Ry

     iteration # 19     ecut=    35.00 Ry     beta= 0.60
     Davidson diagonalization with overlap
     ethr =  2.52E-08,  avg # of iterations =  6.0

     negative rho (up, down):  5.357E-03 0.000E+00

     total cpu time spent up to now is      206.1 secs

     total energy              =     -34.75637417 Ry
     estimated scf accuracy    <       0.00000217 Ry

     iteration # 20     ecut=    35.00 Ry     beta= 0.60
     Davidson diagonalization with overlap
     ethr =  2.52E-08,  avg # of iterations =  1.0

     negative rho (up, down):  5.351E-03 0.000E+00

     total cpu time spent up to now is      215.9 secs

     total energy              =     -34.75637397 Ry
     estimated scf accuracy    <       0.00000069 Ry

     iteration # 21     ecut=    35.00 Ry     beta= 0.60
     Davidson diagonalization with overlap
     ethr =  8.59E-09,  avg # of iterations =  5.0

     negative rho (up, down):  5.351E-03 0.000E+00

     total cpu time spent up to now is      226.4 secs

     total energy              =     -34.75637435 Ry
     estimated scf accuracy    <       0.00000020 Ry

     iteration # 22     ecut=    35.00 Ry     beta= 0.60
     Davidson diagonalization with overlap
     ethr =  2.52E-09,  avg # of iterations =  1.0

     negative rho (up, down):  5.351E-03 0.000E+00

     total cpu time spent up to now is      236.1 secs

     total energy              =     -34.75637428 Ry
     estimated scf accuracy    <       0.00000017 Ry

     iteration # 23     ecut=    35.00 Ry     beta= 0.60
     Davidson diagonalization with overlap
     ethr =  2.13E-09,  avg # of iterations =  1.0

     negative rho (up, down):  5.352E-03 0.000E+00

     total cpu time spent up to now is      245.9 secs

     total energy              =     -34.75637428 Ry
     estimated scf accuracy    <       0.00000004 Ry

     iteration # 24     ecut=    35.00 Ry     beta= 0.60
     Davidson diagonalization with overlap
     ethr =  4.38E-10,  avg # of iterations =  5.0

     negative rho (up, down):  5.351E-03 0.000E+00

     total cpu time spent up to now is      255.0 secs

     End of self-consistent calculation

          k = 0.0000 0.0000 0.0000 (318742 PWs)   bands (ev):

   -25.1489 -12.8611  -9.3176  -7.1842

     highest occupied level (ev):    -7.1842

!    total energy              =     -34.75637430 Ry
     estimated scf accuracy    <          5.3E-09 Ry

     The total energy is the sum of the following terms:
     one-electron contribution =     -75.44606357 Ry
     hartree contribution      =      39.20828414 Ry
     xc contribution           =      -8.80898513 Ry
     ewald contribution        =      10.29039026 Ry

     convergence has been achieved in  24 iterations

     negative rho (up, down):  5.351E-03 0.000E+00

     Forces acting on atoms (cartesian axes, Ry/au):

     atom    1 type  1   force =     0.00034636    0.04167891    0.00692750
     atom    2 type  2   force =     0.00738860   -0.00055306    0.00401930
     atom    3 type  2   force =    -0.00773496   -0.04112585   -0.01094680

     Total force =     0.061052     Total SCF correction =     0.000090


     Computing stress (Cartesian axis) and pressure


     negative rho (up, down):  5.351E-03 0.000E+00
          total   stress  (Ry/bohr**3)                   (kbar)     P=       -0.18
  -0.00000111  -0.00000005   0.00000003           -0.16       -0.01        0.00
  -0.00000005  -0.00000139  -0.00000006           -0.01       -0.21       -0.01
   0.00000003  -0.00000006  -0.00000117            0.00       -0.01       -0.17


     BFGS Geometry Optimization
     Energy error            =      0.0E+00
     Gradient error          =      4.2E-02

     number of scf cycles    =   1
     number of bfgs steps    =   0

     energy   new            =     -34.7563743000 Ry

     new trust radius        =       0.0432550273 bohr
     new conv_thr            =       0.0000000100 Ry


ATOMIC_POSITIONS (angstrom)
O             0.7480982851       -0.0257679732        9.6631158762
H            -0.1079761227        0.0018604152        9.1908869202
H             0.9252908376        0.8816081380        9.9081372036



     Writing output data file /home/STUDENTI/leonardo.razzai/WORK/pwscf.save/
     NEW-OLD atomic charge density approx. for the potential

     negative rho (up, down):  5.018E-03 0.000E+00

     total cpu time spent up to now is      285.3 secs

     Self-consistent Calculation

     iteration #  1     ecut=    35.00 Ry     beta= 0.60
     Davidson diagonalization with overlap
     ethr =  1.00E-06,  avg # of iterations =  9.0

     negative rho (up, down):  5.215E-03 0.000E+00

     total cpu time spent up to now is      297.1 secs

     total energy              =     -34.75609557 Ry
     estimated scf accuracy    <       0.00181364 Ry

     iteration #  2     ecut=    35.00 Ry     beta= 0.60
     Davidson diagonalization with overlap
     ethr =  2.27E-05,  avg # of iterations =  3.0

     negative rho (up, down):  5.442E-03 0.000E+00

     total cpu time spent up to now is      307.2 secs

     total energy              =     -34.75662486 Ry
     estimated scf accuracy    <       0.00015791 Ry

     iteration #  3     ecut=    35.00 Ry     beta= 0.60
     Davidson diagonalization with overlap
     ethr =  1.97E-06,  avg # of iterations =  5.0

     negative rho (up, down):  5.642E-03 0.000E+00

     total cpu time spent up to now is      317.7 secs

     total energy              =     -34.75667424 Ry
     estimated scf accuracy    <       0.00012826 Ry

     iteration #  4     ecut=    35.00 Ry     beta= 0.60
     Davidson diagonalization with overlap
     ethr =  1.60E-06,  avg # of iterations =  2.0

     negative rho (up, down):  5.422E-03 0.000E+00

     total cpu time spent up to now is      327.6 secs

     total energy              =     -34.75668493 Ry
     estimated scf accuracy    <       0.00001113 Ry

     iteration #  5     ecut=    35.00 Ry     beta= 0.60
     Davidson diagonalization with overlap
     ethr =  1.39E-07,  avg # of iterations =  8.0

     negative rho (up, down):  5.444E-03 0.000E+00

     total cpu time spent up to now is      338.9 secs

     total energy              =     -34.75670776 Ry
     estimated scf accuracy    <       0.00006053 Ry

     iteration #  6     ecut=    35.00 Ry     beta= 0.60
     Davidson diagonalization with overlap
     ethr =  1.39E-07,  avg # of iterations =  2.0

     negative rho (up, down):  5.429E-03 0.000E+00

     total cpu time spent up to now is      348.8 secs

     total energy              =     -34.75669317 Ry
     estimated scf accuracy    <       0.00003157 Ry

     iteration #  7     ecut=    35.00 Ry     beta= 0.60
     Davidson diagonalization with overlap
     ethr =  1.39E-07,  avg # of iterations =  6.0

     negative rho (up, down):  5.420E-03 0.000E+00

     total cpu time spent up to now is      359.7 secs

     total energy              =     -34.75670355 Ry
     estimated scf accuracy    <       0.00000073 Ry

     iteration #  8     ecut=    35.00 Ry     beta= 0.60
     Davidson diagonalization with overlap
     ethr =  9.07E-09,  avg # of iterations =  4.0

     negative rho (up, down):  5.418E-03 0.000E+00

     total cpu time spent up to now is      370.2 secs

     total energy              =     -34.75670428 Ry
     estimated scf accuracy    <       0.00000101 Ry

     iteration #  9     ecut=    35.00 Ry     beta= 0.60
     Davidson diagonalization with overlap
     ethr =  9.07E-09,  avg # of iterations =  1.0

     negative rho (up, down):  5.418E-03 0.000E+00

     total cpu time spent up to now is      380.0 secs

     total energy              =     -34.75670394 Ry
     estimated scf accuracy    <       0.00000149 Ry

     iteration # 10     ecut=    35.00 Ry     beta= 0.60
     Davidson diagonalization with overlap
     ethr =  9.07E-09,  avg # of iterations =  1.0

     negative rho (up, down):  5.418E-03 0.000E+00

     total cpu time spent up to now is      389.8 secs

     total energy              =     -34.75670377 Ry
     estimated scf accuracy    <       0.00000078 Ry

     iteration # 11     ecut=    35.00 Ry     beta= 0.60
     Davidson diagonalization with overlap
     ethr =  9.07E-09,  avg # of iterations =  2.0

     negative rho (up, down):  5.418E-03 0.000E+00

     total cpu time spent up to now is      400.0 secs

     total energy              =     -34.75670388 Ry
     estimated scf accuracy    <       0.00000013 Ry

     iteration # 12     ecut=    35.00 Ry     beta= 0.60
     Davidson diagonalization with overlap
     ethr =  1.65E-09,  avg # of iterations =  2.0

     negative rho (up, down):  5.418E-03 0.000E+00

     total cpu time spent up to now is      409.9 secs

     total energy              =     -34.75670387 Ry
     estimated scf accuracy    <       0.00000007 Ry

     iteration # 13     ecut=    35.00 Ry     beta= 0.60
     Davidson diagonalization with overlap
     ethr =  8.14E-10,  avg # of iterations =  2.0

     negative rho (up, down):  5.418E-03 0.000E+00

     total cpu time spent up to now is      419.9 secs

     total energy              =     -34.75670386 Ry
     estimated scf accuracy    <       0.00000002 Ry

     iteration # 14     ecut=    35.00 Ry     beta= 0.60
     Davidson diagonalization with overlap
     ethr =  2.69E-10,  avg # of iterations =  7.0

     negative rho (up, down):  5.418E-03 0.000E+00

     total cpu time spent up to now is      431.0 secs

     total energy              =     -34.75670390 Ry
     estimated scf accuracy    <       0.00000014 Ry

     iteration # 15     ecut=    35.00 Ry     beta= 0.60
     Davidson diagonalization with overlap
     ethr =  2.69E-10,  avg # of iterations =  1.0

     negative rho (up, down):  5.421E-03 0.000E+00

     total cpu time spent up to now is      440.9 secs

     total energy              =     -34.75670399 Ry
     estimated scf accuracy    <       0.00000014 Ry

     iteration # 16     ecut=    35.00 Ry     beta= 0.60
     Davidson diagonalization with overlap
     ethr =  2.69E-10,  avg # of iterations =  6.0

     negative rho (up, down):  5.419E-03 0.000E+00

     total cpu time spent up to now is      452.0 secs

     total energy              =     -34.75670384 Ry
     estimated scf accuracy    <       0.00000050 Ry

     iteration # 17     ecut=    35.00 Ry     beta= 0.60
     Davidson diagonalization with overlap
     ethr =  2.69E-10,  avg # of iterations =  5.0

     negative rho (up, down):  5.420E-03 0.000E+00

     total cpu time spent up to now is      462.9 secs

     total energy              =     -34.75670388 Ry
     estimated scf accuracy    <       0.00000011 Ry

     iteration # 18     ecut=    35.00 Ry     beta= 0.60
     Davidson diagonalization with overlap
     ethr =  2.69E-10,  avg # of iterations =  1.0

     negative rho (up, down):  5.419E-03 0.000E+00

     total cpu time spent up to now is      472.7 secs

     total energy              =     -34.75670386 Ry
     estimated scf accuracy    <       0.00000014 Ry

     iteration # 19     ecut=    35.00 Ry     beta= 0.60
     Davidson diagonalization with overlap
     ethr =  2.69E-10,  avg # of iterations =  1.0

     negative rho (up, down):  5.418E-03 0.000E+00

     total cpu time spent up to now is      482.4 secs

     total energy              =     -34.75670382 Ry
     estimated scf accuracy    <       0.00000009 Ry

     iteration # 20     ecut=    35.00 Ry     beta= 0.60
     Davidson diagonalization with overlap
     ethr =  2.69E-10,  avg # of iterations =  7.0

     negative rho (up, down):  5.418E-03 0.000E+00

     total cpu time spent up to now is      493.6 secs

     total energy              =     -34.75670387 Ry
     estimated scf accuracy    <       0.00000003 Ry

     iteration # 21     ecut=    35.00 Ry     beta= 0.60
     Davidson diagonalization with overlap
     ethr =  2.69E-10,  avg # of iterations =  1.0

     negative rho (up, down):  5.418E-03 0.000E+00

     total cpu time spent up to now is      503.5 secs

     total energy              =     -34.75670387 Ry
     estimated scf accuracy    <       0.00000001 Ry

     iteration # 22     ecut=    35.00 Ry     beta= 0.60
     Davidson diagonalization with overlap
     ethr =  1.35E-10,  avg # of iterations =  5.0

     negative rho (up, down):  5.418E-03 0.000E+00

     total cpu time spent up to now is      514.0 secs

     total energy              =     -34.75670388 Ry
     estimated scf accuracy    <       0.00000001 Ry

     iteration # 23     ecut=    35.00 Ry     beta= 0.60
     Davidson diagonalization with overlap
     ethr =  1.28E-10,  avg # of iterations =  1.0

     negative rho (up, down):  5.418E-03 0.000E+00

     total cpu time spent up to now is      522.6 secs

     End of self-consistent calculation

          k = 0.0000 0.0000 0.0000 (318742 PWs)   bands (ev):

   -25.3866 -13.1547  -9.2748  -7.2290

     highest occupied level (ev):    -7.2290

!    total energy              =     -34.75670387 Ry
     estimated scf accuracy    <          4.9E-09 Ry

     The total energy is the sum of the following terms:
     one-electron contribution =     -75.99587253 Ry
     hartree contribution      =      39.47272875 Ry
     xc contribution           =      -8.85299760 Ry
     ewald contribution        =      10.61943751 Ry

     convergence has been achieved in  23 iterations

     negative rho (up, down):  5.418E-03 0.000E+00

     Forces acting on atoms (cartesian axes, Ry/au):

     atom    1 type  1   force =    -0.01041269   -0.03949035   -0.01215918
     atom    2 type  2   force =     0.00419802    0.00120480    0.00252775
     atom    3 type  2   force =     0.00621468    0.03828555    0.00963144

     Total force =     0.058638     Total SCF correction =     0.000081


     Computing stress (Cartesian axis) and pressure


     negative rho (up, down):  5.418E-03 0.000E+00
          total   stress  (Ry/bohr**3)                   (kbar)     P=       -0.14
  -0.00000107   0.00000008   0.00000008           -0.16        0.01        0.01
   0.00000008  -0.00000069   0.00000013            0.01       -0.10        0.02
   0.00000008   0.00000013  -0.00000113            0.01        0.02       -0.17

     Energy error            =      3.3E-04
     Gradient error          =      3.9E-02

     number of scf cycles    =   2
     number of bfgs steps    =   1

     energy   old            =     -34.7563743000 Ry
     energy   new            =     -34.7567038723 Ry

     CASE: energy  _new < energy  _old

     new trust radius        =       0.0213349575 bohr
     new conv_thr            =       0.0000000003 Ry


ATOMIC_POSITIONS (angstrom)
O             0.7452292482       -0.0361845492        9.6598406559
H            -0.1067328389        0.0021864770        9.1916305959
H             0.9269165907        0.8916986522        9.9106687482



     Writing output data file /home/STUDENTI/leonardo.razzai/WORK/pwscf.save/
     NEW-OLD atomic charge density approx. for the potential

     negative rho (up, down):  5.469E-03 0.000E+00

     total cpu time spent up to now is      552.5 secs

     Self-consistent Calculation

     iteration #  1     ecut=    35.00 Ry     beta= 0.60
     Davidson diagonalization with overlap
     ethr =  1.00E-06,  avg # of iterations =  9.0

     negative rho (up, down):  5.411E-03 0.000E+00

     total cpu time spent up to now is      564.0 secs

     total energy              =     -34.75733892 Ry
     estimated scf accuracy    <       0.00032965 Ry

     iteration #  2     ecut=    35.00 Ry     beta= 0.60
     Davidson diagonalization with overlap
     ethr =  4.12E-06,  avg # of iterations =  3.0

     negative rho (up, down):  5.409E-03 0.000E+00

     total cpu time spent up to now is      574.1 secs

     total energy              =     -34.75741809 Ry
     estimated scf accuracy    <       0.00003228 Ry

     iteration #  3     ecut=    35.00 Ry     beta= 0.60
     Davidson diagonalization with overlap
     ethr =  4.04E-07,  avg # of iterations =  3.0

     negative rho (up, down):  5.408E-03 0.000E+00

     total cpu time spent up to now is      584.2 secs

     total energy              =     -34.75743106 Ry
     estimated scf accuracy    <       0.00001023 Ry

     iteration #  4     ecut=    35.00 Ry     beta= 0.60
     Davidson diagonalization with overlap
     ethr =  1.28E-07,  avg # of iterations =  2.0

     negative rho (up, down):  5.396E-03 0.000E+00

     total cpu time spent up to now is      594.2 secs

     total energy              =     -34.75743350 Ry
     estimated scf accuracy    <       0.00000064 Ry

     iteration #  5     ecut=    35.00 Ry     beta= 0.60
     Davidson diagonalization with overlap
     ethr =  7.96E-09,  avg # of iterations =  5.0

     negative rho (up, down):  5.394E-03 0.000E+00

     total cpu time spent up to now is      604.5 secs

     total energy              =     -34.75743380 Ry
     estimated scf accuracy    <       0.00000014 Ry

     iteration #  6     ecut=    35.00 Ry     beta= 0.60
     Davidson diagonalization with overlap
     ethr =  1.78E-09,  avg # of iterations =  5.0

     negative rho (up, down):  5.395E-03 0.000E+00

     total cpu time spent up to now is      614.9 secs

     total energy              =     -34.75743380 Ry
     estimated scf accuracy    <       0.00000015 Ry

     iteration #  7     ecut=    35.00 Ry     beta= 0.60
     Davidson diagonalization with overlap
     ethr =  1.78E-09,  avg # of iterations =  3.0

     negative rho (up, down):  5.394E-03 0.000E+00

     total cpu time spent up to now is      625.1 secs

     total energy              =     -34.75743384 Ry
     estimated scf accuracy    <          4.8E-09 Ry

     iteration #  8     ecut=    35.00 Ry     beta= 0.60
     Davidson diagonalization with overlap
     ethr =  5.99E-11,  avg # of iterations =  9.0

     negative rho (up, down):  5.394E-03 0.000E+00

     total cpu time spent up to now is      636.8 secs

     total energy              =     -34.75743387 Ry
     estimated scf accuracy    <       0.00000005 Ry

     iteration #  9     ecut=    35.00 Ry     beta= 0.60
     Davidson diagonalization with overlap
     ethr =  5.99E-11,  avg # of iterations =  1.0

     negative rho (up, down):  5.394E-03 0.000E+00

     total cpu time spent up to now is      646.6 secs

     total energy              =     -34.75743386 Ry
     estimated scf accuracy    <       0.00000004 Ry

     iteration # 10     ecut=    35.00 Ry     beta= 0.60
     Davidson diagonalization with overlap
     ethr =  5.99E-11,  avg # of iterations =  5.0

     negative rho (up, down):  5.394E-03 0.000E+00

     total cpu time spent up to now is      657.2 secs

     total energy              =     -34.75743386 Ry
     estimated scf accuracy    <          5.2E-09 Ry

     iteration # 11     ecut=    35.00 Ry     beta= 0.60
     Davidson diagonalization with overlap
     ethr =  5.99E-11,  avg # of iterations =  2.0

     negative rho (up, down):  5.394E-03 0.000E+00

     total cpu time spent up to now is      667.1 secs

     total energy              =     -34.75743386 Ry
     estimated scf accuracy    <          2.0E-09 Ry

     iteration # 12     ecut=    35.00 Ry     beta= 0.60
     Davidson diagonalization with overlap
     ethr =  2.54E-11,  avg # of iterations =  5.0

     negative rho (up, down):  5.394E-03 0.000E+00

     total cpu time spent up to now is      677.5 secs

     total energy              =     -34.75743386 Ry
     estimated scf accuracy    <          4.6E-10 Ry

     iteration # 13     ecut=    35.00 Ry     beta= 0.60
     Davidson diagonalization with overlap
     ethr =  5.70E-12,  avg # of iterations =  2.0

     negative rho (up, down):  5.394E-03 0.000E+00

     total cpu time spent up to now is      687.5 secs

     total energy              =     -34.75743386 Ry
     estimated scf accuracy    <          5.5E-10 Ry

     iteration # 14     ecut=    35.00 Ry     beta= 0.60
     Davidson diagonalization with overlap
     ethr =  5.70E-12,  avg # of iterations =  1.0

     negative rho (up, down):  5.394E-03 0.000E+00

     total cpu time spent up to now is      697.3 secs

     total energy              =     -34.75743386 Ry
     estimated scf accuracy    <          4.0E-10 Ry

     iteration # 15     ecut=    35.00 Ry     beta= 0.60
     Davidson diagonalization with overlap
     ethr =  5.06E-12,  avg # of iterations =  1.0

     negative rho (up, down):  5.394E-03 0.000E+00

     total cpu time spent up to now is      705.9 secs

     End of self-consistent calculation

          k = 0.0000 0.0000 0.0000 (318742 PWs)   bands (ev):

   -25.3023 -13.0489  -9.2928  -7.2133

     highest occupied level (ev):    -7.2133

!    total energy              =     -34.75743386 Ry
     estimated scf accuracy    <          1.4E-10 Ry

     The total energy is the sum of the following terms:
     one-electron contribution =     -75.80295112 Ry
     hartree contribution      =      39.37972497 Ry
     xc contribution           =      -8.83739350 Ry
     ewald contribution        =      10.50318579 Ry

     convergence has been achieved in  15 iterations

     negative rho (up, down):  5.394E-03 0.000E+00

     Forces acting on atoms (cartesian axes, Ry/au):

     atom    1 type  1   force =     0.00691778    0.00272211    0.00429890
     atom    2 type  2   force =    -0.00561803    0.00089499   -0.00298762
     atom    3 type  2   force =    -0.00129975   -0.00361711   -0.00131128

     Total force =     0.011469     Total SCF correction =     0.000017


     Computing stress (Cartesian axis) and pressure


     negative rho (up, down):  5.394E-03 0.000E+00
          total   stress  (Ry/bohr**3)                   (kbar)     P=       -0.16
  -0.00000100   0.00000001   0.00000011           -0.15        0.00        0.02
   0.00000001  -0.00000106   0.00000003            0.00       -0.16        0.00
   0.00000011   0.00000003  -0.00000113            0.02        0.00       -0.17

     Energy error            =      7.3E-04
     Gradient error          =      6.9E-03

     number of scf cycles    =   3
     number of bfgs steps    =   2

     energy   old            =     -34.7567038723 Ry
     energy   new            =     -34.7574338558 Ry

     CASE: energy  _new < energy  _old

     new trust radius        =       0.0063877109 bohr
     new conv_thr            =       0.0000000007 Ry


ATOMIC_POSITIONS (angstrom)
O             0.7481898214       -0.0364486702        9.6614503788
H            -0.1093372968        0.0026472482        9.1902528818
H             0.9265604754        0.8915020020        9.9104367394



     Writing output data file /home/STUDENTI/leonardo.razzai/WORK/pwscf.save/
     NEW-OLD atomic charge density approx. for the potential

     negative rho (up, down):  5.421E-03 0.000E+00

     total cpu time spent up to now is      735.4 secs

     Self-consistent Calculation

     iteration #  1     ecut=    35.00 Ry     beta= 0.60
     Davidson diagonalization with overlap
     ethr =  1.00E-06,  avg # of iterations =  4.0

     negative rho (up, down):  5.394E-03 0.000E+00

     total cpu time spent up to now is      745.7 secs

     total energy              =     -34.75743608 Ry
     estimated scf accuracy    <       0.00002540 Ry

     iteration #  2     ecut=    35.00 Ry     beta= 0.60
     Davidson diagonalization with overlap
     ethr =  3.17E-07,  avg # of iterations =  3.0

     negative rho (up, down):  5.395E-03 0.000E+00

     total cpu time spent up to now is      755.7 secs

     total energy              =     -34.75744588 Ry
     estimated scf accuracy    <       0.00000864 Ry

     iteration #  3     ecut=    35.00 Ry     beta= 0.60
     Davidson diagonalization with overlap
     ethr =  1.08E-07,  avg # of iterations =  2.0

     negative rho (up, down):  5.388E-03 0.000E+00

     total cpu time spent up to now is      765.4 secs

     total energy              =     -34.75744617 Ry
     estimated scf accuracy    <       0.00000146 Ry

     iteration #  4     ecut=    35.00 Ry     beta= 0.60
     Davidson diagonalization with overlap
     ethr =  1.83E-08,  avg # of iterations =  4.0

     negative rho (up, down):  5.386E-03 0.000E+00

     total cpu time spent up to now is      775.9 secs

     total energy              =     -34.75744728 Ry
     estimated scf accuracy    <       0.00000092 Ry

     iteration #  5     ecut=    35.00 Ry     beta= 0.60
     Davidson diagonalization with overlap
     ethr =  1.15E-08,  avg # of iterations =  2.0

     negative rho (up, down):  5.386E-03 0.000E+00

     total cpu time spent up to now is      785.8 secs

     total energy              =     -34.75744731 Ry
     estimated scf accuracy    <       0.00000017 Ry

     iteration #  6     ecut=    35.00 Ry     beta= 0.60
     Davidson diagonalization with overlap
     ethr =  2.14E-09,  avg # of iterations =  4.0

     negative rho (up, down):  5.386E-03 0.000E+00

     total cpu time spent up to now is      796.3 secs

     total energy              =     -34.75744743 Ry
     estimated scf accuracy    <       0.00000011 Ry

     iteration #  7     ecut=    35.00 Ry     beta= 0.60
     Davidson diagonalization with overlap
     ethr =  1.41E-09,  avg # of iterations =  1.0

     negative rho (up, down):  5.386E-03 0.000E+00

     total cpu time spent up to now is      806.1 secs

     total energy              =     -34.75744738 Ry
     estimated scf accuracy    <       0.00000009 Ry

     iteration #  8     ecut=    35.00 Ry     beta= 0.60
     Davidson diagonalization with overlap
     ethr =  1.07E-09,  avg # of iterations =  3.0

     negative rho (up, down):  5.386E-03 0.000E+00

     total cpu time spent up to now is      816.4 secs

     total energy              =     -34.75744741 Ry
     estimated scf accuracy    <          2.1E-09 Ry

     iteration #  9     ecut=    35.00 Ry     beta= 0.60
     Davidson diagonalization with overlap
     ethr =  2.58E-11,  avg # of iterations =  9.0

     negative rho (up, down):  5.386E-03 0.000E+00

     total cpu time spent up to now is      827.9 secs

     total energy              =     -34.75744741 Ry
     estimated scf accuracy    <       0.00000002 Ry

     iteration # 10     ecut=    35.00 Ry     beta= 0.60
     Davidson diagonalization with overlap
     ethr =  2.58E-11,  avg # of iterations =  2.0

     negative rho (up, down):  5.386E-03 0.000E+00

     total cpu time spent up to now is      838.1 secs

     total energy              =     -34.75744741 Ry
     estimated scf accuracy    <       0.00000001 Ry

     iteration # 11     ecut=    35.00 Ry     beta= 0.60
     Davidson diagonalization with overlap
     ethr =  2.58E-11,  avg # of iterations =  9.0

     negative rho (up, down):  5.386E-03 0.000E+00

     total cpu time spent up to now is      849.8 secs

     total energy              =     -34.75744741 Ry
     estimated scf accuracy    <          6.3E-09 Ry

     iteration # 12     ecut=    35.00 Ry     beta= 0.60
     Davidson diagonalization with overlap
     ethr =  2.58E-11,  avg # of iterations =  1.0

     negative rho (up, down):  5.386E-03 0.000E+00

     total cpu time spent up to now is      859.6 secs

     total energy              =     -34.75744741 Ry
     estimated scf accuracy    <          4.7E-09 Ry

     iteration # 13     ecut=    35.00 Ry     beta= 0.60
     Davidson diagonalization with overlap
     ethr =  2.58E-11,  avg # of iterations =  3.0

     negative rho (up, down):  5.386E-03 0.000E+00

     total cpu time spent up to now is      868.7 secs

     End of self-consistent calculation

          k = 0.0000 0.0000 0.0000 (318742 PWs)   bands (ev):

   -25.2771 -13.0132  -9.3009  -7.2087

     highest occupied level (ev):    -7.2087

!    total energy              =     -34.75744741 Ry
     estimated scf accuracy    <          3.3E-10 Ry

     The total energy is the sum of the following terms:
     one-electron contribution =     -75.74243043 Ry
     hartree contribution      =      39.35056329 Ry
     xc contribution           =      -8.83253396 Ry
     ewald contribution        =      10.46695369 Ry

     convergence has been achieved in  13 iterations

     negative rho (up, down):  5.386E-03 0.000E+00

     Forces acting on atoms (cartesian axes, Ry/au):

     atom    1 type  1   force =    -0.00432444    0.00140711   -0.00217419
     atom    2 type  2   force =     0.00487836    0.00006988    0.00272456
     atom    3 type  2   force =    -0.00055392   -0.00147699   -0.00055037

     Total force =     0.007709     Total SCF correction =     0.000018


     Computing stress (Cartesian axis) and pressure


     negative rho (up, down):  5.386E-03 0.000E+00
          total   stress  (Ry/bohr**3)                   (kbar)     P=       -0.16
  -0.00000108   0.00000002   0.00000006           -0.16        0.00        0.01
   0.00000002  -0.00000103   0.00000004            0.00       -0.15        0.01
   0.00000006   0.00000004  -0.00000115            0.01        0.01       -0.17

     Energy error            =      1.4E-05
     Gradient error          =      4.9E-03

     number of scf cycles    =   4
     number of bfgs steps    =   3

     energy   old            =     -34.7574338558 Ry
     energy   new            =     -34.7574474079 Ry

     CASE: energy  _new < energy  _old

     new trust radius        =       0.0029841928 bohr
     new conv_thr            =            1.0E-10 Ry


ATOMIC_POSITIONS (angstrom)
O             0.7470513945       -0.0358414055        9.6609169259
H            -0.1079618085        0.0027030022        9.1910266333
H             0.9263234140        0.8908389833        9.9101964408



     Writing output data file /home/STUDENTI/leonardo.razzai/WORK/pwscf.save/
     NEW-OLD atomic charge density approx. for the potential

     negative rho (up, down):  5.370E-03 0.000E+00

     total cpu time spent up to now is      899.4 secs

     Self-consistent Calculation

     iteration #  1     ecut=    35.00 Ry     beta= 0.60
     Davidson diagonalization with overlap
     ethr =  1.00E-06,  avg # of iterations =  2.0

     Threshold (ethr) on eigenvalues was too large:
     Diagonalizing with lowered threshold

     Davidson diagonalization with overlap
     ethr =  9.81E-08,  avg # of iterations =  4.0

     negative rho (up, down):  5.383E-03 0.000E+00

     total cpu time spent up to now is      912.8 secs

     total energy              =     -34.75746053 Ry
     estimated scf accuracy    <       0.00000887 Ry

     iteration #  2     ecut=    35.00 Ry     beta= 0.60
     Davidson diagonalization with overlap
     ethr =  1.11E-07,  avg # of iterations =  3.0

     negative rho (up, down):  5.390E-03 0.000E+00

     total cpu time spent up to now is      923.1 secs

     total energy              =     -34.75746334 Ry
     estimated scf accuracy    <       0.00000102 Ry

     iteration #  3     ecut=    35.00 Ry     beta= 0.60
     Davidson diagonalization with overlap
     ethr =  1.28E-08,  avg # of iterations =  3.0

     negative rho (up, down):  5.391E-03 0.000E+00

     total cpu time spent up to now is      933.2 secs

     total energy              =     -34.75746357 Ry
     estimated scf accuracy    <       0.00000032 Ry

     iteration #  4     ecut=    35.00 Ry     beta= 0.60
     Davidson diagonalization with overlap
     ethr =  4.00E-09,  avg # of iterations =  3.0

     negative rho (up, down):  5.391E-03 0.000E+00

     total cpu time spent up to now is      943.4 secs

     total energy              =     -34.75746366 Ry
     estimated scf accuracy    <       0.00000001 Ry

     iteration #  5     ecut=    35.00 Ry     beta= 0.60
     Davidson diagonalization with overlap
     ethr =  1.66E-10,  avg # of iterations =  6.0

     negative rho (up, down):  5.392E-03 0.000E+00

     total cpu time spent up to now is      954.2 secs

     total energy              =     -34.75746366 Ry
     estimated scf accuracy    <       0.00000003 Ry

     iteration #  6     ecut=    35.00 Ry     beta= 0.60
     Davidson diagonalization with overlap
     ethr =  1.66E-10,  avg # of iterations =  4.0

     negative rho (up, down):  5.392E-03 0.000E+00

     total cpu time spent up to now is      964.5 secs

     total energy              =     -34.75746367 Ry
     estimated scf accuracy    <          2.7E-09 Ry

     iteration #  7     ecut=    35.00 Ry     beta= 0.60
     Davidson diagonalization with overlap
     ethr =  3.44E-11,  avg # of iterations =  5.0

     negative rho (up, down):  5.392E-03 0.000E+00

     total cpu time spent up to now is      975.0 secs

     total energy              =     -34.75746367 Ry
     estimated scf accuracy    <          2.2E-10 Ry

     iteration #  8     ecut=    35.00 Ry     beta= 0.60
     Davidson diagonalization with overlap
     ethr =  2.80E-12,  avg # of iterations =  4.0

     negative rho (up, down):  5.392E-03 0.000E+00

     total cpu time spent up to now is      985.2 secs

     total energy              =     -34.75746367 Ry
     estimated scf accuracy    <          1.7E-10 Ry

     iteration #  9     ecut=    35.00 Ry     beta= 0.60
     Davidson diagonalization with overlap
     ethr =  2.13E-12,  avg # of iterations =  1.0

     negative rho (up, down):  5.392E-03 0.000E+00

     total cpu time spent up to now is      993.8 secs

     End of self-consistent calculation

          k = 0.0000 0.0000 0.0000 (318742 PWs)   bands (ev):

   -25.2964 -13.0353  -9.2987  -7.2123

     highest occupied level (ev):    -7.2123

!    total energy              =     -34.75746367 Ry
     estimated scf accuracy    <          5.7E-11 Ry

     The total energy is the sum of the following terms:
     one-electron contribution =     -75.78604291 Ry
     hartree contribution      =      39.37137575 Ry
     xc contribution           =      -8.83599852 Ry
     ewald contribution        =      10.49320201 Ry

     convergence has been achieved in   9 iterations

     negative rho (up, down):  5.392E-03 0.000E+00

     Forces acting on atoms (cartesian axes, Ry/au):

     atom    1 type  1   force =     0.00004233   -0.00043984   -0.00003876
     atom    2 type  2   force =     0.00023521    0.00031519    0.00017770
     atom    3 type  2   force =    -0.00027755    0.00012465   -0.00013894

     Total force =     0.000703     Total SCF correction =     0.000006


     Computing stress (Cartesian axis) and pressure


     negative rho (up, down):  5.392E-03 0.000E+00
          total   stress  (Ry/bohr**3)                   (kbar)     P=       -0.16
  -0.00000104   0.00000002   0.00000008           -0.15        0.00        0.01
   0.00000002  -0.00000102   0.00000004            0.00       -0.15        0.01
   0.00000008   0.00000004  -0.00000114            0.01        0.01       -0.17

     Energy error            =      1.6E-05
     Gradient error          =      4.4E-04

     bfgs converged in   5 scf cycles and   4 bfgs steps
     (criteria: energy <  1.0E-04 Ry, force <  1.0E-03 Ry/Bohr)

     End of BFGS Geometry Optimization

     Final energy   =     -34.7574636717 Ry

     File /home/STUDENTI/leonardo.razzai/WORK/pwscf.bfgs deleted, as requested
Begin final coordinates

ATOMIC_POSITIONS (angstrom)
O             0.7470513945       -0.0358414055        9.6609169259
H            -0.1079618085        0.0027030022        9.1910266333
H             0.9263234140        0.8908389833        9.9101964408
End final coordinates



     Writing output data file /home/STUDENTI/leonardo.razzai/WORK/pwscf.save/
 
     init_run     :     11.12s CPU     12.38s WALL (       1 calls)
     electrons    :    761.46s CPU    874.59s WALL (       5 calls)
     update_pot   :     20.30s CPU     23.36s WALL (       4 calls)
     forces       :     28.36s CPU     33.63s WALL (       5 calls)
     stress       :     52.59s CPU     61.65s WALL (       5 calls)

     Called by init_run:
     wfcinit      :      0.39s CPU      0.41s WALL (       1 calls)
     potinit      :      4.38s CPU      5.10s WALL (       1 calls)
     hinit0       :      1.30s CPU      1.49s WALL (       1 calls)

     Called by electrons:
     c_bands      :     90.77s CPU     92.45s WALL (      85 calls)
     sum_band     :    178.49s CPU    203.91s WALL (      85 calls)
     v_of_rho     :    281.54s CPU    326.31s WALL (      89 calls)
     newd         :     87.97s CPU    113.73s WALL (      89 calls)
     mix_rho      :     92.92s CPU     95.72s WALL (      85 calls)

     Called by c_bands:
     init_us_2    :      1.01s CPU      1.02s WALL (     171 calls)
     regterg      :     89.33s CPU     90.99s WALL (      85 calls)

     Called by *egterg:
     rdiaghg      :      0.04s CPU      0.04s WALL (     379 calls)
     h_psi        :     84.14s CPU     85.76s WALL (     385 calls)
     s_psi        :      0.77s CPU      0.78s WALL (     385 calls)
     g_psi        :      0.17s CPU      0.17s WALL (     299 calls)

     Called by h_psi:
     h_psi:calbec :      0.81s CPU      0.82s WALL (     385 calls)
     vloc_psi     :     82.02s CPU     83.62s WALL (     385 calls)
     add_vuspsi   :      0.94s CPU      0.95s WALL (     385 calls)

     General routines
     calbec       :      1.30s CPU      1.31s WALL (     495 calls)
     fft          :    371.63s CPU    409.69s WALL (    1074 calls)
     ffts         :     16.33s CPU     17.40s WALL (     174 calls)
     fftw         :     66.99s CPU     68.73s WALL (    1502 calls)
     interpolate  :     42.22s CPU     46.54s WALL (      89 calls)
 
     Parallel routines
     fft_scatt_xy :     71.51s CPU     72.15s WALL (    2750 calls)
     fft_scatt_yz :    198.47s CPU    220.02s WALL (    2750 calls)
 
     PWSCF        :  14m42.02s CPU  16m58.25s WALL

 
   This run was terminated on:  15:38: 4  31Mar2023            

=------------------------------------------------------------------------------=
   JOB DONE.
=------------------------------------------------------------------------------=
