MPI startup(): shm:dapl fabric is unknown or has been removed from the product, please use ofi or shm:ofi instead.

     Program PWSCF v.6.7MaX starts on 26Mar2023 at 18:44:47 

     This program is part of the open-source Quantum ESPRESSO suite
     for quantum simulation of materials; please cite
         "P. Giannozzi et al., J. Phys.:Condens. Matter 21 395502 (2009);
         "P. Giannozzi et al., J. Phys.:Condens. Matter 29 465901 (2017);
          URL http://www.quantum-espresso.org", 
     in publications or presentations arising from this work. More details at
     http://www.quantum-espresso.org/quote

     Parallel version (MPI), running on     8 processors

     MPI processes distributed on     1 nodes
     R & G space division:  proc/nbgrp/npool/nimage =       8
     Reading input from k_points_15.pwi

     Current dimensions of program PWSCF are:
     Max number of different atomic species (ntypx) = 10
     Max number of k-points (npk) =  40000
     Max angular momentum in pseudopotentials (lmaxx) =  3

     Subspace diagonalization in iterative solution of the eigenvalue problem:
     a serial algorithm will be used

 
     Parallelization info
     --------------------
     sticks:   dense  smooth     PW     G-vecs:    dense   smooth      PW
     Min          63      31     11                  953      334      76
     Max          64      32     12                  955      337      77
     Sum         511     253     91                 7631     2685     609
 


     bravais-lattice index     =            2
     lattice parameter (alat)  =       7.2447  a.u.
     unit-cell volume          =      95.0607 (a.u.)^3
     number of atoms/cell      =            1
     number of atomic types    =            1
     number of electrons       =        15.00
     number of Kohn-Sham states=           12
     kinetic-energy cutoff     =      35.0000  Ry
     charge density cutoff     =     280.0000  Ry
     scf convergence threshold =      1.0E-06
     mixing beta               =       0.4000
     number of iterations used =            8  plain     mixing
     Exchange-correlation=  SLA  PW   PBX  PBC
                           (   1   4   3   4   0   0   0)

     celldm(1)=   7.244700  celldm(2)=   0.000000  celldm(3)=   0.000000
     celldm(4)=   0.000000  celldm(5)=   0.000000  celldm(6)=   0.000000

     crystal axes: (cart. coord. in units of alat)
               a(1) = (  -0.500000   0.000000   0.500000 )  
               a(2) = (   0.000000   0.500000   0.500000 )  
               a(3) = (  -0.500000   0.500000   0.000000 )  

     reciprocal axes: (cart. coord. in units 2 pi/alat)
               b(1) = ( -1.000000 -1.000000  1.000000 )  
               b(2) = (  1.000000  1.000000  1.000000 )  
               b(3) = ( -1.000000  1.000000 -1.000000 )  


     PseudoPot. # 1 for Rh read from file:
     /home/software/materia/pseudo/rh_pbe_v1.4.uspp.F.UPF
     MD5 check sum: 761627e959a2e3a1f56b0b5fe687810e
     Pseudo is Ultrasoft + core correction, Zval = 15.0
     Generated by new atomic code, or converted to UPF format
     Using radial grid of  969 points,  7 beta functions with: 
                l(1) =   0
                l(2) =   0
                l(3) =   1
                l(4) =   1
                l(5) =   2
                l(6) =   2
                l(7) =   2
     Q(r) pseudized with  8 coefficients,  rinner =    1.200   1.200   1.200
                                                       1.200   1.200

     atomic species   valence    mass     pseudopotential
        Rh            15.00   102.90500     Rh( 1.00)

     Starting magnetic structure 
     atomic species   magnetization
        Rh           0.010

     48 Sym. Ops., with inversion, found



   Cartesian axes

     site n.     atom                  positions (alat units)
         1           Rh  tau(   1) = (   0.0000000   0.0000000   0.0000000  )

     number of k points=   344  Gaussian smearing, width (Ry)=  0.0200

     Number of k-points >= 100: set verbosity='high' to print them.

     Dense  grid:     7631 G-vectors     FFT dimensions: (  27,  27,  27)

     Smooth grid:     2685 G-vectors     FFT dimensions: (  20,  20,  20)

     Estimated max dynamical RAM per process >      12.23 MB

     Estimated total dynamical RAM >      97.86 MB
     Generating pointlists ...
     new r_m :   0.2917 (alat units)  2.1131 (a.u.) for type    1

     Initial potential from superposition of free atoms

     starting charge   14.49990, renormalised to   15.00000

     negative rho (up, down):  2.592E-02 2.540E-02
     Starting wfcs are   12 randomized atomic wfcs

     total cpu time spent up to now is        2.8 secs

     Self-consistent Calculation

     iteration #  1     ecut=    35.00 Ry     beta= 0.40
     Davidson diagonalization with overlap
     ethr =  1.00E-02,  avg # of iterations =  4.3

     negative rho (up, down):  2.708E-02 2.691E-02

     total cpu time spent up to now is       12.2 secs

     total energy              =    -171.08824044 Ry
     estimated scf accuracy    <       0.55677999 Ry

     total magnetization       =     0.05 Bohr mag/cell
     absolute magnetization    =     0.05 Bohr mag/cell

     iteration #  2     ecut=    35.00 Ry     beta= 0.40
     Davidson diagonalization with overlap
     ethr =  3.71E-03,  avg # of iterations =  2.0

     negative rho (up, down):  2.712E-02 2.716E-02

     total cpu time spent up to now is       19.3 secs

     total energy              =    -171.19268749 Ry
     estimated scf accuracy    <       0.00135216 Ry

     total magnetization       =     0.05 Bohr mag/cell
     absolute magnetization    =     0.06 Bohr mag/cell

     iteration #  3     ecut=    35.00 Ry     beta= 0.40
     Davidson diagonalization with overlap
     ethr =  9.01E-06,  avg # of iterations =  3.5

     negative rho (up, down):  2.703E-02 2.733E-02

     total cpu time spent up to now is       28.0 secs

     total energy              =    -171.19302783 Ry
     estimated scf accuracy    <       0.00046717 Ry

     total magnetization       =     0.04 Bohr mag/cell
     absolute magnetization    =     0.05 Bohr mag/cell

     iteration #  4     ecut=    35.00 Ry     beta= 0.40
     Davidson diagonalization with overlap
     ethr =  3.11E-06,  avg # of iterations =  1.1

     negative rho (up, down):  2.707E-02 2.731E-02

     total cpu time spent up to now is       34.2 secs

     total energy              =    -171.19305648 Ry
     estimated scf accuracy    <       0.00003525 Ry

     total magnetization       =     0.02 Bohr mag/cell
     absolute magnetization    =     0.03 Bohr mag/cell

     iteration #  5     ecut=    35.00 Ry     beta= 0.40
     Davidson diagonalization with overlap
     ethr =  2.35E-07,  avg # of iterations =  1.7

     negative rho (up, down):  2.716E-02 2.724E-02

     total cpu time spent up to now is       40.8 secs

     total energy              =    -171.19306361 Ry
     estimated scf accuracy    <       0.00000463 Ry

     total magnetization       =     0.02 Bohr mag/cell
     absolute magnetization    =     0.02 Bohr mag/cell

     iteration #  6     ecut=    35.00 Ry     beta= 0.40
     Davidson diagonalization with overlap
     ethr =  3.09E-08,  avg # of iterations =  2.0

     negative rho (up, down):  2.718E-02 2.721E-02

     total cpu time spent up to now is       47.9 secs

     total energy              =    -171.19307166 Ry
     estimated scf accuracy    <       0.00000150 Ry

     total magnetization       =     0.01 Bohr mag/cell
     absolute magnetization    =     0.01 Bohr mag/cell

     iteration #  7     ecut=    35.00 Ry     beta= 0.40
     Davidson diagonalization with overlap
     ethr =  1.00E-08,  avg # of iterations =  2.0

     negative rho (up, down):  2.719E-02 2.720E-02

     total cpu time spent up to now is       55.9 secs

     total energy              =    -171.19307206 Ry
     estimated scf accuracy    <       0.00000233 Ry

     total magnetization       =     0.00 Bohr mag/cell
     absolute magnetization    =     0.00 Bohr mag/cell

     iteration #  8     ecut=    35.00 Ry     beta= 0.40
     Davidson diagonalization with overlap
     ethr =  1.00E-08,  avg # of iterations =  2.0

     negative rho (up, down):  2.719E-02 2.720E-02
 
     Magnetic moment per site:
     atom:    1    charge:   13.2483    magn:    0.0003    constr:    0.0000

     total cpu time spent up to now is       63.1 secs

     End of self-consistent calculation

     Number of k-points >= 100: set verbosity='high' to print the bands.

     the Fermi energy is    20.7242 ev

!    total energy              =    -171.19307267 Ry
     estimated scf accuracy    <          5.0E-09 Ry
     smearing contrib. (-TS)   =      -0.00382582 Ry
     internal energy E=F+TS    =    -171.18924685 Ry

     The total energy is F=E-TS. E is the sum of the following terms:
     one-electron contribution =     -24.33990220 Ry
     hartree contribution      =      25.47663766 Ry
     xc contribution           =     -29.93306518 Ry
     ewald contribution        =    -142.39291712 Ry

     total magnetization       =     0.00 Bohr mag/cell
     absolute magnetization    =     0.00 Bohr mag/cell

     convergence has been achieved in   8 iterations
 
     init_run     :      2.34s CPU      2.51s WALL (       1 calls)
     electrons    :     56.71s CPU     60.33s WALL (       1 calls)

     Called by init_run:
     wfcinit      :      2.15s CPU      2.30s WALL (       1 calls)
     potinit      :      0.01s CPU      0.02s WALL (       1 calls)
     hinit0       :      0.15s CPU      0.16s WALL (       1 calls)

     Called by electrons:
     c_bands      :     48.14s CPU     51.20s WALL (       8 calls)
     sum_band     :      8.36s CPU      8.91s WALL (       8 calls)
     v_of_rho     :      0.09s CPU      0.10s WALL (       9 calls)
     newd         :      0.12s CPU      0.12s WALL (       9 calls)
     mix_rho      :      0.01s CPU      0.01s WALL (       8 calls)

     Called by c_bands:
     init_us_2    :      0.57s CPU      0.61s WALL (   11696 calls)
     cegterg      :     46.02s CPU     48.94s WALL (    5504 calls)

     Called by *egterg:
     cdiaghg      :      5.05s CPU      5.37s WALL (   18333 calls)
     h_psi        :     38.10s CPU     40.55s WALL (   19021 calls)
     s_psi        :      0.88s CPU      0.95s WALL (   19021 calls)
     g_psi        :      0.14s CPU      0.15s WALL (   12829 calls)

     Called by h_psi:
     h_psi:calbec :      1.02s CPU      1.09s WALL (   19021 calls)
     vloc_psi     :     35.83s CPU     38.13s WALL (   19021 calls)
     add_vuspsi   :      0.92s CPU      0.99s WALL (   19021 calls)

     General routines
     calbec       :      1.26s CPU      1.36s WALL (   24525 calls)
     fft          :      0.06s CPU      0.06s WALL (     219 calls)
     ffts         :      0.00s CPU      0.01s WALL (      34 calls)
     fftw         :     40.40s CPU     43.11s WALL (  403080 calls)
     interpolate  :      0.01s CPU      0.01s WALL (      18 calls)
 
     Parallel routines
     fft_scatt_xy :      2.16s CPU      2.23s WALL (  403333 calls)
     fft_scatt_yz :     14.51s CPU     15.46s WALL (  403333 calls)
 
     PWSCF        :     59.31s CPU   1m 3.12s WALL

 
   This run was terminated on:  18:45:50  26Mar2023            

=------------------------------------------------------------------------------=
   JOB DONE.
=------------------------------------------------------------------------------=
