MPI startup(): shm:dapl fabric is unknown or has been removed from the product, please use ofi or shm:ofi instead.

     Program PWSCF v.6.7MaX starts on 31Mar2023 at 14:39:48 

     This program is part of the open-source Quantum ESPRESSO suite
     for quantum simulation of materials; please cite
         "P. Giannozzi et al., J. Phys.:Condens. Matter 21 395502 (2009);
         "P. Giannozzi et al., J. Phys.:Condens. Matter 29 465901 (2017);
          URL http://www.quantum-espresso.org", 
     in publications or presentations arising from this work. More details at
     http://www.quantum-espresso.org/quote

     Parallel version (MPI), running on     8 processors

     MPI processes distributed on     1 nodes
     R & G space division:  proc/nbgrp/npool/nimage =       8
     Reading input from k_points_05.pwi

     Current dimensions of program PWSCF are:
     Max number of different atomic species (ntypx) = 10
     Max number of k-points (npk) =  40000
     Max angular momentum in pseudopotentials (lmaxx) =  3

     Subspace diagonalization in iterative solution of the eigenvalue problem:
     a serial algorithm will be used

 
     Parallelization info
     --------------------
     sticks:   dense  smooth     PW     G-vecs:    dense   smooth      PW
     Min          63      31     11                  953      334      70
     Max          64      32     12                  955      337      71
     Sum         511     253     91                 7631     2685     561
 


     bravais-lattice index     =            2
     lattice parameter (alat)  =       7.2447  a.u.
     unit-cell volume          =      95.0607 (a.u.)^3
     number of atoms/cell      =            1
     number of atomic types    =            1
     number of electrons       =        15.00
     number of Kohn-Sham states=           12
     kinetic-energy cutoff     =      35.0000  Ry
     charge density cutoff     =     280.0000  Ry
     scf convergence threshold =      1.0E-06
     mixing beta               =       0.4000
     number of iterations used =            8  plain     mixing
     Exchange-correlation=  SLA  PW   PBX  PBC
                           (   1   4   3   4   0   0   0)

     celldm(1)=   7.244700  celldm(2)=   0.000000  celldm(3)=   0.000000
     celldm(4)=   0.000000  celldm(5)=   0.000000  celldm(6)=   0.000000

     crystal axes: (cart. coord. in units of alat)
               a(1) = (  -0.500000   0.000000   0.500000 )  
               a(2) = (   0.000000   0.500000   0.500000 )  
               a(3) = (  -0.500000   0.500000   0.000000 )  

     reciprocal axes: (cart. coord. in units 2 pi/alat)
               b(1) = ( -1.000000 -1.000000  1.000000 )  
               b(2) = (  1.000000  1.000000  1.000000 )  
               b(3) = ( -1.000000  1.000000 -1.000000 )  


     PseudoPot. # 1 for Rh read from file:
     /home/software/materia/pseudo/rh_pbe_v1.4.uspp.F.UPF
     MD5 check sum: 761627e959a2e3a1f56b0b5fe687810e
     Pseudo is Ultrasoft + core correction, Zval = 15.0
     Generated by new atomic code, or converted to UPF format
     Using radial grid of  969 points,  7 beta functions with: 
                l(1) =   0
                l(2) =   0
                l(3) =   1
                l(4) =   1
                l(5) =   2
                l(6) =   2
                l(7) =   2
     Q(r) pseudized with  8 coefficients,  rinner =    1.200   1.200   1.200
                                                       1.200   1.200

     atomic species   valence    mass     pseudopotential
        Rh            15.00   102.90500     Rh( 1.00)

     Starting magnetic structure 
     atomic species   magnetization
        Rh           0.010

     48 Sym. Ops., with inversion, found



   Cartesian axes

     site n.     atom                  positions (alat units)
         1           Rh  tau(   1) = (   0.0000000   0.0000000   0.0000000  )

     number of k points=    19  Gaussian smearing, width (Ry)=  0.0200
                       cart. coord. in units 2pi/alat
        k(    1) = (  -0.1000000   0.1000000   0.1000000), wk =   0.0160000
        k(    2) = (  -0.3000000   0.3000000  -0.1000000), wk =   0.0480000
        k(    3) = (   0.5000000  -0.5000000   0.7000000), wk =   0.0480000
        k(    4) = (   0.3000000  -0.3000000   0.5000000), wk =   0.0480000
        k(    5) = (   0.1000000  -0.1000000   0.3000000), wk =   0.0480000
        k(    6) = (  -0.1000000   0.5000000   0.1000000), wk =   0.0480000
        k(    7) = (   0.7000000  -0.3000000   0.9000000), wk =   0.0960000
        k(    8) = (   0.5000000  -0.1000000   0.7000000), wk =   0.0960000
        k(    9) = (   0.3000000   0.1000000   0.5000000), wk =   0.0960000
        k(   10) = (  -0.1000000  -1.1000000   0.1000000), wk =   0.0480000
        k(   11) = (  -0.3000000  -0.9000000  -0.1000000), wk =   0.0960000
        k(   12) = (  -0.5000000  -0.7000000  -0.3000000), wk =   0.0480000
        k(   13) = (  -0.1000000  -0.7000000   0.1000000), wk =   0.0480000
        k(   14) = (  -0.3000000   0.3000000   0.3000000), wk =   0.0160000
        k(   15) = (   0.5000000  -0.5000000   1.1000000), wk =   0.0480000
        k(   16) = (   0.3000000  -0.3000000   0.9000000), wk =   0.0480000
        k(   17) = (  -0.3000000  -1.3000000   0.3000000), wk =   0.0480000
        k(   18) = (  -0.5000000  -1.1000000   0.1000000), wk =   0.0480000
        k(   19) = (   0.5000000  -0.5000000  -0.5000000), wk =   0.0080000

     Dense  grid:     7631 G-vectors     FFT dimensions: (  27,  27,  27)

     Smooth grid:     2685 G-vectors     FFT dimensions: (  20,  20,  20)

     Estimated max dynamical RAM per process >       7.35 MB

     Estimated total dynamical RAM >      58.82 MB
     Generating pointlists ...
     new r_m :   0.2917 (alat units)  2.1131 (a.u.) for type    1

     Initial potential from superposition of free atoms

     starting charge   14.49990, renormalised to   15.00000

     negative rho (up, down):  2.592E-02 2.540E-02
     Starting wfcs are   12 randomized atomic wfcs

     total cpu time spent up to now is        0.4 secs

     Self-consistent Calculation

     iteration #  1     ecut=    35.00 Ry     beta= 0.40
     Davidson diagonalization with overlap
     ethr =  1.00E-02,  avg # of iterations =  4.3

     negative rho (up, down):  2.707E-02 2.691E-02

     total cpu time spent up to now is        0.7 secs

     total energy              =    -171.08921917 Ry
     estimated scf accuracy    <       0.55563853 Ry

     total magnetization       =     0.06 Bohr mag/cell
     absolute magnetization    =     0.06 Bohr mag/cell

     iteration #  2     ecut=    35.00 Ry     beta= 0.40
     Davidson diagonalization with overlap
     ethr =  3.70E-03,  avg # of iterations =  2.2

     negative rho (up, down):  2.709E-02 2.716E-02

     total cpu time spent up to now is        0.9 secs

     total energy              =    -171.19326536 Ry
     estimated scf accuracy    <       0.00127393 Ry

     total magnetization       =     0.06 Bohr mag/cell
     absolute magnetization    =     0.06 Bohr mag/cell

     iteration #  3     ecut=    35.00 Ry     beta= 0.40
     Davidson diagonalization with overlap
     ethr =  8.49E-06,  avg # of iterations =  3.6

     negative rho (up, down):  2.699E-02 2.733E-02

     total cpu time spent up to now is        1.2 secs

     total energy              =    -171.19359965 Ry
     estimated scf accuracy    <       0.00045009 Ry

     total magnetization       =     0.05 Bohr mag/cell
     absolute magnetization    =     0.05 Bohr mag/cell

     iteration #  4     ecut=    35.00 Ry     beta= 0.40
     Davidson diagonalization with overlap
     ethr =  3.00E-06,  avg # of iterations =  1.1

     negative rho (up, down):  2.703E-02 2.732E-02

     total cpu time spent up to now is        1.4 secs

     total energy              =    -171.19362763 Ry
     estimated scf accuracy    <       0.00003317 Ry

     total magnetization       =     0.03 Bohr mag/cell
     absolute magnetization    =     0.03 Bohr mag/cell

     iteration #  5     ecut=    35.00 Ry     beta= 0.40
     Davidson diagonalization with overlap
     ethr =  2.21E-07,  avg # of iterations =  1.6

     negative rho (up, down):  2.712E-02 2.724E-02

     total cpu time spent up to now is        1.6 secs

     total energy              =    -171.19363382 Ry
     estimated scf accuracy    <       0.00000499 Ry

     total magnetization       =     0.03 Bohr mag/cell
     absolute magnetization    =     0.03 Bohr mag/cell

     iteration #  6     ecut=    35.00 Ry     beta= 0.40
     Davidson diagonalization with overlap
     ethr =  3.33E-08,  avg # of iterations =  2.0

     negative rho (up, down):  2.716E-02 2.718E-02

     total cpu time spent up to now is        1.9 secs

     total energy              =    -171.19364279 Ry
     estimated scf accuracy    <       0.00000218 Ry

     total magnetization       =     0.01 Bohr mag/cell
     absolute magnetization    =     0.01 Bohr mag/cell

     iteration #  7     ecut=    35.00 Ry     beta= 0.40
     Davidson diagonalization with overlap
     ethr =  1.45E-08,  avg # of iterations =  2.0

     negative rho (up, down):  2.717E-02 2.718E-02

     total cpu time spent up to now is        2.1 secs

     total energy              =    -171.19364401 Ry
     estimated scf accuracy    <       0.00000440 Ry

     total magnetization       =     0.00 Bohr mag/cell
     absolute magnetization    =     0.00 Bohr mag/cell

     iteration #  8     ecut=    35.00 Ry     beta= 0.40
     Davidson diagonalization with overlap
     ethr =  1.45E-08,  avg # of iterations =  2.0

     negative rho (up, down):  2.717E-02 2.718E-02
 
     Magnetic moment per site:
     atom:    1    charge:   13.2498    magn:    0.0004    constr:    0.0000

     total cpu time spent up to now is        2.4 secs

     End of self-consistent calculation

 ------ SPIN UP ------------


          k =-0.1000 0.1000 0.1000 (   332 PWs)   bands (ev):

   -25.6892 -25.6317 -25.6317  13.3051  17.6095  17.9101  17.9101  19.7056
    19.7056  37.7959  40.6316  43.1459

          k =-0.3000 0.3000-0.1000 (   327 PWs)   bands (ev):

   -25.9373 -25.7159 -25.6556  14.8955  17.1971  18.1450  18.3720  19.3311
    20.5603  36.5174  38.7179  42.6887

          k = 0.5000-0.5000 0.7000 (   335 PWs)   bands (ev):

   -26.2460 -25.7629 -25.7156  15.1307  17.5289  17.9637  19.4403  20.8858
    22.9503  29.9904  37.1871  40.7116

          k = 0.3000-0.3000 0.5000 (   333 PWs)   bands (ev):

   -26.1741 -25.7275 -25.7258  15.1906  17.6358  18.1535  18.4691  21.0913
    21.5608  31.9562  37.7729  41.5489

          k = 0.1000-0.1000 0.3000 (   328 PWs)   bands (ev):

   -25.8114 -25.6747 -25.6631  14.2255  17.1241  18.2726  18.3211  19.2822
    20.0551  38.5042  39.1017  42.4387

          k =-0.1000 0.5000 0.1000 (   327 PWs)   bands (ev):

   -25.9801 -25.7438 -25.7425  15.3874  16.3564  18.3013  19.1046  20.0350
    20.6265  37.1092  39.5306  39.7862

          k = 0.7000-0.3000 0.9000 (   333 PWs)   bands (ev):

   -26.1463 -25.8839 -25.7896  15.8003  16.3459  17.8956  19.6903  20.9446
    24.0223  32.6058  36.1277  36.9953

          k = 0.5000-0.1000 0.7000 (   334 PWs)   bands (ev):

   -26.1449 -25.9602 -25.7755  16.3358  16.6450  17.5466  19.2249  20.7404
    25.9561  30.6981  34.4972  37.9035

          k = 0.3000 0.1000 0.5000 (   332 PWs)   bands (ev):

   -26.0662 -25.7934 -25.7081  15.7252  16.9800  17.6412  18.8409  19.9659
    21.8486  34.6231  37.7829  40.3001

          k =-0.1000-1.1000 0.1000 (   332 PWs)   bands (ev):

   -26.2245 -25.8887 -25.8541  14.8760  15.2323  20.5312  20.8875  21.5444
    24.6354  32.9073  33.5745  34.8885

          k =-0.3000-0.9000-0.1000 (   339 PWs)   bands (ev):

   -26.1680 -25.9600 -25.8470  15.4469  15.9159  18.6910  20.1886  21.4389
    26.9367  31.0902  33.3765  34.9331

          k =-0.5000-0.7000-0.3000 (   336 PWs)   bands (ev):

   -26.2334 -25.8366 -25.7513  15.5611  17.0285  18.4403  18.6448  21.1475
    25.0424  28.9794  37.1795  38.7747

          k =-0.1000-0.7000 0.1000 (   331 PWs)   bands (ev):

   -26.1342 -25.8337 -25.8119  15.3213  15.6509  19.3521  20.0904  21.2025
    22.1025  34.9168  36.7730  36.7872

          k =-0.3000 0.3000 0.3000 (   338 PWs)   bands (ev):

   -26.0673 -25.6838 -25.6838  14.9163  18.0270  18.0270  18.2206  20.2672
    20.2672  34.1037  38.2078  44.8805

          k = 0.5000-0.5000 1.1000 (   335 PWs)   bands (ev):

   -26.1353 -25.8750 -25.7159  16.0390  17.2225  17.7271  18.6640  19.9783
    23.6299  32.5409  35.9410  40.0531

          k = 0.3000-0.3000 0.9000 (   336 PWs)   bands (ev):

   -26.1441 -25.9999 -25.7949  15.6981  16.5432  18.2064  19.5506  21.0068
    27.7761  29.0243  33.6006  38.3906

          k =-0.3000-1.3000 0.3000 (   327 PWs)   bands (ev):

   -26.2035 -25.8454 -25.7672  15.5831  16.9235  18.2180  18.7471  21.3667
    24.5809  29.9847  36.9599  39.3669

          k =-0.5000-1.1000 0.1000 (   330 PWs)   bands (ev):

   -26.0980 -26.0305 -25.8441  16.0509  16.8235  17.2455  19.5773  21.4129
    29.0164  29.4855  33.4052  34.3308

          k = 0.5000-0.5000-0.5000 (   332 PWs)   bands (ev):

   -26.2922 -25.7149 -25.7149  14.8079  17.6967  17.6967  21.2853  21.2853
    21.4739  29.1165  36.6965  42.2599

 ------ SPIN DOWN ----------


          k =-0.1000 0.1000 0.1000 (   332 PWs)   bands (ev):

   -25.6887 -25.6312 -25.6312  13.3044  17.6099  17.9105  17.9105  19.7060
    19.7060  37.7950  40.6308  43.1453

          k =-0.3000 0.3000-0.1000 (   327 PWs)   bands (ev):

   -25.9368 -25.7154 -25.6551  14.8950  17.1973  18.1453  18.3724  19.3315
    20.5607  36.5168  38.7172  42.6881

          k = 0.5000-0.5000 0.7000 (   335 PWs)   bands (ev):

   -26.2455 -25.7624 -25.7150  15.1307  17.5292  17.9640  19.4402  20.8863
    22.9502  29.9903  37.1862  40.7112

          k = 0.3000-0.3000 0.5000 (   333 PWs)   bands (ev):

   -26.1735 -25.7270 -25.7252  15.1905  17.6361  18.1538  18.4690  21.0918
    21.5609  31.9560  37.7720  41.5485

          k = 0.1000-0.1000 0.3000 (   328 PWs)   bands (ev):

   -25.8109 -25.6742 -25.6625  14.2249  17.1244  18.2730  18.3215  19.2825
    20.0555  38.5035  39.1008  42.4381

          k =-0.1000 0.5000 0.1000 (   327 PWs)   bands (ev):

   -25.9796 -25.7432 -25.7420  15.3869  16.3566  18.3015  19.1050  20.0353
    20.6270  37.1087  39.5298  39.7857

          k = 0.7000-0.3000 0.9000 (   333 PWs)   bands (ev):

   -26.1458 -25.8834 -25.7891  15.8003  16.3459  17.8957  19.6906  20.9450
    24.0223  32.6055  36.1273  36.9948

          k = 0.5000-0.1000 0.7000 (   334 PWs)   bands (ev):

   -26.1443 -25.9596 -25.7750  16.3359  16.6450  17.5467  19.2252  20.7409
    25.9560  30.6979  34.4968  37.9029

          k = 0.3000 0.1000 0.5000 (   332 PWs)   bands (ev):

   -26.0657 -25.7928 -25.7076  15.7250  16.9800  17.6414  18.8412  19.9663
    21.8489  34.6227  37.7823  40.2996

          k =-0.1000-1.1000 0.1000 (   332 PWs)   bands (ev):

   -26.2240 -25.8882 -25.8536  14.8759  15.2325  20.5314  20.8879  21.5450
    24.6351  32.9069  33.5741  34.8880

          k =-0.3000-0.9000-0.1000 (   339 PWs)   bands (ev):

   -26.1675 -25.9595 -25.8465  15.4469  15.9160  18.6912  20.1889  21.4395
    26.9364  31.0898  33.3762  34.9326

          k =-0.5000-0.7000-0.3000 (   336 PWs)   bands (ev):

   -26.2329 -25.8361 -25.7508  15.5611  17.0286  18.4406  18.6448  21.1481
    25.0421  28.9794  37.1787  38.7743

          k =-0.1000-0.7000 0.1000 (   331 PWs)   bands (ev):

   -26.1337 -25.8332 -25.8114  15.3212  15.6511  19.3521  20.0908  21.2029
    22.1025  34.9164  36.7725  36.7868

          k =-0.3000 0.3000 0.3000 (   338 PWs)   bands (ev):

   -26.0668 -25.6833 -25.6833  14.9161  18.0273  18.0273  18.2203  20.2676
    20.2676  34.1032  38.2069  44.8801

          k = 0.5000-0.5000 1.1000 (   335 PWs)   bands (ev):

   -26.1348 -25.8745 -25.7154  16.0390  17.2227  17.7270  18.6643  19.9787
    23.6300  32.5407  35.9405  40.0524

          k = 0.3000-0.3000 0.9000 (   336 PWs)   bands (ev):

   -26.1436 -25.9994 -25.7944  15.6982  16.5432  18.2066  19.5509  21.0073
    27.7758  29.0242  33.6002  38.3901

          k =-0.3000-1.3000 0.3000 (   327 PWs)   bands (ev):

   -26.2030 -25.8448 -25.7667  15.5832  16.9235  18.2181  18.7474  21.3672
    24.5807  29.9846  36.9593  39.3664

          k =-0.5000-1.1000 0.1000 (   330 PWs)   bands (ev):

   -26.0975 -26.0300 -25.8436  16.0509  16.8236  17.2456  19.5776  21.4134
    29.0161  29.4853  33.4050  34.3303

          k = 0.5000-0.5000-0.5000 (   332 PWs)   bands (ev):

   -26.2917 -25.7144 -25.7144  14.8078  17.6970  17.6970  21.2858  21.2858
    21.4731  29.1166  36.6955  42.2595

     the Fermi energy is    20.7387 ev

!    total energy              =    -171.19364490 Ry
     estimated scf accuracy    <       0.00000002 Ry
     smearing contrib. (-TS)   =      -0.00405232 Ry
     internal energy E=F+TS    =    -171.18959258 Ry

     The total energy is F=E-TS. E is the sum of the following terms:
     one-electron contribution =     -24.34593596 Ry
     hartree contribution      =      25.48347527 Ry
     xc contribution           =     -29.93421477 Ry
     ewald contribution        =    -142.39291712 Ry

     total magnetization       =     0.00 Bohr mag/cell
     absolute magnetization    =     0.00 Bohr mag/cell

     convergence has been achieved in   8 iterations
 
     init_run     :      0.15s CPU      0.17s WALL (       1 calls)
     electrons    :      1.88s CPU      2.01s WALL (       1 calls)

     Called by init_run:
     wfcinit      :      0.06s CPU      0.07s WALL (       1 calls)
     potinit      :      0.01s CPU      0.01s WALL (       1 calls)
     hinit0       :      0.07s CPU      0.07s WALL (       1 calls)

     Called by electrons:
     c_bands      :      1.44s CPU      1.52s WALL (       8 calls)
     sum_band     :      0.33s CPU      0.35s WALL (       8 calls)
     v_of_rho     :      0.06s CPU      0.06s WALL (       9 calls)
     newd         :      0.05s CPU      0.06s WALL (       9 calls)
     mix_rho      :      0.01s CPU      0.01s WALL (       8 calls)

     Called by c_bands:
     init_us_2    :      0.02s CPU      0.02s WALL (     646 calls)
     cegterg      :      1.36s CPU      1.44s WALL (     304 calls)

     Called by *egterg:
     cdiaghg      :      0.20s CPU      0.21s WALL (    1016 calls)
     h_psi        :      1.11s CPU      1.18s WALL (    1054 calls)
     s_psi        :      0.02s CPU      0.02s WALL (    1054 calls)
     g_psi        :      0.00s CPU      0.00s WALL (     712 calls)

     Called by h_psi:
     h_psi:calbec :      0.03s CPU      0.03s WALL (    1054 calls)
     vloc_psi     :      1.06s CPU      1.12s WALL (    1054 calls)
     add_vuspsi   :      0.02s CPU      0.02s WALL (    1054 calls)

     General routines
     calbec       :      0.03s CPU      0.03s WALL (    1358 calls)
     fft          :      0.03s CPU      0.04s WALL (     219 calls)
     ffts         :      0.00s CPU      0.00s WALL (      34 calls)
     fftw         :      1.17s CPU      1.25s WALL (   22378 calls)
     interpolate  :      0.00s CPU      0.00s WALL (      18 calls)
 
     Parallel routines
     fft_scatt_xy :      0.09s CPU      0.09s WALL (   22631 calls)
     fft_scatt_yz :      0.38s CPU      0.41s WALL (   22631 calls)
 
     PWSCF        :      2.20s CPU      2.60s WALL

 
   This run was terminated on:  14:39:51  31Mar2023            

=------------------------------------------------------------------------------=
   JOB DONE.
=------------------------------------------------------------------------------=
