MPI startup(): shm:dapl fabric is unknown or has been removed from the product, please use ofi or shm:ofi instead.

     Program PWSCF v.6.7MaX starts on 26Mar2023 at 18:48:38 

     This program is part of the open-source Quantum ESPRESSO suite
     for quantum simulation of materials; please cite
         "P. Giannozzi et al., J. Phys.:Condens. Matter 21 395502 (2009);
         "P. Giannozzi et al., J. Phys.:Condens. Matter 29 465901 (2017);
          URL http://www.quantum-espresso.org", 
     in publications or presentations arising from this work. More details at
     http://www.quantum-espresso.org/quote

     Parallel version (MPI), running on     8 processors

     MPI processes distributed on     1 nodes
     R & G space division:  proc/nbgrp/npool/nimage =       8
     Reading input from k_points_18.pwi

     Current dimensions of program PWSCF are:
     Max number of different atomic species (ntypx) = 10
     Max number of k-points (npk) =  40000
     Max angular momentum in pseudopotentials (lmaxx) =  3

     Subspace diagonalization in iterative solution of the eigenvalue problem:
     a serial algorithm will be used

 
     Parallelization info
     --------------------
     sticks:   dense  smooth     PW     G-vecs:    dense   smooth      PW
     Min          63      31     11                  953      334      76
     Max          64      32     12                  955      337      77
     Sum         511     253     91                 7631     2685     609
 


     bravais-lattice index     =            2
     lattice parameter (alat)  =       7.2447  a.u.
     unit-cell volume          =      95.0607 (a.u.)^3
     number of atoms/cell      =            1
     number of atomic types    =            1
     number of electrons       =        15.00
     number of Kohn-Sham states=           12
     kinetic-energy cutoff     =      35.0000  Ry
     charge density cutoff     =     280.0000  Ry
     scf convergence threshold =      1.0E-06
     mixing beta               =       0.4000
     number of iterations used =            8  plain     mixing
     Exchange-correlation=  SLA  PW   PBX  PBC
                           (   1   4   3   4   0   0   0)

     celldm(1)=   7.244700  celldm(2)=   0.000000  celldm(3)=   0.000000
     celldm(4)=   0.000000  celldm(5)=   0.000000  celldm(6)=   0.000000

     crystal axes: (cart. coord. in units of alat)
               a(1) = (  -0.500000   0.000000   0.500000 )  
               a(2) = (   0.000000   0.500000   0.500000 )  
               a(3) = (  -0.500000   0.500000   0.000000 )  

     reciprocal axes: (cart. coord. in units 2 pi/alat)
               b(1) = ( -1.000000 -1.000000  1.000000 )  
               b(2) = (  1.000000  1.000000  1.000000 )  
               b(3) = ( -1.000000  1.000000 -1.000000 )  


     PseudoPot. # 1 for Rh read from file:
     /home/software/materia/pseudo/rh_pbe_v1.4.uspp.F.UPF
     MD5 check sum: 761627e959a2e3a1f56b0b5fe687810e
     Pseudo is Ultrasoft + core correction, Zval = 15.0
     Generated by new atomic code, or converted to UPF format
     Using radial grid of  969 points,  7 beta functions with: 
                l(1) =   0
                l(2) =   0
                l(3) =   1
                l(4) =   1
                l(5) =   2
                l(6) =   2
                l(7) =   2
     Q(r) pseudized with  8 coefficients,  rinner =    1.200   1.200   1.200
                                                       1.200   1.200

     atomic species   valence    mass     pseudopotential
        Rh            15.00   102.90500     Rh( 1.00)

     Starting magnetic structure 
     atomic species   magnetization
        Rh           0.010

     48 Sym. Ops., with inversion, found



   Cartesian axes

     site n.     atom                  positions (alat units)
         1           Rh  tau(   1) = (   0.0000000   0.0000000   0.0000000  )

     number of k points=   570  Gaussian smearing, width (Ry)=  0.0200

     Number of k-points >= 100: set verbosity='high' to print them.

     Dense  grid:     7631 G-vectors     FFT dimensions: (  27,  27,  27)

     Smooth grid:     2685 G-vectors     FFT dimensions: (  20,  20,  20)

     Estimated max dynamical RAM per process >      15.63 MB

     Estimated total dynamical RAM >     125.01 MB
     Generating pointlists ...
     new r_m :   0.2917 (alat units)  2.1131 (a.u.) for type    1

     Initial potential from superposition of free atoms

     starting charge   14.49990, renormalised to   15.00000

     negative rho (up, down):  2.592E-02 2.540E-02
     Starting wfcs are   12 randomized atomic wfcs

     total cpu time spent up to now is        4.2 secs

     Self-consistent Calculation

     iteration #  1     ecut=    35.00 Ry     beta= 0.40
     Davidson diagonalization with overlap
     ethr =  1.00E-02,  avg # of iterations =  4.3

     negative rho (up, down):  2.708E-02 2.691E-02

     total cpu time spent up to now is       19.4 secs

     total energy              =    -171.08819090 Ry
     estimated scf accuracy    <       0.55685053 Ry

     total magnetization       =     0.05 Bohr mag/cell
     absolute magnetization    =     0.05 Bohr mag/cell

     iteration #  2     ecut=    35.00 Ry     beta= 0.40
     Davidson diagonalization with overlap
     ethr =  3.71E-03,  avg # of iterations =  2.0

     negative rho (up, down):  2.712E-02 2.716E-02

     total cpu time spent up to now is       30.8 secs

     total energy              =    -171.19267431 Ry
     estimated scf accuracy    <       0.00135298 Ry

     total magnetization       =     0.05 Bohr mag/cell
     absolute magnetization    =     0.06 Bohr mag/cell

     iteration #  3     ecut=    35.00 Ry     beta= 0.40
     Davidson diagonalization with overlap
     ethr =  9.02E-06,  avg # of iterations =  3.5

     negative rho (up, down):  2.703E-02 2.733E-02

     total cpu time spent up to now is       44.8 secs

     total energy              =    -171.19301500 Ry
     estimated scf accuracy    <       0.00046750 Ry

     total magnetization       =     0.04 Bohr mag/cell
     absolute magnetization    =     0.05 Bohr mag/cell

     iteration #  4     ecut=    35.00 Ry     beta= 0.40
     Davidson diagonalization with overlap
     ethr =  3.12E-06,  avg # of iterations =  1.1

     negative rho (up, down):  2.707E-02 2.732E-02

     total cpu time spent up to now is       54.7 secs

     total energy              =    -171.19304370 Ry
     estimated scf accuracy    <       0.00003523 Ry

     total magnetization       =     0.02 Bohr mag/cell
     absolute magnetization    =     0.03 Bohr mag/cell

     iteration #  5     ecut=    35.00 Ry     beta= 0.40
     Davidson diagonalization with overlap
     ethr =  2.35E-07,  avg # of iterations =  1.7

     negative rho (up, down):  2.716E-02 2.724E-02

     total cpu time spent up to now is       65.4 secs

     total energy              =    -171.19305075 Ry
     estimated scf accuracy    <       0.00000465 Ry

     total magnetization       =     0.02 Bohr mag/cell
     absolute magnetization    =     0.02 Bohr mag/cell

     iteration #  6     ecut=    35.00 Ry     beta= 0.40
     Davidson diagonalization with overlap
     ethr =  3.10E-08,  avg # of iterations =  2.0

     negative rho (up, down):  2.718E-02 2.721E-02

     total cpu time spent up to now is       76.8 secs

     total energy              =    -171.19305878 Ry
     estimated scf accuracy    <       0.00000156 Ry

     total magnetization       =     0.01 Bohr mag/cell
     absolute magnetization    =     0.01 Bohr mag/cell

     iteration #  7     ecut=    35.00 Ry     beta= 0.40
     Davidson diagonalization with overlap
     ethr =  1.04E-08,  avg # of iterations =  2.0

     negative rho (up, down):  2.719E-02 2.720E-02

     total cpu time spent up to now is       89.6 secs

     total energy              =    -171.19305918 Ry
     estimated scf accuracy    <       0.00000240 Ry

     total magnetization       =     0.00 Bohr mag/cell
     absolute magnetization    =     0.00 Bohr mag/cell

     iteration #  8     ecut=    35.00 Ry     beta= 0.40
     Davidson diagonalization with overlap
     ethr =  1.04E-08,  avg # of iterations =  2.0

     negative rho (up, down):  2.719E-02 2.720E-02
 
     Magnetic moment per site:
     atom:    1    charge:   13.2483    magn:    0.0003    constr:    0.0000

     total cpu time spent up to now is      101.2 secs

     End of self-consistent calculation

     Number of k-points >= 100: set verbosity='high' to print the bands.

     the Fermi energy is    20.7235 ev

!    total energy              =    -171.19305981 Ry
     estimated scf accuracy    <          5.2E-09 Ry
     smearing contrib. (-TS)   =      -0.00381778 Ry
     internal energy E=F+TS    =    -171.18924204 Ry

     The total energy is F=E-TS. E is the sum of the following terms:
     one-electron contribution =     -24.33957205 Ry
     hartree contribution      =      25.47623597 Ry
     xc contribution           =     -29.93298883 Ry
     ewald contribution        =    -142.39291712 Ry

     total magnetization       =     0.00 Bohr mag/cell
     absolute magnetization    =     0.00 Bohr mag/cell

     convergence has been achieved in   8 iterations
 
     init_run     :      3.58s CPU      3.89s WALL (       1 calls)
     electrons    :     90.27s CPU     96.97s WALL (       1 calls)

     Called by init_run:
     wfcinit      :      3.39s CPU      3.68s WALL (       1 calls)
     potinit      :      0.02s CPU      0.02s WALL (       1 calls)
     hinit0       :      0.14s CPU      0.16s WALL (       1 calls)

     Called by electrons:
     c_bands      :     76.97s CPU     82.61s WALL (       8 calls)
     sum_band     :     13.09s CPU     14.14s WALL (       8 calls)
     v_of_rho     :      0.10s CPU      0.10s WALL (       9 calls)
     newd         :      0.11s CPU      0.12s WALL (       9 calls)
     mix_rho      :      0.01s CPU      0.01s WALL (       8 calls)

     Called by c_bands:
     init_us_2    :      0.94s CPU      1.02s WALL (   19380 calls)
     cegterg      :     73.46s CPU     78.84s WALL (    9120 calls)

     Called by *egterg:
     cdiaghg      :      8.58s CPU      9.17s WALL (   30366 calls)
     h_psi        :     60.00s CPU     64.50s WALL (   31506 calls)
     s_psi        :      1.46s CPU      1.59s WALL (   31506 calls)
     g_psi        :      0.24s CPU      0.26s WALL (   21246 calls)

     Called by h_psi:
     h_psi:calbec :      1.69s CPU      1.82s WALL (   31506 calls)
     vloc_psi     :     56.22s CPU     60.44s WALL (   31506 calls)
     add_vuspsi   :      1.54s CPU      1.68s WALL (   31506 calls)

     General routines
     calbec       :      2.01s CPU      2.20s WALL (   40626 calls)
     fft          :      0.06s CPU      0.06s WALL (     219 calls)
     ffts         :      0.00s CPU      0.00s WALL (      34 calls)
     fftw         :     63.06s CPU     68.05s WALL (  668028 calls)
     interpolate  :      0.01s CPU      0.01s WALL (      18 calls)
 
     Parallel routines
     fft_scatt_xy :      3.61s CPU      3.75s WALL (  668281 calls)
     fft_scatt_yz :     19.19s CPU     20.78s WALL (  668281 calls)
 
     PWSCF        :   1m34.13s CPU   1m41.18s WALL

 
   This run was terminated on:  18:50:20  26Mar2023            

=------------------------------------------------------------------------------=
   JOB DONE.
=------------------------------------------------------------------------------=
