MPI startup(): shm:dapl fabric is unknown or has been removed from the product, please use ofi or shm:ofi instead.

     Program PWSCF v.6.7MaX starts on 28Mar2023 at 13:19:32 

     This program is part of the open-source Quantum ESPRESSO suite
     for quantum simulation of materials; please cite
         "P. Giannozzi et al., J. Phys.:Condens. Matter 21 395502 (2009);
         "P. Giannozzi et al., J. Phys.:Condens. Matter 29 465901 (2017);
          URL http://www.quantum-espresso.org", 
     in publications or presentations arising from this work. More details at
     http://www.quantum-espresso.org/quote

     Parallel version (MPI), running on     8 processors

     MPI processes distributed on     1 nodes
     R & G space division:  proc/nbgrp/npool/nimage =       8
     Reading input from k_points_07.pwi

     Current dimensions of program PWSCF are:
     Max number of different atomic species (ntypx) = 10
     Max number of k-points (npk) =  40000
     Max angular momentum in pseudopotentials (lmaxx) =  3

     Subspace diagonalization in iterative solution of the eigenvalue problem:
     a serial algorithm will be used

 
     Parallelization info
     --------------------
     sticks:   dense  smooth     PW     G-vecs:    dense   smooth      PW
     Min          63      31     11                  953      334      76
     Max          64      32     12                  955      337      77
     Sum         511     253     91                 7631     2685     609
 


     bravais-lattice index     =            2
     lattice parameter (alat)  =       7.2447  a.u.
     unit-cell volume          =      95.0607 (a.u.)^3
     number of atoms/cell      =            1
     number of atomic types    =            1
     number of electrons       =        15.00
     number of Kohn-Sham states=           12
     kinetic-energy cutoff     =      35.0000  Ry
     charge density cutoff     =     280.0000  Ry
     scf convergence threshold =      1.0E-06
     mixing beta               =       0.4000
     number of iterations used =            8  plain     mixing
     Exchange-correlation=  SLA  PW   PBX  PBC
                           (   1   4   3   4   0   0   0)

     celldm(1)=   7.244700  celldm(2)=   0.000000  celldm(3)=   0.000000
     celldm(4)=   0.000000  celldm(5)=   0.000000  celldm(6)=   0.000000

     crystal axes: (cart. coord. in units of alat)
               a(1) = (  -0.500000   0.000000   0.500000 )  
               a(2) = (   0.000000   0.500000   0.500000 )  
               a(3) = (  -0.500000   0.500000   0.000000 )  

     reciprocal axes: (cart. coord. in units 2 pi/alat)
               b(1) = ( -1.000000 -1.000000  1.000000 )  
               b(2) = (  1.000000  1.000000  1.000000 )  
               b(3) = ( -1.000000  1.000000 -1.000000 )  


     PseudoPot. # 1 for Rh read from file:
     /home/software/materia/pseudo/rh_pbe_v1.4.uspp.F.UPF
     MD5 check sum: 761627e959a2e3a1f56b0b5fe687810e
     Pseudo is Ultrasoft + core correction, Zval = 15.0
     Generated by new atomic code, or converted to UPF format
     Using radial grid of  969 points,  7 beta functions with: 
                l(1) =   0
                l(2) =   0
                l(3) =   1
                l(4) =   1
                l(5) =   2
                l(6) =   2
                l(7) =   2
     Q(r) pseudized with  8 coefficients,  rinner =    1.200   1.200   1.200
                                                       1.200   1.200

     atomic species   valence    mass     pseudopotential
        Rh            15.00   102.90500     Rh( 1.00)

     Starting magnetic structure 
     atomic species   magnetization
        Rh           0.010

     48 Sym. Ops., with inversion, found



   Cartesian axes

     site n.     atom                  positions (alat units)
         1           Rh  tau(   1) = (   0.0000000   0.0000000   0.0000000  )

     number of k points=    44  Gaussian smearing, width (Ry)=  0.0200
                       cart. coord. in units 2pi/alat
        k(    1) = (  -0.0714286   0.0714286   0.0714286), wk =   0.0058309
        k(    2) = (  -0.2142857   0.2142857  -0.0714286), wk =   0.0174927
        k(    3) = (  -0.3571429   0.3571429  -0.2142857), wk =   0.0174927
        k(    4) = (   0.5000000  -0.5000000   0.6428571), wk =   0.0174927
        k(    5) = (   0.3571429  -0.3571429   0.5000000), wk =   0.0174927
        k(    6) = (   0.2142857  -0.2142857   0.3571429), wk =   0.0174927
        k(    7) = (   0.0714286  -0.0714286   0.2142857), wk =   0.0174927
        k(    8) = (  -0.0714286   0.3571429   0.0714286), wk =   0.0174927
        k(    9) = (  -0.2142857   0.5000000  -0.0714286), wk =   0.0349854
        k(   10) = (   0.6428571  -0.3571429   0.7857143), wk =   0.0349854
        k(   11) = (   0.5000000  -0.2142857   0.6428571), wk =   0.0349854
        k(   12) = (   0.3571429  -0.0714286   0.5000000), wk =   0.0349854
        k(   13) = (   0.2142857   0.0714286   0.3571429), wk =   0.0349854
        k(   14) = (  -0.0714286   0.6428571   0.0714286), wk =   0.0174927
        k(   15) = (   0.7857143  -0.2142857   0.9285714), wk =   0.0349854
        k(   16) = (   0.6428571  -0.0714286   0.7857143), wk =   0.0349854
        k(   17) = (   0.5000000   0.0714286   0.6428571), wk =   0.0349854
        k(   18) = (   0.3571429   0.2142857   0.5000000), wk =   0.0349854
        k(   19) = (  -0.0714286  -1.0714286   0.0714286), wk =   0.0174927
        k(   20) = (  -0.2142857  -0.9285714  -0.0714286), wk =   0.0349854
        k(   21) = (  -0.3571429  -0.7857143  -0.2142857), wk =   0.0349854
        k(   22) = (  -0.5000000  -0.6428571  -0.3571429), wk =   0.0174927
        k(   23) = (  -0.0714286  -0.7857143   0.0714286), wk =   0.0174927
        k(   24) = (  -0.2142857  -0.6428571  -0.0714286), wk =   0.0349854
        k(   25) = (  -0.0714286  -0.5000000   0.0714286), wk =   0.0174927
        k(   26) = (  -0.2142857   0.2142857   0.2142857), wk =   0.0058309
        k(   27) = (  -0.3571429   0.3571429   0.0714286), wk =   0.0174927
        k(   28) = (   0.5000000  -0.5000000   0.9285714), wk =   0.0174927
        k(   29) = (   0.3571429  -0.3571429   0.7857143), wk =   0.0174927
        k(   30) = (   0.2142857  -0.2142857   0.6428571), wk =   0.0174927
        k(   31) = (  -0.2142857   0.5000000   0.2142857), wk =   0.0174927
        k(   32) = (   0.6428571  -0.3571429   1.0714286), wk =   0.0349854
        k(   33) = (   0.5000000  -0.2142857   0.9285714), wk =   0.0349854
        k(   34) = (   0.3571429  -0.0714286   0.7857143), wk =   0.0349854
        k(   35) = (  -0.2142857  -1.2142857   0.2142857), wk =   0.0174927
        k(   36) = (  -0.3571429  -1.0714286   0.0714286), wk =   0.0349854
        k(   37) = (  -0.5000000  -0.9285714  -0.0714286), wk =   0.0174927
        k(   38) = (  -0.2142857  -0.9285714   0.2142857), wk =   0.0174927
        k(   39) = (  -0.3571429   0.3571429   0.3571429), wk =   0.0058309
        k(   40) = (   0.5000000  -0.5000000   1.2142857), wk =   0.0174927
        k(   41) = (   0.3571429  -0.3571429   1.0714286), wk =   0.0174927
        k(   42) = (  -0.3571429  -1.3571429   0.3571429), wk =   0.0174927
        k(   43) = (  -0.5000000  -1.2142857   0.2142857), wk =   0.0174927
        k(   44) = (   0.5000000  -0.5000000  -0.5000000), wk =   0.0029155

     Dense  grid:     7631 G-vectors     FFT dimensions: (  27,  27,  27)

     Smooth grid:     2685 G-vectors     FFT dimensions: (  20,  20,  20)

     Estimated max dynamical RAM per process >       7.73 MB

     Estimated total dynamical RAM >      61.83 MB
     Generating pointlists ...
     new r_m :   0.2917 (alat units)  2.1131 (a.u.) for type    1

     Initial potential from superposition of free atoms

     starting charge   14.49990, renormalised to   15.00000

     negative rho (up, down):  2.592E-02 2.540E-02
     Starting wfcs are   12 randomized atomic wfcs

     total cpu time spent up to now is        0.7 secs

     Self-consistent Calculation

     iteration #  1     ecut=    35.00 Ry     beta= 0.40
     Davidson diagonalization with overlap
     ethr =  1.00E-02,  avg # of iterations =  4.5

     negative rho (up, down):  2.709E-02 2.692E-02

     total cpu time spent up to now is        1.7 secs

     total energy              =    -171.08693421 Ry
     estimated scf accuracy    <       0.55862412 Ry

     total magnetization       =     0.06 Bohr mag/cell
     absolute magnetization    =     0.06 Bohr mag/cell

     iteration #  2     ecut=    35.00 Ry     beta= 0.40
     Davidson diagonalization with overlap
     ethr =  3.72E-03,  avg # of iterations =  2.0

     negative rho (up, down):  2.711E-02 2.715E-02

     total cpu time spent up to now is        2.4 secs

     total energy              =    -171.19270527 Ry
     estimated scf accuracy    <       0.00130001 Ry

     total magnetization       =     0.05 Bohr mag/cell
     absolute magnetization    =     0.05 Bohr mag/cell

     iteration #  3     ecut=    35.00 Ry     beta= 0.40
     Davidson diagonalization with overlap
     ethr =  8.67E-06,  avg # of iterations =  3.6

     negative rho (up, down):  2.702E-02 2.730E-02

     total cpu time spent up to now is        3.3 secs

     total energy              =    -171.19304059 Ry
     estimated scf accuracy    <       0.00047057 Ry

     total magnetization       =     0.04 Bohr mag/cell
     absolute magnetization    =     0.04 Bohr mag/cell

     iteration #  4     ecut=    35.00 Ry     beta= 0.40
     Davidson diagonalization with overlap
     ethr =  3.14E-06,  avg # of iterations =  1.1

     negative rho (up, down):  2.705E-02 2.728E-02

     total cpu time spent up to now is        3.9 secs

     total energy              =    -171.19306989 Ry
     estimated scf accuracy    <       0.00003216 Ry

     total magnetization       =     0.02 Bohr mag/cell
     absolute magnetization    =     0.02 Bohr mag/cell

     iteration #  5     ecut=    35.00 Ry     beta= 0.40
     Davidson diagonalization with overlap
     ethr =  2.14E-07,  avg # of iterations =  1.8

     negative rho (up, down):  2.714E-02 2.721E-02

     total cpu time spent up to now is        4.6 secs

     total energy              =    -171.19307694 Ry
     estimated scf accuracy    <       0.00000453 Ry

     total magnetization       =     0.02 Bohr mag/cell
     absolute magnetization    =     0.02 Bohr mag/cell

     iteration #  6     ecut=    35.00 Ry     beta= 0.40
     Davidson diagonalization with overlap
     ethr =  3.02E-08,  avg # of iterations =  2.0

     negative rho (up, down):  2.716E-02 2.718E-02

     total cpu time spent up to now is        5.3 secs

     total energy              =    -171.19308399 Ry
     estimated scf accuracy    <       0.00000145 Ry

     total magnetization       =     0.00 Bohr mag/cell
     absolute magnetization    =     0.01 Bohr mag/cell

     iteration #  7     ecut=    35.00 Ry     beta= 0.40
     Davidson diagonalization with overlap
     ethr =  9.65E-09,  avg # of iterations =  2.0

     negative rho (up, down):  2.717E-02 2.717E-02

     total cpu time spent up to now is        6.2 secs

     total energy              =    -171.19308421 Ry
     estimated scf accuracy    <       0.00000306 Ry

     total magnetization       =     0.00 Bohr mag/cell
     absolute magnetization    =     0.00 Bohr mag/cell

     iteration #  8     ecut=    35.00 Ry     beta= 0.40
     Davidson diagonalization with overlap
     ethr =  9.65E-09,  avg # of iterations =  2.0

     negative rho (up, down):  2.717E-02 2.717E-02
 
     Magnetic moment per site:
     atom:    1    charge:   13.2500    magn:    0.0002    constr:    0.0000

     total cpu time spent up to now is        6.9 secs

     End of self-consistent calculation

 ------ SPIN UP ------------


          k =-0.0714 0.0714 0.0714 (   332 PWs)   bands (ev):

   -25.6561 -25.6260 -25.6260  13.1191  17.6798  17.8438  17.8438  19.7367
    19.7367  37.5662  41.4454  42.8993

          k =-0.2143 0.2143-0.0714 (   326 PWs)   bands (ev):

   -25.8023 -25.6711 -25.6379  14.0784  17.3201  18.1613  18.1658  19.3947
    19.9788  38.3042  38.8155  42.7251

          k =-0.3571 0.3571-0.2143 (   333 PWs)   bands (ev):

   -26.0811 -25.7174 -25.6773  15.0995  17.8760  18.1127  18.1422  19.9871
    20.9957  33.8815  38.1834  42.5715

          k = 0.5000-0.5000 0.6429 (   336 PWs)   bands (ev):

   -26.2674 -25.7386 -25.7141  14.9710  17.6060  17.8347  19.9917  21.0755
    22.5856  29.5547  36.9889  41.3624

          k = 0.3571-0.3571 0.5000 (   335 PWs)   bands (ev):

   -26.2269 -25.7206 -25.7196  15.0193  17.6503  17.9387  19.3839  21.1867
    21.7919  30.7159  37.2814  41.9281

          k = 0.2143-0.2143 0.3571 (   331 PWs)   bands (ev):

   -25.9884 -25.6905 -25.6764  14.9301  17.4514  18.0802  18.2441  19.9051
    20.3537  35.5052  38.7463  43.0712

          k = 0.0714-0.0714 0.2143 (   331 PWs)   bands (ev):

   -25.7246 -25.6498 -25.6419  13.6271  17.3932  18.0764  18.0846  19.4283
    19.8943  38.1939  40.1000  42.7053

          k =-0.0714 0.3571 0.0714 (   330 PWs)   bands (ev):

   -25.8335 -25.6910 -25.6855  14.5114  16.8749  18.4158  18.5551  19.1522
    20.1877  38.8132  39.4000  41.6509

          k =-0.2143 0.5000-0.0714 (   328 PWs)   bands (ev):

   -26.0154 -25.7713 -25.7165  15.6019  16.5495  17.9098  19.0691  19.9488
    21.2052  36.0290  38.3341  40.3411

          k = 0.6429-0.3571 0.7857 (   329 PWs)   bands (ev):

   -26.1860 -25.8295 -25.7542  15.6425  17.0466  17.9745  18.7632  21.1212
    23.8348  30.9156  37.4338  38.6412

          k = 0.5000-0.2143 0.6429 (   336 PWs)   bands (ev):

   -26.2084 -25.8598 -25.7472  15.7231  16.9957  18.3447  18.5987  20.9202
    24.9522  29.6727  36.6923  38.8653

          k = 0.3571-0.0714 0.5000 (   329 PWs)   bands (ev):

   -26.0761 -25.8229 -25.7009  15.9608  17.0181  17.5315  18.8959  19.7137
    22.3692  34.4066  36.9041  40.2807

          k = 0.2143 0.0714 0.3571 (   329 PWs)   bands (ev):

   -25.9084 -25.7151 -25.6645  14.8592  16.9906  18.1621  18.5201  19.3318
    20.4611  37.2233  38.8974  42.2034

          k =-0.0714 0.6429 0.0714 (   331 PWs)   bands (ev):

   -26.0878 -25.8043 -25.7950  15.3855  15.7422  19.2584  19.9715  20.9620
    21.0435  36.2669  37.4048  37.7524

          k = 0.7857-0.2143 0.9286 (   333 PWs)   bands (ev):

   -26.1714 -25.8867 -25.8281  15.3503  15.6841  19.0245  20.4014  21.2449
    24.2360  33.1252  35.2218  35.4990

          k = 0.6429-0.0714 0.7857 (   339 PWs)   bands (ev):

   -26.1273 -26.0174 -25.8117  15.7290  16.4452  18.1217  19.7141  21.1095
    28.3720  29.1069  33.1024  36.9264

          k = 0.5000 0.0714 0.6429 (   335 PWs)   bands (ev):

   -26.1339 -25.9518 -25.7536  16.3631  16.8395  17.4438  19.1477  20.4113
    25.2176  31.6766  34.3068  38.9251

          k = 0.3571 0.2143 0.5000 (   332 PWs)   bands (ev):

   -26.1518 -25.7644 -25.7079  15.3627  17.5957  18.0743  18.3561  20.5583
    22.0920  32.3742  37.8265  40.6452

          k =-0.0714-1.0714 0.0714 (   334 PWs)   bands (ev):

   -26.2370 -25.8785 -25.8601  14.7653  15.1152  21.0067  21.0788  21.5909
    24.3915  32.9154  33.6692  34.5002

          k =-0.2143-0.9286-0.0714 (   333 PWs)   bands (ev):

   -26.2032 -25.9190 -25.8552  15.0933  15.4749  19.6628  20.6566  21.5509
    26.0094  32.1184  33.1269  34.6095

          k =-0.3571-0.7857-0.2143 (   334 PWs)   bands (ev):

   -26.1753 -25.9219 -25.7917  15.7851  16.5940  18.0100  19.2926  21.2346
    26.1547  29.6657  35.6686  37.3266

          k =-0.5000-0.6429-0.3571 (   334 PWs)   bands (ev):

   -26.2599 -25.7797 -25.7320  15.2185  17.3268  18.0847  19.3026  21.2095
    23.9357  29.0267  37.1685  40.2174

          k =-0.0714-0.7857 0.0714 (   327 PWs)   bands (ev):

   -26.1840 -25.8508 -25.8358  15.0293  15.3333  20.3309  20.6811  21.3291
    22.7780  34.5490  35.2246  35.5639

          k =-0.2143-0.6429-0.0714 (   329 PWs)   bands (ev):

   -26.1066 -25.8324 -25.7776  15.6774  16.0930  18.2398  19.7608  20.7382
    22.4178  34.5885  36.9067  37.8775

          k =-0.0714-0.5000 0.0714 (   327 PWs)   bands (ev):

   -25.9628 -25.7431 -25.7423  15.3228  16.2847  18.4914  19.2121  19.7886
    20.5651  37.8292  39.6284  39.6466

          k =-0.2143 0.2143 0.2143 (   326 PWs)   bands (ev):

   -25.8847 -25.6564 -25.6564  14.4007  17.4622  18.1369  18.1369  19.7909
    19.7909  36.9363  38.7603  44.6531

          k =-0.3571 0.3571 0.0714 (   328 PWs)   bands (ev):

   -25.9989 -25.7623 -25.6658  15.4236  17.0700  17.9987  18.5815  19.2449
    21.2694  35.7563  38.0429  41.9533

          k = 0.5000-0.5000 0.9286 (   333 PWs)   bands (ev):

   -26.1198 -25.8870 -25.7140  16.1953  17.1612  17.5601  18.7713  19.8603
    23.6661  32.9945  35.4927  40.1623

          k = 0.3571-0.3571 0.7857 (   334 PWs)   bands (ev):

   -26.2023 -25.8921 -25.7613  15.7371  16.8853  18.2823  18.7624  21.0913
    25.9510  28.9608  36.0000  39.9757

          k = 0.2143-0.2143 0.6429 (   331 PWs)   bands (ev):

   -26.1450 -25.8174 -25.7743  15.5802  16.6344  18.0537  19.0602  21.3088
    22.8149  32.5647  37.6647  38.7191

          k =-0.2143 0.5000 0.2143 (   330 PWs)   bands (ev):

   -26.0805 -25.7343 -25.7324  15.4211  17.2081  17.8034  18.5568  20.9108
    20.9950  34.0921  38.6106  40.7634

          k = 0.6429-0.3571 1.0714 (   329 PWs)   bands (ev):

   -26.1269 -25.8859 -25.7575  16.1458  16.7071  17.3457  19.4774  20.4581
    23.8401  33.0372  35.6096  38.1633

          k = 0.5000-0.2143 0.9286 (   333 PWs)   bands (ev):

   -26.1158 -26.0060 -25.8092  16.2645  16.6877  17.3142  19.4992  21.0534
    27.2329  30.4562  33.5432  36.2153

          k = 0.3571-0.0714 0.7857 (   338 PWs)   bands (ev):

   -26.1471 -25.9442 -25.8185  15.9089  16.2834  17.8060  19.9064  21.0946
    25.8101  31.7802  34.4546  35.6102

          k =-0.2143-1.2143 0.2143 (   336 PWs)   bands (ev):

   -26.1730 -25.9078 -25.8080  15.4479  16.1268  18.6420  19.6761  21.4302
    25.0566  31.1417  35.3672  37.2530

          k =-0.3571-1.0714 0.0714 (   337 PWs)   bands (ev):

   -26.1425 -25.9835 -25.8571  15.6372  16.1318  18.2492  19.9717  21.5359
    27.8862  30.9762  32.8873  34.1314

          k =-0.5000-0.9286-0.0714 (   330 PWs)   bands (ev):

   -26.0804 -26.0449 -25.8552  15.9779  16.9389  17.1574  19.5999  21.5342
    29.5125  29.7184  32.7632  33.8511

          k =-0.2143-0.9286 0.2143 (   333 PWs)   bands (ev):

   -26.1728 -25.9706 -25.8256  15.2811  15.8845  19.0997  20.2258  21.2993
    27.1840  30.2446  33.0359  36.5002

          k =-0.3571 0.3571 0.3571 (   338 PWs)   bands (ev):

   -26.1693 -25.6968 -25.6968  14.9345  17.8884  17.8884  19.2830  20.6894
    20.6894  32.1745  37.5445  43.8137

          k = 0.5000-0.5000 1.2143 (   332 PWs)   bands (ev):

   -26.1994 -25.8062 -25.7134  15.4605  17.4014  18.2305  18.6491  20.5250
    23.3497  30.9121  37.1951  39.9474

          k = 0.3571-0.3571 1.0714 (   335 PWs)   bands (ev):

   -26.1240 -26.0073 -25.7720  15.9777  16.8545  17.8158  19.3073  20.6580
    26.6952  30.2988  33.4566  39.7210

          k =-0.3571-1.3571 0.3571 (   335 PWs)   bands (ev):

   -26.2400 -25.7894 -25.7431  15.3245  17.2500  18.2478  18.8338  21.3277
    23.8804  29.5062  37.2977  40.6532

          k =-0.5000-1.2143 0.2143 (   336 PWs)   bands (ev):

   -26.1767 -25.9283 -25.7857  16.1435  16.5496  17.8736  19.0807  21.1003
    26.7590  29.0032  36.3209  36.4261

          k = 0.5000-0.5000-0.5000 (   332 PWs)   bands (ev):

   -26.2907 -25.7134 -25.7134  14.8074  17.6979  17.6979  21.2865  21.2865
    21.4742  29.1167  36.6961  42.2596

 ------ SPIN DOWN ----------


          k =-0.0714 0.0714 0.0714 (   332 PWs)   bands (ev):

   -25.6558 -25.6257 -25.6257  13.1186  17.6799  17.8439  17.8439  19.7372
    19.7372  37.5655  41.4449  42.8989

          k =-0.2143 0.2143-0.0714 (   326 PWs)   bands (ev):

   -25.8020 -25.6707 -25.6376  14.0779  17.3201  18.1614  18.1659  19.3951
    19.9792  38.3036  38.8149  42.7247

          k =-0.3571 0.3571-0.2143 (   333 PWs)   bands (ev):

   -26.0808 -25.7171 -25.6770  15.0992  17.8761  18.1129  18.1421  19.9874
    20.9960  33.8812  38.1827  42.5712

          k = 0.5000-0.5000 0.6429 (   336 PWs)   bands (ev):

   -26.2671 -25.7383 -25.7138  14.9708  17.6062  17.8349  19.9916  21.0758
    22.5855  29.5546  36.9882  41.3621

          k = 0.3571-0.3571 0.5000 (   335 PWs)   bands (ev):

   -26.2266 -25.7202 -25.7193  15.0192  17.6505  17.9389  19.3837  21.1870
    21.7919  30.7157  37.2807  41.9278

          k = 0.2143-0.2143 0.3571 (   331 PWs)   bands (ev):

   -25.9881 -25.6902 -25.6761  14.9297  17.4513  18.0803  18.2443  19.9053
    20.3540  35.5048  38.7457  43.0709

          k = 0.0714-0.0714 0.2143 (   331 PWs)   bands (ev):

   -25.7243 -25.6495 -25.6415  13.6266  17.3933  18.0765  18.0847  19.4287
    19.8947  38.1932  40.0995  42.7049

          k =-0.0714 0.3571 0.0714 (   330 PWs)   bands (ev):

   -25.8332 -25.6907 -25.6852  14.5110  16.8749  18.4160  18.5552  19.1524
    20.1882  38.8127  39.3994  41.6505

          k =-0.2143 0.5000-0.0714 (   328 PWs)   bands (ev):

   -26.0151 -25.7710 -25.7162  15.6016  16.5495  17.9099  19.0693  19.9490
    21.2054  36.0286  38.3337  40.3407

          k = 0.6429-0.3571 0.7857 (   329 PWs)   bands (ev):

   -26.1857 -25.8292 -25.7539  15.6424  17.0467  17.9744  18.7634  21.1215
    23.8348  30.9154  37.4333  38.6409

          k = 0.5000-0.2143 0.6429 (   336 PWs)   bands (ev):

   -26.2081 -25.8595 -25.7469  15.7230  16.9959  18.3447  18.5989  20.9204
    24.9521  29.6725  36.6919  38.8649

          k = 0.3571-0.0714 0.5000 (   329 PWs)   bands (ev):

   -26.0758 -25.8225 -25.7006  15.9605  17.0180  17.5317  18.8961  19.7139
    22.3693  34.4063  36.9038  40.2803

          k = 0.2143 0.0714 0.3571 (   329 PWs)   bands (ev):

   -25.9081 -25.7148 -25.6642  14.8588  16.9906  18.1623  18.5202  19.3321
    20.4615  37.2228  38.8969  42.2030

          k =-0.0714 0.6429 0.0714 (   331 PWs)   bands (ev):

   -26.0875 -25.8039 -25.7947  15.3855  15.7422  19.2584  19.9717  20.9624
    21.0435  36.2666  37.4045  37.7520

          k = 0.7857-0.2143 0.9286 (   333 PWs)   bands (ev):

   -26.1711 -25.8864 -25.8278  15.3503  15.6841  19.0245  20.4017  21.2452
    24.2359  33.1249  35.2215  35.4986

          k = 0.6429-0.0714 0.7857 (   339 PWs)   bands (ev):

   -26.1270 -26.0171 -25.8114  15.7290  16.4452  18.1216  19.7145  21.1097
    28.3717  29.1067  33.1022  36.9261

          k = 0.5000 0.0714 0.6429 (   335 PWs)   bands (ev):

   -26.1336 -25.9515 -25.7533  16.3631  16.8396  17.4437  19.1480  20.4115
    25.2175  31.6763  34.3065  38.9247

          k = 0.3571 0.2143 0.5000 (   332 PWs)   bands (ev):

   -26.1515 -25.7641 -25.7076  15.3625  17.5959  18.0742  18.3562  20.5585
    22.0921  32.3739  37.8259  40.6449

          k =-0.0714-1.0714 0.0714 (   334 PWs)   bands (ev):

   -26.2367 -25.8782 -25.8598  14.7654  15.1152  21.0067  21.0793  21.5912
    24.3911  32.9153  33.6688  34.4998

          k =-0.2143-0.9286-0.0714 (   333 PWs)   bands (ev):

   -26.2029 -25.9187 -25.8549  15.0934  15.4748  19.6628  20.6570  21.5511
    26.0091  32.1182  33.1267  34.6091

          k =-0.3571-0.7857-0.2143 (   334 PWs)   bands (ev):

   -26.1750 -25.9216 -25.7914  15.7851  16.5940  18.0100  19.2929  21.2349
    26.1545  29.6655  35.6683  37.3263

          k =-0.5000-0.6429-0.3571 (   334 PWs)   bands (ev):

   -26.2596 -25.7793 -25.7317  15.2184  17.3270  18.0850  19.3025  21.2098
    23.9355  29.0266  37.1679  40.2171

          k =-0.0714-0.7857 0.0714 (   327 PWs)   bands (ev):

   -26.1837 -25.8505 -25.8355  15.0293  15.3332  20.3309  20.6815  21.3294
    22.7778  34.5486  35.2244  35.5636

          k =-0.2143-0.6429-0.0714 (   329 PWs)   bands (ev):

   -26.1063 -25.8321 -25.7772  15.6773  16.0930  18.2398  19.7610  20.7385
    22.4179  34.5882  36.9064  37.8771

          k =-0.0714-0.5000 0.0714 (   327 PWs)   bands (ev):

   -25.9625 -25.7428 -25.7420  15.3225  16.2847  18.4915  19.2122  19.7888
    20.5655  37.8288  39.6281  39.6460

          k =-0.2143 0.2143 0.2143 (   326 PWs)   bands (ev):

   -25.8844 -25.6561 -25.6561  14.4003  17.4622  18.1371  18.1371  19.7912
    19.7912  36.9359  38.7597  44.6527

          k =-0.3571 0.3571 0.0714 (   328 PWs)   bands (ev):

   -25.9986 -25.7620 -25.6655  15.4232  17.0699  17.9989  18.5817  19.2451
    21.2696  35.7559  38.0425  41.9529

          k = 0.5000-0.5000 0.9286 (   333 PWs)   bands (ev):

   -26.1195 -25.8867 -25.7137  16.1951  17.1613  17.5600  18.7716  19.8605
    23.6662  32.9942  35.4924  40.1618

          k = 0.3571-0.3571 0.7857 (   334 PWs)   bands (ev):

   -26.2020 -25.8918 -25.7610  15.7370  16.8854  18.2823  18.7626  21.0916
    25.9507  28.9606  35.9996  39.9753

          k = 0.2143-0.2143 0.6429 (   331 PWs)   bands (ev):

   -26.1447 -25.8170 -25.7740  15.5801  16.6344  18.0537  19.0605  21.3091
    22.8149  32.5645  37.6642  38.7188

          k =-0.2143 0.5000 0.2143 (   330 PWs)   bands (ev):

   -26.0802 -25.7340 -25.7321  15.4208  17.2080  17.8035  18.5570  20.9111
    20.9950  34.0918  38.6100  40.7631

          k = 0.6429-0.3571 1.0714 (   329 PWs)   bands (ev):

   -26.1266 -25.8856 -25.7571  16.1458  16.7072  17.3457  19.4777  20.4584
    23.8401  33.0369  35.6093  38.1629

          k = 0.5000-0.2143 0.9286 (   333 PWs)   bands (ev):

   -26.1155 -26.0057 -25.8089  16.2646  16.6876  17.3142  19.4996  21.0536
    27.2327  30.4559  33.5429  36.2150

          k = 0.3571-0.0714 0.7857 (   338 PWs)   bands (ev):

   -26.1468 -25.9439 -25.8182  15.9090  16.2834  17.8060  19.9067  21.0948
    25.8100  31.7799  34.4543  35.6099

          k =-0.2143-1.2143 0.2143 (   336 PWs)   bands (ev):

   -26.1727 -25.9075 -25.8077  15.4479  16.1268  18.6419  19.6764  21.4305
    25.0565  31.1414  35.3669  37.2527

          k =-0.3571-1.0714 0.0714 (   337 PWs)   bands (ev):

   -26.1422 -25.9832 -25.8568  15.6373  16.1317  18.2492  19.9721  21.5361
    27.8859  30.9760  32.8871  34.1311

          k =-0.5000-0.9286-0.0714 (   330 PWs)   bands (ev):

   -26.0801 -26.0446 -25.8549  15.9780  16.9389  17.1574  19.6003  21.5344
    29.5122  29.7182  32.7631  33.8508

          k =-0.2143-0.9286 0.2143 (   333 PWs)   bands (ev):

   -26.1725 -25.9703 -25.8253  15.2812  15.8844  19.0997  20.2262  21.2995
    27.1838  30.2443  33.0358  36.4999

          k =-0.3571 0.3571 0.3571 (   338 PWs)   bands (ev):

   -26.1690 -25.6965 -25.6965  14.9343  17.8886  17.8886  19.2827  20.6897
    20.6897  32.1743  37.5438  43.8134

          k = 0.5000-0.5000 1.2143 (   332 PWs)   bands (ev):

   -26.1991 -25.8059 -25.7131  15.4604  17.4016  18.2308  18.6489  20.5253
    23.3497  30.9120  37.1945  39.9470

          k = 0.3571-0.3571 1.0714 (   335 PWs)   bands (ev):

   -26.1237 -26.0070 -25.7717  15.9777  16.8545  17.8157  19.3077  20.6582
    26.6951  30.2986  33.4563  39.7208

          k =-0.3571-1.3571 0.3571 (   335 PWs)   bands (ev):

   -26.2397 -25.7891 -25.7428  15.3244  17.2502  18.2480  18.8337  21.3280
    23.8802  29.5060  37.2971  40.6529

          k =-0.5000-1.2143 0.2143 (   336 PWs)   bands (ev):

   -26.1764 -25.9280 -25.7854  16.1434  16.5497  17.8736  19.0810  21.1005
    26.7588  29.0031  36.3204  36.4258

          k = 0.5000-0.5000-0.5000 (   332 PWs)   bands (ev):

   -26.2904 -25.7131 -25.7131  14.8073  17.6981  17.6981  21.2868  21.2868
    21.4736  29.1166  36.6954  42.2592

     the Fermi energy is    20.7424 ev

!    total energy              =    -171.19308489 Ry
     estimated scf accuracy    <          6.9E-09 Ry
     smearing contrib. (-TS)   =      -0.00357151 Ry
     internal energy E=F+TS    =    -171.18951338 Ry

     The total energy is F=E-TS. E is the sum of the following terms:
     one-electron contribution =     -24.34711376 Ry
     hartree contribution      =      25.48524094 Ry
     xc contribution           =     -29.93472344 Ry
     ewald contribution        =    -142.39291712 Ry

     total magnetization       =     0.00 Bohr mag/cell
     absolute magnetization    =     0.00 Bohr mag/cell

     convergence has been achieved in   8 iterations
 
     init_run     :      0.42s CPU      0.45s WALL (       1 calls)
     electrons    :      5.81s CPU      6.24s WALL (       1 calls)

     Called by init_run:
     wfcinit      :      0.21s CPU      0.23s WALL (       1 calls)
     potinit      :      0.01s CPU      0.01s WALL (       1 calls)
     hinit0       :      0.18s CPU      0.18s WALL (       1 calls)

     Called by electrons:
     c_bands      :      4.75s CPU      5.10s WALL (       8 calls)
     sum_band     :      0.92s CPU      0.98s WALL (       8 calls)
     v_of_rho     :      0.08s CPU      0.08s WALL (       9 calls)
     newd         :      0.07s CPU      0.07s WALL (       9 calls)
     mix_rho      :      0.01s CPU      0.01s WALL (       8 calls)

     Called by c_bands:
     init_us_2    :      0.06s CPU      0.07s WALL (    1496 calls)
     cegterg      :      4.51s CPU      4.84s WALL (     704 calls)

     Called by *egterg:
     cdiaghg      :      0.59s CPU      0.64s WALL (    2367 calls)
     h_psi        :      3.68s CPU      3.95s WALL (    2455 calls)
     s_psi        :      0.07s CPU      0.07s WALL (    2455 calls)
     g_psi        :      0.02s CPU      0.02s WALL (    1663 calls)

     Called by h_psi:
     h_psi:calbec :      0.10s CPU      0.11s WALL (    2455 calls)
     vloc_psi     :      3.47s CPU      3.74s WALL (    2455 calls)
     add_vuspsi   :      0.07s CPU      0.08s WALL (    2455 calls)

     General routines
     calbec       :      0.12s CPU      0.13s WALL (    3159 calls)
     fft          :      0.05s CPU      0.05s WALL (     219 calls)
     ffts         :      0.00s CPU      0.00s WALL (      34 calls)
     fftw         :      3.91s CPU      4.23s WALL (   51880 calls)
     interpolate  :      0.01s CPU      0.01s WALL (      18 calls)
 
     Parallel routines
     fft_scatt_xy :      0.23s CPU      0.23s WALL (   52133 calls)
     fft_scatt_yz :      1.32s CPU      1.42s WALL (   52133 calls)
 
     PWSCF        :      6.45s CPU      6.94s WALL

 
   This run was terminated on:  13:19:39  28Mar2023            

=------------------------------------------------------------------------------=
   JOB DONE.
=------------------------------------------------------------------------------=
