MPI startup(): shm:dapl fabric is unknown or has been removed from the product, please use ofi or shm:ofi instead.

     Program PWSCF v.6.7MaX starts on 31Mar2023 at 14:39:45 

     This program is part of the open-source Quantum ESPRESSO suite
     for quantum simulation of materials; please cite
         "P. Giannozzi et al., J. Phys.:Condens. Matter 21 395502 (2009);
         "P. Giannozzi et al., J. Phys.:Condens. Matter 29 465901 (2017);
          URL http://www.quantum-espresso.org", 
     in publications or presentations arising from this work. More details at
     http://www.quantum-espresso.org/quote

     Parallel version (MPI), running on     8 processors

     MPI processes distributed on     1 nodes
     R & G space division:  proc/nbgrp/npool/nimage =       8
     Reading input from k_points_04.pwi

     Current dimensions of program PWSCF are:
     Max number of different atomic species (ntypx) = 10
     Max number of k-points (npk) =  40000
     Max angular momentum in pseudopotentials (lmaxx) =  3

     Subspace diagonalization in iterative solution of the eigenvalue problem:
     a serial algorithm will be used

 
     Parallelization info
     --------------------
     sticks:   dense  smooth     PW     G-vecs:    dense   smooth      PW
     Min          63      31     10                  953      334      66
     Max          64      32     11                  955      337      69
     Sum         511     253     85                 7631     2685     537
 


     bravais-lattice index     =            2
     lattice parameter (alat)  =       7.2447  a.u.
     unit-cell volume          =      95.0607 (a.u.)^3
     number of atoms/cell      =            1
     number of atomic types    =            1
     number of electrons       =        15.00
     number of Kohn-Sham states=           12
     kinetic-energy cutoff     =      35.0000  Ry
     charge density cutoff     =     280.0000  Ry
     scf convergence threshold =      1.0E-06
     mixing beta               =       0.4000
     number of iterations used =            8  plain     mixing
     Exchange-correlation=  SLA  PW   PBX  PBC
                           (   1   4   3   4   0   0   0)

     celldm(1)=   7.244700  celldm(2)=   0.000000  celldm(3)=   0.000000
     celldm(4)=   0.000000  celldm(5)=   0.000000  celldm(6)=   0.000000

     crystal axes: (cart. coord. in units of alat)
               a(1) = (  -0.500000   0.000000   0.500000 )  
               a(2) = (   0.000000   0.500000   0.500000 )  
               a(3) = (  -0.500000   0.500000   0.000000 )  

     reciprocal axes: (cart. coord. in units 2 pi/alat)
               b(1) = ( -1.000000 -1.000000  1.000000 )  
               b(2) = (  1.000000  1.000000  1.000000 )  
               b(3) = ( -1.000000  1.000000 -1.000000 )  


     PseudoPot. # 1 for Rh read from file:
     /home/software/materia/pseudo/rh_pbe_v1.4.uspp.F.UPF
     MD5 check sum: 761627e959a2e3a1f56b0b5fe687810e
     Pseudo is Ultrasoft + core correction, Zval = 15.0
     Generated by new atomic code, or converted to UPF format
     Using radial grid of  969 points,  7 beta functions with: 
                l(1) =   0
                l(2) =   0
                l(3) =   1
                l(4) =   1
                l(5) =   2
                l(6) =   2
                l(7) =   2
     Q(r) pseudized with  8 coefficients,  rinner =    1.200   1.200   1.200
                                                       1.200   1.200

     atomic species   valence    mass     pseudopotential
        Rh            15.00   102.90500     Rh( 1.00)

     Starting magnetic structure 
     atomic species   magnetization
        Rh           0.010

     48 Sym. Ops., with inversion, found



   Cartesian axes

     site n.     atom                  positions (alat units)
         1           Rh  tau(   1) = (   0.0000000   0.0000000   0.0000000  )

     number of k points=    10  Gaussian smearing, width (Ry)=  0.0200
                       cart. coord. in units 2pi/alat
        k(    1) = (  -0.1250000   0.1250000   0.1250000), wk =   0.0312500
        k(    2) = (  -0.3750000   0.3750000  -0.1250000), wk =   0.0937500
        k(    3) = (   0.3750000  -0.3750000   0.6250000), wk =   0.0937500
        k(    4) = (   0.1250000  -0.1250000   0.3750000), wk =   0.0937500
        k(    5) = (  -0.1250000   0.6250000   0.1250000), wk =   0.0937500
        k(    6) = (   0.6250000  -0.1250000   0.8750000), wk =   0.1875000
        k(    7) = (   0.3750000   0.1250000   0.6250000), wk =   0.1875000
        k(    8) = (  -0.1250000  -0.8750000   0.1250000), wk =   0.0937500
        k(    9) = (  -0.3750000   0.3750000   0.3750000), wk =   0.0312500
        k(   10) = (   0.3750000  -0.3750000   1.1250000), wk =   0.0937500

     Dense  grid:     7631 G-vectors     FFT dimensions: (  27,  27,  27)

     Smooth grid:     2685 G-vectors     FFT dimensions: (  20,  20,  20)

     Estimated max dynamical RAM per process >       7.22 MB

     Estimated total dynamical RAM >      57.74 MB
     Generating pointlists ...
     new r_m :   0.2917 (alat units)  2.1131 (a.u.) for type    1

     Initial potential from superposition of free atoms

     starting charge   14.49990, renormalised to   15.00000

     negative rho (up, down):  2.592E-02 2.540E-02
     Starting wfcs are   12 randomized atomic wfcs

     total cpu time spent up to now is        0.3 secs

     Self-consistent Calculation

     iteration #  1     ecut=    35.00 Ry     beta= 0.40
     Davidson diagonalization with overlap
     ethr =  1.00E-02,  avg # of iterations =  4.5

     negative rho (up, down):  2.703E-02 2.692E-02

     total cpu time spent up to now is        0.5 secs

     total energy              =    -171.08919450 Ry
     estimated scf accuracy    <       0.54969577 Ry

     total magnetization       =     0.08 Bohr mag/cell
     absolute magnetization    =     0.08 Bohr mag/cell

     iteration #  2     ecut=    35.00 Ry     beta= 0.40
     Davidson diagonalization with overlap
     ethr =  3.66E-03,  avg # of iterations =  2.0

     negative rho (up, down):  2.707E-02 2.721E-02

     total cpu time spent up to now is        0.7 secs

     total energy              =    -171.19176355 Ry
     estimated scf accuracy    <       0.00143930 Ry

     total magnetization       =     0.08 Bohr mag/cell
     absolute magnetization    =     0.08 Bohr mag/cell

     iteration #  3     ecut=    35.00 Ry     beta= 0.40
     Davidson diagonalization with overlap
     ethr =  9.60E-06,  avg # of iterations =  3.2

     negative rho (up, down):  2.696E-02 2.743E-02

     total cpu time spent up to now is        0.8 secs

     total energy              =    -171.19214250 Ry
     estimated scf accuracy    <       0.00044737 Ry

     total magnetization       =     0.07 Bohr mag/cell
     absolute magnetization    =     0.07 Bohr mag/cell

     iteration #  4     ecut=    35.00 Ry     beta= 0.40
     Davidson diagonalization with overlap
     ethr =  2.98E-06,  avg # of iterations =  1.1

     negative rho (up, down):  2.700E-02 2.741E-02

     total cpu time spent up to now is        0.9 secs

     total energy              =    -171.19216824 Ry
     estimated scf accuracy    <       0.00003358 Ry

     total magnetization       =     0.05 Bohr mag/cell
     absolute magnetization    =     0.05 Bohr mag/cell

     iteration #  5     ecut=    35.00 Ry     beta= 0.40
     Davidson diagonalization with overlap
     ethr =  2.24E-07,  avg # of iterations =  1.6

     negative rho (up, down):  2.711E-02 2.732E-02

     total cpu time spent up to now is        1.1 secs

     total energy              =    -171.19217240 Ry
     estimated scf accuracy    <       0.00000499 Ry

     total magnetization       =     0.05 Bohr mag/cell
     absolute magnetization    =     0.05 Bohr mag/cell

     iteration #  6     ecut=    35.00 Ry     beta= 0.40
     Davidson diagonalization with overlap
     ethr =  3.33E-08,  avg # of iterations =  2.0

     negative rho (up, down):  2.716E-02 2.725E-02

     total cpu time spent up to now is        1.2 secs

     total energy              =    -171.19218476 Ry
     estimated scf accuracy    <       0.00000388 Ry

     total magnetization       =     0.02 Bohr mag/cell
     absolute magnetization    =     0.02 Bohr mag/cell

     iteration #  7     ecut=    35.00 Ry     beta= 0.40
     Davidson diagonalization with overlap
     ethr =  2.58E-08,  avg # of iterations =  2.0

     negative rho (up, down):  2.721E-02 2.721E-02

     total cpu time spent up to now is        1.4 secs

     total energy              =    -171.19218690 Ry
     estimated scf accuracy    <       0.00000832 Ry

     total magnetization       =     0.01 Bohr mag/cell
     absolute magnetization    =     0.01 Bohr mag/cell

     iteration #  8     ecut=    35.00 Ry     beta= 0.40
     Davidson diagonalization with overlap
     ethr =  2.58E-08,  avg # of iterations =  2.0

     negative rho (up, down):  2.721E-02 2.721E-02
 
     Magnetic moment per site:
     atom:    1    charge:   13.2470    magn:    0.0009    constr:    0.0000

     total cpu time spent up to now is        1.5 secs

     End of self-consistent calculation

 ------ SPIN UP ------------


          k =-0.1250 0.1250 0.1250 (   329 PWs)   bands (ev):

   -25.7336 -25.6471 -25.6471  13.5085  17.5394  17.9697  17.9697  19.6778
    19.6778  38.0147  39.8863  43.4181

          k =-0.3750 0.3750-0.1250 (   328 PWs)   bands (ev):

   -26.0581 -25.7712 -25.6854  15.4055  17.3796  17.9488  18.3894  19.5604
    21.4331  34.6974  38.1043  41.5581

          k = 0.3750-0.3750 0.6250 (   333 PWs)   bands (ev):

   -26.2623 -25.7852 -25.7488  15.2187  17.3322  18.1142  19.1051  21.3096
    23.6075  29.3990  37.2414  41.0006

          k = 0.1250-0.1250 0.3750 (   329 PWs)   bands (ev):

   -25.9075 -25.7087 -25.6981  14.7893  16.9012  18.2350  18.5154  19.4720
    20.2721  37.4968  39.3190  41.8348

          k =-0.1250 0.6250 0.1250 (   329 PWs)   bands (ev):

   -26.1010 -25.8154 -25.7956  15.5222  16.0141  18.5817  19.5560  21.0647
    21.5139  35.1464  38.0237  38.0254

          k = 0.6250-0.1250 0.8750 (   336 PWs)   bands (ev):

   -26.1514 -25.9968 -25.8451  15.7873  16.3280  17.9658  19.7882  21.3191
    27.5566  30.1459  33.8664  35.1608

          k = 0.3750 0.1250 0.6250 (   329 PWs)   bands (ev):

   -26.1577 -25.8775 -25.7602  15.9606  16.9715  17.4782  19.0806  20.6131
    23.7728  32.1713  36.4813  38.4844

          k =-0.1250-0.8750 0.1250 (   330 PWs)   bands (ev):

   -26.2198 -25.9088 -25.8568  14.9899  15.3654  20.0848  20.6567  21.5062
    24.8131  32.6137  33.7956  35.3096

          k =-0.3750 0.3750 0.3750 (   338 PWs)   bands (ev):

   -26.2087 -25.7132 -25.7132  14.9128  17.8389  17.8389  19.6551  20.8035
    20.8035  31.5910  37.3554  43.4784

          k = 0.3750-0.3750 1.1250 (   338 PWs)   bands (ev):

   -26.1723 -25.9679 -25.7748  15.9707  16.8591  17.9401  19.0176  20.7201
    26.2083  29.8621  34.5905  40.2066

 ------ SPIN DOWN ----------


          k =-0.1250 0.1250 0.1250 (   329 PWs)   bands (ev):

   -25.7326 -25.6461 -25.6461  13.5075  17.5398  17.9702  17.9702  19.6787
    19.6787  38.0133  39.8852  43.4172

          k =-0.3750 0.3750-0.1250 (   328 PWs)   bands (ev):

   -26.0572 -25.7702 -25.6844  15.4050  17.3796  17.9493  18.3901  19.5612
    21.4338  34.6968  38.1032  41.5574

          k = 0.3750-0.3750 0.6250 (   333 PWs)   bands (ev):

   -26.2614 -25.7842 -25.7479  15.2186  17.3327  18.1149  19.1051  21.3106
    23.6073  29.3990  37.2401  41.0004

          k = 0.1250-0.1250 0.3750 (   329 PWs)   bands (ev):

   -25.9066 -25.7077 -25.6971  14.7885  16.9016  18.2357  18.5161  19.4727
    20.2731  37.4959  39.3177  41.8342

          k =-0.1250 0.6250 0.1250 (   329 PWs)   bands (ev):

   -26.1000 -25.8145 -25.7947  15.5221  16.0143  18.5819  19.5567  21.0657
    21.5141  35.1458  38.0228  38.0248

          k = 0.6250-0.1250 0.8750 (   336 PWs)   bands (ev):

   -26.1505 -25.9959 -25.8441  15.7875  16.3282  17.9660  19.7891  21.3200
    27.5563  30.1455  33.8660  35.1602

          k = 0.3750 0.1250 0.6250 (   329 PWs)   bands (ev):

   -26.1568 -25.8765 -25.7593  15.9606  16.9718  17.4783  19.0813  20.6139
    23.7729  32.1709  36.4806  38.4836

          k =-0.1250-0.8750 0.1250 (   330 PWs)   bands (ev):

   -26.2189 -25.9079 -25.8559  14.9900  15.3655  20.0851  20.6576  21.5071
    24.8127  32.6131  33.7953  35.3089

          k =-0.3750 0.3750 0.3750 (   338 PWs)   bands (ev):

   -26.2077 -25.7122 -25.7122  14.9126  17.8396  17.8396  19.6543  20.8044
    20.8044  31.5907  37.3540  43.4779

          k = 0.3750-0.3750 1.1250 (   338 PWs)   bands (ev):

   -26.1714 -25.9670 -25.7738  15.9709  16.8593  17.9402  19.0184  20.7209
    26.2081  29.8619  34.5900  40.2061

     the Fermi energy is    20.7063 ev

!    total energy              =    -171.19219019 Ry
     estimated scf accuracy    <       0.00000004 Ry
     smearing contrib. (-TS)   =      -0.00487922 Ry
     internal energy E=F+TS    =    -171.18731096 Ry

     The total energy is F=E-TS. E is the sum of the following terms:
     one-electron contribution =     -24.33576157 Ry
     hartree contribution      =      25.47399442 Ry
     xc contribution           =     -29.93262669 Ry
     ewald contribution        =    -142.39291712 Ry

     total magnetization       =     0.00 Bohr mag/cell
     absolute magnetization    =     0.00 Bohr mag/cell

     convergence has been achieved in   8 iterations
 
     init_run     :      0.13s CPU      0.15s WALL (       1 calls)
     electrons    :      1.07s CPU      1.14s WALL (       1 calls)

     Called by init_run:
     wfcinit      :      0.03s CPU      0.04s WALL (       1 calls)
     potinit      :      0.01s CPU      0.01s WALL (       1 calls)
     hinit0       :      0.07s CPU      0.08s WALL (       1 calls)

     Called by electrons:
     c_bands      :      0.73s CPU      0.79s WALL (       8 calls)
     sum_band     :      0.23s CPU      0.24s WALL (       8 calls)
     v_of_rho     :      0.05s CPU      0.05s WALL (       9 calls)
     newd         :      0.06s CPU      0.06s WALL (       9 calls)
     mix_rho      :      0.01s CPU      0.01s WALL (       8 calls)

     Called by c_bands:
     init_us_2    :      0.01s CPU      0.01s WALL (     340 calls)
     cegterg      :      0.69s CPU      0.75s WALL (     160 calls)

     Called by *egterg:
     cdiaghg      :      0.10s CPU      0.11s WALL (     530 calls)
     h_psi        :      0.56s CPU      0.61s WALL (     550 calls)
     s_psi        :      0.01s CPU      0.01s WALL (     550 calls)
     g_psi        :      0.00s CPU      0.00s WALL (     370 calls)

     Called by h_psi:
     h_psi:calbec :      0.01s CPU      0.01s WALL (     550 calls)
     vloc_psi     :      0.53s CPU      0.58s WALL (     550 calls)
     add_vuspsi   :      0.01s CPU      0.01s WALL (     550 calls)

     General routines
     calbec       :      0.02s CPU      0.02s WALL (     710 calls)
     fft          :      0.04s CPU      0.04s WALL (     219 calls)
     ffts         :      0.00s CPU      0.00s WALL (      34 calls)
     fftw         :      0.60s CPU      0.65s WALL (   11906 calls)
     interpolate  :      0.00s CPU      0.00s WALL (      18 calls)
 
     Parallel routines
     fft_scatt_xy :      0.05s CPU      0.05s WALL (   12159 calls)
     fft_scatt_yz :      0.19s CPU      0.21s WALL (   12159 calls)
 
     PWSCF        :      1.38s CPU      1.51s WALL

 
   This run was terminated on:  14:39:47  31Mar2023            

=------------------------------------------------------------------------------=
   JOB DONE.
=------------------------------------------------------------------------------=
