MPI startup(): shm:dapl fabric is unknown or has been removed from the product, please use ofi or shm:ofi instead.

     Program PWSCF v.6.7MaX starts on 28Mar2023 at 13:19:55 

     This program is part of the open-source Quantum ESPRESSO suite
     for quantum simulation of materials; please cite
         "P. Giannozzi et al., J. Phys.:Condens. Matter 21 395502 (2009);
         "P. Giannozzi et al., J. Phys.:Condens. Matter 29 465901 (2017);
          URL http://www.quantum-espresso.org", 
     in publications or presentations arising from this work. More details at
     http://www.quantum-espresso.org/quote

     Parallel version (MPI), running on     8 processors

     MPI processes distributed on     1 nodes
     R & G space division:  proc/nbgrp/npool/nimage =       8
     Reading input from k_points_09.pwi

     Current dimensions of program PWSCF are:
     Max number of different atomic species (ntypx) = 10
     Max number of k-points (npk) =  40000
     Max angular momentum in pseudopotentials (lmaxx) =  3

     Subspace diagonalization in iterative solution of the eigenvalue problem:
     a serial algorithm will be used

 
     Parallelization info
     --------------------
     sticks:   dense  smooth     PW     G-vecs:    dense   smooth      PW
     Min          63      31     11                  953      334      76
     Max          64      32     12                  955      337      77
     Sum         511     253     91                 7631     2685     609
 


     bravais-lattice index     =            2
     lattice parameter (alat)  =       7.2447  a.u.
     unit-cell volume          =      95.0607 (a.u.)^3
     number of atoms/cell      =            1
     number of atomic types    =            1
     number of electrons       =        15.00
     number of Kohn-Sham states=           12
     kinetic-energy cutoff     =      35.0000  Ry
     charge density cutoff     =     280.0000  Ry
     scf convergence threshold =      1.0E-06
     mixing beta               =       0.4000
     number of iterations used =            8  plain     mixing
     Exchange-correlation=  SLA  PW   PBX  PBC
                           (   1   4   3   4   0   0   0)

     celldm(1)=   7.244700  celldm(2)=   0.000000  celldm(3)=   0.000000
     celldm(4)=   0.000000  celldm(5)=   0.000000  celldm(6)=   0.000000

     crystal axes: (cart. coord. in units of alat)
               a(1) = (  -0.500000   0.000000   0.500000 )  
               a(2) = (   0.000000   0.500000   0.500000 )  
               a(3) = (  -0.500000   0.500000   0.000000 )  

     reciprocal axes: (cart. coord. in units 2 pi/alat)
               b(1) = ( -1.000000 -1.000000  1.000000 )  
               b(2) = (  1.000000  1.000000  1.000000 )  
               b(3) = ( -1.000000  1.000000 -1.000000 )  


     PseudoPot. # 1 for Rh read from file:
     /home/software/materia/pseudo/rh_pbe_v1.4.uspp.F.UPF
     MD5 check sum: 761627e959a2e3a1f56b0b5fe687810e
     Pseudo is Ultrasoft + core correction, Zval = 15.0
     Generated by new atomic code, or converted to UPF format
     Using radial grid of  969 points,  7 beta functions with: 
                l(1) =   0
                l(2) =   0
                l(3) =   1
                l(4) =   1
                l(5) =   2
                l(6) =   2
                l(7) =   2
     Q(r) pseudized with  8 coefficients,  rinner =    1.200   1.200   1.200
                                                       1.200   1.200

     atomic species   valence    mass     pseudopotential
        Rh            15.00   102.90500     Rh( 1.00)

     Starting magnetic structure 
     atomic species   magnetization
        Rh           0.010

     48 Sym. Ops., with inversion, found



   Cartesian axes

     site n.     atom                  positions (alat units)
         1           Rh  tau(   1) = (   0.0000000   0.0000000   0.0000000  )

     number of k points=    85  Gaussian smearing, width (Ry)=  0.0200
                       cart. coord. in units 2pi/alat
        k(    1) = (  -0.0555556   0.0555556   0.0555556), wk =   0.0027435
        k(    2) = (  -0.1666667   0.1666667  -0.0555556), wk =   0.0082305
        k(    3) = (  -0.2777778   0.2777778  -0.1666667), wk =   0.0082305
        k(    4) = (  -0.3888889   0.3888889  -0.2777778), wk =   0.0082305
        k(    5) = (   0.5000000  -0.5000000   0.6111111), wk =   0.0082305
        k(    6) = (   0.3888889  -0.3888889   0.5000000), wk =   0.0082305
        k(    7) = (   0.2777778  -0.2777778   0.3888889), wk =   0.0082305
        k(    8) = (   0.1666667  -0.1666667   0.2777778), wk =   0.0082305
        k(    9) = (   0.0555556  -0.0555556   0.1666667), wk =   0.0082305
        k(   10) = (  -0.0555556   0.2777778   0.0555556), wk =   0.0082305
        k(   11) = (  -0.1666667   0.3888889  -0.0555556), wk =   0.0164609
        k(   12) = (  -0.2777778   0.5000000  -0.1666667), wk =   0.0164609
        k(   13) = (   0.6111111  -0.3888889   0.7222222), wk =   0.0164609
        k(   14) = (   0.5000000  -0.2777778   0.6111111), wk =   0.0164609
        k(   15) = (   0.3888889  -0.1666667   0.5000000), wk =   0.0164609
        k(   16) = (   0.2777778  -0.0555556   0.3888889), wk =   0.0164609
        k(   17) = (   0.1666667   0.0555556   0.2777778), wk =   0.0164609
        k(   18) = (  -0.0555556   0.5000000   0.0555556), wk =   0.0082305
        k(   19) = (  -0.1666667   0.6111111  -0.0555556), wk =   0.0164609
        k(   20) = (   0.7222222  -0.2777778   0.8333333), wk =   0.0164609
        k(   21) = (   0.6111111  -0.1666667   0.7222222), wk =   0.0164609
        k(   22) = (   0.5000000  -0.0555556   0.6111111), wk =   0.0164609
        k(   23) = (   0.3888889   0.0555556   0.5000000), wk =   0.0164609
        k(   24) = (   0.2777778   0.1666667   0.3888889), wk =   0.0164609
        k(   25) = (  -0.0555556   0.7222222   0.0555556), wk =   0.0082305
        k(   26) = (   0.8333333  -0.1666667   0.9444444), wk =   0.0164609
        k(   27) = (   0.7222222  -0.0555556   0.8333333), wk =   0.0164609
        k(   28) = (   0.6111111   0.0555556   0.7222222), wk =   0.0164609
        k(   29) = (   0.5000000   0.1666667   0.6111111), wk =   0.0164609
        k(   30) = (   0.3888889   0.2777778   0.5000000), wk =   0.0164609
        k(   31) = (  -0.0555556  -1.0555556   0.0555556), wk =   0.0082305
        k(   32) = (  -0.1666667  -0.9444444  -0.0555556), wk =   0.0164609
        k(   33) = (  -0.2777778  -0.8333333  -0.1666667), wk =   0.0164609
        k(   34) = (  -0.3888889  -0.7222222  -0.2777778), wk =   0.0164609
        k(   35) = (  -0.5000000  -0.6111111  -0.3888889), wk =   0.0082305
        k(   36) = (  -0.0555556  -0.8333333   0.0555556), wk =   0.0082305
        k(   37) = (  -0.1666667  -0.7222222  -0.0555556), wk =   0.0164609
        k(   38) = (  -0.2777778  -0.6111111  -0.1666667), wk =   0.0164609
        k(   39) = (  -0.0555556  -0.6111111   0.0555556), wk =   0.0082305
        k(   40) = (  -0.1666667  -0.5000000  -0.0555556), wk =   0.0164609
        k(   41) = (  -0.0555556  -0.3888889   0.0555556), wk =   0.0082305
        k(   42) = (  -0.1666667   0.1666667   0.1666667), wk =   0.0027435
        k(   43) = (  -0.2777778   0.2777778   0.0555556), wk =   0.0082305
        k(   44) = (  -0.3888889   0.3888889  -0.0555556), wk =   0.0082305
        k(   45) = (   0.5000000  -0.5000000   0.8333333), wk =   0.0082305
        k(   46) = (   0.3888889  -0.3888889   0.7222222), wk =   0.0082305
        k(   47) = (   0.2777778  -0.2777778   0.6111111), wk =   0.0082305
        k(   48) = (   0.1666667  -0.1666667   0.5000000), wk =   0.0082305
        k(   49) = (  -0.1666667   0.3888889   0.1666667), wk =   0.0082305
        k(   50) = (  -0.2777778   0.5000000   0.0555556), wk =   0.0164609
        k(   51) = (   0.6111111  -0.3888889   0.9444444), wk =   0.0164609
        k(   52) = (   0.5000000  -0.2777778   0.8333333), wk =   0.0164609
        k(   53) = (   0.3888889  -0.1666667   0.7222222), wk =   0.0164609
        k(   54) = (   0.2777778  -0.0555556   0.6111111), wk =   0.0164609
        k(   55) = (  -0.1666667   0.6111111   0.1666667), wk =   0.0082305
        k(   56) = (   0.7222222  -0.2777778   1.0555556), wk =   0.0164609
        k(   57) = (   0.6111111  -0.1666667   0.9444444), wk =   0.0164609
        k(   58) = (   0.5000000  -0.0555556   0.8333333), wk =   0.0164609
        k(   59) = (   0.3888889   0.0555556   0.7222222), wk =   0.0164609
        k(   60) = (  -0.1666667  -1.1666667   0.1666667), wk =   0.0082305
        k(   61) = (  -0.2777778  -1.0555556   0.0555556), wk =   0.0164609
        k(   62) = (  -0.3888889  -0.9444444  -0.0555556), wk =   0.0164609
        k(   63) = (  -0.5000000  -0.8333333  -0.1666667), wk =   0.0082305
        k(   64) = (  -0.1666667  -0.9444444   0.1666667), wk =   0.0082305
        k(   65) = (  -0.2777778  -0.8333333   0.0555556), wk =   0.0164609
        k(   66) = (  -0.1666667  -0.7222222   0.1666667), wk =   0.0082305
        k(   67) = (  -0.2777778   0.2777778   0.2777778), wk =   0.0027435
        k(   68) = (  -0.3888889   0.3888889   0.1666667), wk =   0.0082305
        k(   69) = (   0.5000000  -0.5000000   1.0555556), wk =   0.0082305
        k(   70) = (   0.3888889  -0.3888889   0.9444444), wk =   0.0082305
        k(   71) = (   0.2777778  -0.2777778   0.8333333), wk =   0.0082305
        k(   72) = (  -0.2777778   0.5000000   0.2777778), wk =   0.0082305
        k(   73) = (   0.6111111  -0.3888889   1.1666667), wk =   0.0164609
        k(   74) = (   0.5000000  -0.2777778   1.0555556), wk =   0.0164609
        k(   75) = (   0.3888889  -0.1666667   0.9444444), wk =   0.0164609
        k(   76) = (  -0.2777778  -1.2777778   0.2777778), wk =   0.0082305
        k(   77) = (  -0.3888889  -1.1666667   0.1666667), wk =   0.0164609
        k(   78) = (  -0.5000000  -1.0555556   0.0555556), wk =   0.0082305
        k(   79) = (  -0.2777778  -1.0555556   0.2777778), wk =   0.0082305
        k(   80) = (  -0.3888889   0.3888889   0.3888889), wk =   0.0027435
        k(   81) = (   0.5000000  -0.5000000   1.2777778), wk =   0.0082305
        k(   82) = (   0.3888889  -0.3888889   1.1666667), wk =   0.0082305
        k(   83) = (  -0.3888889  -1.3888889   0.3888889), wk =   0.0082305
        k(   84) = (  -0.5000000  -1.2777778   0.2777778), wk =   0.0082305
        k(   85) = (   0.5000000  -0.5000000  -0.5000000), wk =   0.0013717

     Dense  grid:     7631 G-vectors     FFT dimensions: (  27,  27,  27)

     Smooth grid:     2685 G-vectors     FFT dimensions: (  20,  20,  20)

     Estimated max dynamical RAM per process >       8.34 MB

     Estimated total dynamical RAM >      66.75 MB
     Generating pointlists ...
     new r_m :   0.2917 (alat units)  2.1131 (a.u.) for type    1

     Initial potential from superposition of free atoms

     starting charge   14.49990, renormalised to   15.00000

     negative rho (up, down):  2.592E-02 2.540E-02
     Starting wfcs are   12 randomized atomic wfcs

     total cpu time spent up to now is        0.9 secs

     Self-consistent Calculation

     iteration #  1     ecut=    35.00 Ry     beta= 0.40
     Davidson diagonalization with overlap
     ethr =  1.00E-02,  avg # of iterations =  4.4

     negative rho (up, down):  2.708E-02 2.690E-02

     total cpu time spent up to now is        2.9 secs

     total energy              =    -171.08848330 Ry
     estimated scf accuracy    <       0.55636409 Ry

     total magnetization       =     0.05 Bohr mag/cell
     absolute magnetization    =     0.05 Bohr mag/cell

     iteration #  2     ecut=    35.00 Ry     beta= 0.40
     Davidson diagonalization with overlap
     ethr =  3.71E-03,  avg # of iterations =  2.0

     negative rho (up, down):  2.712E-02 2.716E-02

     total cpu time spent up to now is        4.3 secs

     total energy              =    -171.19271730 Ry
     estimated scf accuracy    <       0.00138161 Ry

     total magnetization       =     0.05 Bohr mag/cell
     absolute magnetization    =     0.06 Bohr mag/cell

     iteration #  3     ecut=    35.00 Ry     beta= 0.40
     Davidson diagonalization with overlap
     ethr =  9.21E-06,  avg # of iterations =  3.5

     negative rho (up, down):  2.704E-02 2.734E-02

     total cpu time spent up to now is        6.1 secs

     total energy              =    -171.19306302 Ry
     estimated scf accuracy    <       0.00046902 Ry

     total magnetization       =     0.04 Bohr mag/cell
     absolute magnetization    =     0.05 Bohr mag/cell

     iteration #  4     ecut=    35.00 Ry     beta= 0.40
     Davidson diagonalization with overlap
     ethr =  3.13E-06,  avg # of iterations =  1.1

     negative rho (up, down):  2.708E-02 2.732E-02

     total cpu time spent up to now is        7.4 secs

     total energy              =    -171.19309181 Ry
     estimated scf accuracy    <       0.00003471 Ry

     total magnetization       =     0.02 Bohr mag/cell
     absolute magnetization    =     0.03 Bohr mag/cell

     iteration #  5     ecut=    35.00 Ry     beta= 0.40
     Davidson diagonalization with overlap
     ethr =  2.31E-07,  avg # of iterations =  1.8

     negative rho (up, down):  2.716E-02 2.725E-02

     total cpu time spent up to now is        8.8 secs

     total energy              =    -171.19309889 Ry
     estimated scf accuracy    <       0.00000463 Ry

     total magnetization       =     0.02 Bohr mag/cell
     absolute magnetization    =     0.02 Bohr mag/cell

     iteration #  6     ecut=    35.00 Ry     beta= 0.40
     Davidson diagonalization with overlap
     ethr =  3.09E-08,  avg # of iterations =  2.0

     negative rho (up, down):  2.719E-02 2.721E-02

     total cpu time spent up to now is       10.3 secs

     total energy              =    -171.19310684 Ry
     estimated scf accuracy    <       0.00000161 Ry

     total magnetization       =     0.01 Bohr mag/cell
     absolute magnetization    =     0.01 Bohr mag/cell

     iteration #  7     ecut=    35.00 Ry     beta= 0.40
     Davidson diagonalization with overlap
     ethr =  1.08E-08,  avg # of iterations =  2.0

     negative rho (up, down):  2.720E-02 2.721E-02

     total cpu time spent up to now is       11.9 secs

     total energy              =    -171.19310724 Ry
     estimated scf accuracy    <       0.00000311 Ry

     total magnetization       =     0.00 Bohr mag/cell
     absolute magnetization    =     0.00 Bohr mag/cell

     iteration #  8     ecut=    35.00 Ry     beta= 0.40
     Davidson diagonalization with overlap
     ethr =  1.08E-08,  avg # of iterations =  2.0

     negative rho (up, down):  2.720E-02 2.720E-02
 
     Magnetic moment per site:
     atom:    1    charge:   13.2477    magn:    0.0003    constr:    0.0000

     total cpu time spent up to now is       13.4 secs

     End of self-consistent calculation

     Number of k-points >= 100: set verbosity='high' to print the bands.

     the Fermi energy is    20.7188 ev

!    total energy              =    -171.19310795 Ry
     estimated scf accuracy    <          8.3E-09 Ry
     smearing contrib. (-TS)   =      -0.00381884 Ry
     internal energy E=F+TS    =    -171.18928911 Ry

     The total energy is F=E-TS. E is the sum of the following terms:
     one-electron contribution =     -24.33685982 Ry
     hartree contribution      =      25.47282314 Ry
     xc contribution           =     -29.93233531 Ry
     ewald contribution        =    -142.39291712 Ry

     total magnetization       =     0.00 Bohr mag/cell
     absolute magnetization    =     0.00 Bohr mag/cell

     convergence has been achieved in   8 iterations
 
     init_run     :      0.63s CPU      0.67s WALL (       1 calls)
     electrons    :     11.80s CPU     12.51s WALL (       1 calls)

     Called by init_run:
     wfcinit      :      0.44s CPU      0.46s WALL (       1 calls)
     potinit      :      0.01s CPU      0.01s WALL (       1 calls)
     hinit0       :      0.17s CPU      0.17s WALL (       1 calls)

     Called by electrons:
     c_bands      :      9.82s CPU     10.42s WALL (       8 calls)
     sum_band     :      1.83s CPU      1.92s WALL (       8 calls)
     v_of_rho     :      0.08s CPU      0.08s WALL (       9 calls)
     newd         :      0.07s CPU      0.07s WALL (       9 calls)
     mix_rho      :      0.01s CPU      0.01s WALL (       8 calls)

     Called by c_bands:
     init_us_2    :      0.13s CPU      0.13s WALL (    2890 calls)
     cegterg      :      9.35s CPU      9.92s WALL (    1360 calls)

     Called by *egterg:
     cdiaghg      :      1.14s CPU      1.20s WALL (    4536 calls)
     h_psi        :      7.77s CPU      8.25s WALL (    4706 calls)
     s_psi        :      0.13s CPU      0.14s WALL (    4706 calls)
     g_psi        :      0.03s CPU      0.03s WALL (    3176 calls)

     Called by h_psi:
     h_psi:calbec :      0.20s CPU      0.21s WALL (    4706 calls)
     vloc_psi     :      7.37s CPU      7.83s WALL (    4706 calls)
     add_vuspsi   :      0.14s CPU      0.15s WALL (    4706 calls)

     General routines
     calbec       :      0.24s CPU      0.26s WALL (    6066 calls)
     fft          :      0.05s CPU      0.05s WALL (     219 calls)
     ffts         :      0.00s CPU      0.00s WALL (      34 calls)
     fftw         :      8.35s CPU      8.90s WALL (   99934 calls)
     interpolate  :      0.01s CPU      0.01s WALL (      18 calls)
 
     Parallel routines
     fft_scatt_xy :      0.49s CPU      0.47s WALL (  100187 calls)
     fft_scatt_yz :      2.95s CPU      3.14s WALL (  100187 calls)
 
     PWSCF        :     12.66s CPU     13.49s WALL

 
   This run was terminated on:  13:20: 9  28Mar2023            

=------------------------------------------------------------------------------=
   JOB DONE.
=------------------------------------------------------------------------------=
