MPI startup(): shm:dapl fabric is unknown or has been removed from the product, please use ofi or shm:ofi instead.

     Program PWSCF v.6.7MaX starts on 28Mar2023 at 13:19:41 

     This program is part of the open-source Quantum ESPRESSO suite
     for quantum simulation of materials; please cite
         "P. Giannozzi et al., J. Phys.:Condens. Matter 21 395502 (2009);
         "P. Giannozzi et al., J. Phys.:Condens. Matter 29 465901 (2017);
          URL http://www.quantum-espresso.org", 
     in publications or presentations arising from this work. More details at
     http://www.quantum-espresso.org/quote

     Parallel version (MPI), running on     8 processors

     MPI processes distributed on     1 nodes
     R & G space division:  proc/nbgrp/npool/nimage =       8
     Reading input from k_points_08.pwi

     Current dimensions of program PWSCF are:
     Max number of different atomic species (ntypx) = 10
     Max number of k-points (npk) =  40000
     Max angular momentum in pseudopotentials (lmaxx) =  3

     Subspace diagonalization in iterative solution of the eigenvalue problem:
     a serial algorithm will be used

 
     Parallelization info
     --------------------
     sticks:   dense  smooth     PW     G-vecs:    dense   smooth      PW
     Min          63      31     11                  953      334      76
     Max          64      32     12                  955      337      77
     Sum         511     253     91                 7631     2685     609
 


     bravais-lattice index     =            2
     lattice parameter (alat)  =       7.2447  a.u.
     unit-cell volume          =      95.0607 (a.u.)^3
     number of atoms/cell      =            1
     number of atomic types    =            1
     number of electrons       =        15.00
     number of Kohn-Sham states=           12
     kinetic-energy cutoff     =      35.0000  Ry
     charge density cutoff     =     280.0000  Ry
     scf convergence threshold =      1.0E-06
     mixing beta               =       0.4000
     number of iterations used =            8  plain     mixing
     Exchange-correlation=  SLA  PW   PBX  PBC
                           (   1   4   3   4   0   0   0)

     celldm(1)=   7.244700  celldm(2)=   0.000000  celldm(3)=   0.000000
     celldm(4)=   0.000000  celldm(5)=   0.000000  celldm(6)=   0.000000

     crystal axes: (cart. coord. in units of alat)
               a(1) = (  -0.500000   0.000000   0.500000 )  
               a(2) = (   0.000000   0.500000   0.500000 )  
               a(3) = (  -0.500000   0.500000   0.000000 )  

     reciprocal axes: (cart. coord. in units 2 pi/alat)
               b(1) = ( -1.000000 -1.000000  1.000000 )  
               b(2) = (  1.000000  1.000000  1.000000 )  
               b(3) = ( -1.000000  1.000000 -1.000000 )  


     PseudoPot. # 1 for Rh read from file:
     /home/software/materia/pseudo/rh_pbe_v1.4.uspp.F.UPF
     MD5 check sum: 761627e959a2e3a1f56b0b5fe687810e
     Pseudo is Ultrasoft + core correction, Zval = 15.0
     Generated by new atomic code, or converted to UPF format
     Using radial grid of  969 points,  7 beta functions with: 
                l(1) =   0
                l(2) =   0
                l(3) =   1
                l(4) =   1
                l(5) =   2
                l(6) =   2
                l(7) =   2
     Q(r) pseudized with  8 coefficients,  rinner =    1.200   1.200   1.200
                                                       1.200   1.200

     atomic species   valence    mass     pseudopotential
        Rh            15.00   102.90500     Rh( 1.00)

     Starting magnetic structure 
     atomic species   magnetization
        Rh           0.010

     48 Sym. Ops., with inversion, found



   Cartesian axes

     site n.     atom                  positions (alat units)
         1           Rh  tau(   1) = (   0.0000000   0.0000000   0.0000000  )

     number of k points=    60  Gaussian smearing, width (Ry)=  0.0200
                       cart. coord. in units 2pi/alat
        k(    1) = (  -0.0625000   0.0625000   0.0625000), wk =   0.0039062
        k(    2) = (  -0.1875000   0.1875000  -0.0625000), wk =   0.0117188
        k(    3) = (  -0.3125000   0.3125000  -0.1875000), wk =   0.0117188
        k(    4) = (  -0.4375000   0.4375000  -0.3125000), wk =   0.0117188
        k(    5) = (   0.4375000  -0.4375000   0.5625000), wk =   0.0117188
        k(    6) = (   0.3125000  -0.3125000   0.4375000), wk =   0.0117188
        k(    7) = (   0.1875000  -0.1875000   0.3125000), wk =   0.0117188
        k(    8) = (   0.0625000  -0.0625000   0.1875000), wk =   0.0117188
        k(    9) = (  -0.0625000   0.3125000   0.0625000), wk =   0.0117188
        k(   10) = (  -0.1875000   0.4375000  -0.0625000), wk =   0.0234375
        k(   11) = (  -0.3125000   0.5625000  -0.1875000), wk =   0.0234375
        k(   12) = (   0.5625000  -0.3125000   0.6875000), wk =   0.0234375
        k(   13) = (   0.4375000  -0.1875000   0.5625000), wk =   0.0234375
        k(   14) = (   0.3125000  -0.0625000   0.4375000), wk =   0.0234375
        k(   15) = (   0.1875000   0.0625000   0.3125000), wk =   0.0234375
        k(   16) = (  -0.0625000   0.5625000   0.0625000), wk =   0.0117188
        k(   17) = (  -0.1875000   0.6875000  -0.0625000), wk =   0.0234375
        k(   18) = (   0.6875000  -0.1875000   0.8125000), wk =   0.0234375
        k(   19) = (   0.5625000  -0.0625000   0.6875000), wk =   0.0234375
        k(   20) = (   0.4375000   0.0625000   0.5625000), wk =   0.0234375
        k(   21) = (   0.3125000   0.1875000   0.4375000), wk =   0.0234375
        k(   22) = (  -0.0625000   0.8125000   0.0625000), wk =   0.0117188
        k(   23) = (   0.8125000  -0.0625000   0.9375000), wk =   0.0234375
        k(   24) = (   0.6875000   0.0625000   0.8125000), wk =   0.0234375
        k(   25) = (   0.5625000   0.1875000   0.6875000), wk =   0.0234375
        k(   26) = (   0.4375000   0.3125000   0.5625000), wk =   0.0234375
        k(   27) = (  -0.0625000  -0.9375000   0.0625000), wk =   0.0117188
        k(   28) = (  -0.1875000  -0.8125000  -0.0625000), wk =   0.0234375
        k(   29) = (  -0.3125000  -0.6875000  -0.1875000), wk =   0.0234375
        k(   30) = (  -0.0625000  -0.6875000   0.0625000), wk =   0.0117188
        k(   31) = (  -0.1875000  -0.5625000  -0.0625000), wk =   0.0234375
        k(   32) = (  -0.0625000  -0.4375000   0.0625000), wk =   0.0117188
        k(   33) = (  -0.1875000   0.1875000   0.1875000), wk =   0.0039062
        k(   34) = (  -0.3125000   0.3125000   0.0625000), wk =   0.0117188
        k(   35) = (  -0.4375000   0.4375000  -0.0625000), wk =   0.0117188
        k(   36) = (   0.4375000  -0.4375000   0.8125000), wk =   0.0117188
        k(   37) = (   0.3125000  -0.3125000   0.6875000), wk =   0.0117188
        k(   38) = (   0.1875000  -0.1875000   0.5625000), wk =   0.0117188
        k(   39) = (  -0.1875000   0.4375000   0.1875000), wk =   0.0117188
        k(   40) = (  -0.3125000   0.5625000   0.0625000), wk =   0.0234375
        k(   41) = (   0.5625000  -0.3125000   0.9375000), wk =   0.0234375
        k(   42) = (   0.4375000  -0.1875000   0.8125000), wk =   0.0234375
        k(   43) = (   0.3125000  -0.0625000   0.6875000), wk =   0.0234375
        k(   44) = (  -0.1875000   0.6875000   0.1875000), wk =   0.0117188
        k(   45) = (   0.6875000  -0.1875000   1.0625000), wk =   0.0234375
        k(   46) = (   0.5625000  -0.0625000   0.9375000), wk =   0.0234375
        k(   47) = (   0.4375000   0.0625000   0.8125000), wk =   0.0234375
        k(   48) = (  -0.1875000  -1.0625000   0.1875000), wk =   0.0117188
        k(   49) = (  -0.3125000  -0.9375000   0.0625000), wk =   0.0234375
        k(   50) = (  -0.1875000  -0.8125000   0.1875000), wk =   0.0117188
        k(   51) = (  -0.3125000   0.3125000   0.3125000), wk =   0.0039062
        k(   52) = (  -0.4375000   0.4375000   0.1875000), wk =   0.0117188
        k(   53) = (   0.4375000  -0.4375000   1.0625000), wk =   0.0117188
        k(   54) = (   0.3125000  -0.3125000   0.9375000), wk =   0.0117188
        k(   55) = (  -0.3125000   0.5625000   0.3125000), wk =   0.0117188
        k(   56) = (   0.5625000  -0.3125000   1.1875000), wk =   0.0234375
        k(   57) = (   0.4375000  -0.1875000   1.0625000), wk =   0.0234375
        k(   58) = (  -0.3125000  -1.1875000   0.3125000), wk =   0.0117188
        k(   59) = (  -0.4375000   0.4375000   0.4375000), wk =   0.0039062
        k(   60) = (   0.4375000  -0.4375000   1.3125000), wk =   0.0117188

     Dense  grid:     7631 G-vectors     FFT dimensions: (  27,  27,  27)

     Smooth grid:     2685 G-vectors     FFT dimensions: (  20,  20,  20)

     Estimated max dynamical RAM per process >       7.97 MB

     Estimated total dynamical RAM >      63.75 MB
     Generating pointlists ...
     new r_m :   0.2917 (alat units)  2.1131 (a.u.) for type    1

     Initial potential from superposition of free atoms

     starting charge   14.49990, renormalised to   15.00000

     negative rho (up, down):  2.592E-02 2.540E-02
     Starting wfcs are   12 randomized atomic wfcs

     total cpu time spent up to now is        0.8 secs

     Self-consistent Calculation

     iteration #  1     ecut=    35.00 Ry     beta= 0.40
     Davidson diagonalization with overlap
     ethr =  1.00E-02,  avg # of iterations =  4.4

     negative rho (up, down):  2.707E-02 2.691E-02

     total cpu time spent up to now is        2.3 secs

     total energy              =    -171.08840750 Ry
     estimated scf accuracy    <       0.55580134 Ry

     total magnetization       =     0.06 Bohr mag/cell
     absolute magnetization    =     0.06 Bohr mag/cell

     iteration #  2     ecut=    35.00 Ry     beta= 0.40
     Davidson diagonalization with overlap
     ethr =  3.71E-03,  avg # of iterations =  2.0

     negative rho (up, down):  2.710E-02 2.716E-02

     total cpu time spent up to now is        6.3 secs

     total energy              =    -171.19272386 Ry
     estimated scf accuracy    <       0.00133381 Ry

     total magnetization       =     0.06 Bohr mag/cell
     absolute magnetization    =     0.06 Bohr mag/cell

     iteration #  3     ecut=    35.00 Ry     beta= 0.40
     Davidson diagonalization with overlap
     ethr =  8.89E-06,  avg # of iterations =  3.5

     negative rho (up, down):  2.701E-02 2.733E-02

     total cpu time spent up to now is        7.5 secs

     total energy              =    -171.19307161 Ry
     estimated scf accuracy    <       0.00046081 Ry

     total magnetization       =     0.05 Bohr mag/cell
     absolute magnetization    =     0.05 Bohr mag/cell

     iteration #  4     ecut=    35.00 Ry     beta= 0.40
     Davidson diagonalization with overlap
     ethr =  3.07E-06,  avg # of iterations =  1.1

     negative rho (up, down):  2.705E-02 2.732E-02

     total cpu time spent up to now is        8.4 secs

     total energy              =    -171.19310079 Ry
     estimated scf accuracy    <       0.00003563 Ry

     total magnetization       =     0.03 Bohr mag/cell
     absolute magnetization    =     0.03 Bohr mag/cell

     iteration #  5     ecut=    35.00 Ry     beta= 0.40
     Davidson diagonalization with overlap
     ethr =  2.38E-07,  avg # of iterations =  1.7

     negative rho (up, down):  2.714E-02 2.723E-02

     total cpu time spent up to now is        9.4 secs

     total energy              =    -171.19310795 Ry
     estimated scf accuracy    <       0.00000489 Ry

     total magnetization       =     0.02 Bohr mag/cell
     absolute magnetization    =     0.03 Bohr mag/cell

     iteration #  6     ecut=    35.00 Ry     beta= 0.40
     Davidson diagonalization with overlap
     ethr =  3.26E-08,  avg # of iterations =  2.0

     negative rho (up, down):  2.717E-02 2.720E-02

     total cpu time spent up to now is       10.4 secs

     total energy              =    -171.19311715 Ry
     estimated scf accuracy    <       0.00000151 Ry

     total magnetization       =     0.01 Bohr mag/cell
     absolute magnetization    =     0.01 Bohr mag/cell

     iteration #  7     ecut=    35.00 Ry     beta= 0.40
     Davidson diagonalization with overlap
     ethr =  1.01E-08,  avg # of iterations =  2.0

     negative rho (up, down):  2.718E-02 2.719E-02

     total cpu time spent up to now is       11.5 secs

     total energy              =    -171.19311775 Ry
     estimated scf accuracy    <       0.00000212 Ry

     total magnetization       =     0.00 Bohr mag/cell
     absolute magnetization    =     0.00 Bohr mag/cell

     iteration #  8     ecut=    35.00 Ry     beta= 0.40
     Davidson diagonalization with overlap
     ethr =  1.01E-08,  avg # of iterations =  2.0

     negative rho (up, down):  2.718E-02 2.719E-02
 
     Magnetic moment per site:
     atom:    1    charge:   13.2490    magn:    0.0003    constr:    0.0000

     total cpu time spent up to now is       12.5 secs

     End of self-consistent calculation

     Number of k-points >= 100: set verbosity='high' to print the bands.

     the Fermi energy is    20.7289 ev

!    total energy              =    -171.19311833 Ry
     estimated scf accuracy    <          4.4E-09 Ry
     smearing contrib. (-TS)   =      -0.00390935 Ry
     internal energy E=F+TS    =    -171.18920898 Ry

     The total energy is F=E-TS. E is the sum of the following terms:
     one-electron contribution =     -24.34272768 Ry
     hartree contribution      =      25.48012907 Ry
     xc contribution           =     -29.93369325 Ry
     ewald contribution        =    -142.39291712 Ry

     total magnetization       =     0.00 Bohr mag/cell
     absolute magnetization    =     0.00 Bohr mag/cell

     convergence has been achieved in   8 iterations
 
     init_run     :      0.50s CPU      0.57s WALL (       1 calls)
     electrons    :     10.41s CPU     11.69s WALL (       1 calls)

     Called by init_run:
     wfcinit      :      0.30s CPU      0.34s WALL (       1 calls)
     potinit      :      0.02s CPU      0.02s WALL (       1 calls)
     hinit0       :      0.15s CPU      0.18s WALL (       1 calls)

     Called by electrons:
     c_bands      :      8.77s CPU      9.87s WALL (       8 calls)
     sum_band     :      1.49s CPU      1.67s WALL (       8 calls)
     v_of_rho     :      0.09s CPU      0.09s WALL (       9 calls)
     newd         :      0.08s CPU      0.08s WALL (       9 calls)
     mix_rho      :      0.01s CPU      0.01s WALL (       8 calls)

     Called by c_bands:
     init_us_2    :      0.09s CPU      0.10s WALL (    2040 calls)
     cegterg      :      8.40s CPU      9.39s WALL (     960 calls)

     Called by *egterg:
     cdiaghg      :      0.82s CPU      0.88s WALL (    3215 calls)
     h_psi        :      7.11s CPU      7.92s WALL (    3335 calls)
     s_psi        :      0.09s CPU      0.10s WALL (    3335 calls)
     g_psi        :      0.02s CPU      0.02s WALL (    2255 calls)

     Called by h_psi:
     h_psi:calbec :      0.23s CPU      0.30s WALL (    3335 calls)
     vloc_psi     :      6.74s CPU      7.47s WALL (    3335 calls)
     add_vuspsi   :      0.10s CPU      0.11s WALL (    3335 calls)

     General routines
     calbec       :      0.26s CPU      0.34s WALL (    4295 calls)
     fft          :      0.05s CPU      0.05s WALL (     219 calls)
     ffts         :      0.00s CPU      0.00s WALL (      34 calls)
     fftw         :      7.60s CPU      8.47s WALL (   70314 calls)
     interpolate  :      0.01s CPU      0.01s WALL (      18 calls)
 
     Parallel routines
     fft_scatt_xy :      0.31s CPU      0.31s WALL (   70567 calls)
     fft_scatt_yz :      4.08s CPU      4.64s WALL (   70567 calls)
 
     PWSCF        :     11.15s CPU     12.55s WALL

 
   This run was terminated on:  13:19:53  28Mar2023            

=------------------------------------------------------------------------------=
   JOB DONE.
=------------------------------------------------------------------------------=
