MPI startup(): shm:dapl fabric is unknown or has been removed from the product, please use ofi or shm:ofi instead.

     Program PWSCF v.6.7MaX starts on 26Mar2023 at 18:50:22 

     This program is part of the open-source Quantum ESPRESSO suite
     for quantum simulation of materials; please cite
         "P. Giannozzi et al., J. Phys.:Condens. Matter 21 395502 (2009);
         "P. Giannozzi et al., J. Phys.:Condens. Matter 29 465901 (2017);
          URL http://www.quantum-espresso.org", 
     in publications or presentations arising from this work. More details at
     http://www.quantum-espresso.org/quote

     Parallel version (MPI), running on     8 processors

     MPI processes distributed on     1 nodes
     R & G space division:  proc/nbgrp/npool/nimage =       8
     Reading input from k_points_19.pwi

     Current dimensions of program PWSCF are:
     Max number of different atomic species (ntypx) = 10
     Max number of k-points (npk) =  40000
     Max angular momentum in pseudopotentials (lmaxx) =  3

     Subspace diagonalization in iterative solution of the eigenvalue problem:
     a serial algorithm will be used

 
     Parallelization info
     --------------------
     sticks:   dense  smooth     PW     G-vecs:    dense   smooth      PW
     Min          63      31     11                  953      334      76
     Max          64      32     12                  955      337      77
     Sum         511     253     91                 7631     2685     609
 


     bravais-lattice index     =            2
     lattice parameter (alat)  =       7.2447  a.u.
     unit-cell volume          =      95.0607 (a.u.)^3
     number of atoms/cell      =            1
     number of atomic types    =            1
     number of electrons       =        15.00
     number of Kohn-Sham states=           12
     kinetic-energy cutoff     =      35.0000  Ry
     charge density cutoff     =     280.0000  Ry
     scf convergence threshold =      1.0E-06
     mixing beta               =       0.4000
     number of iterations used =            8  plain     mixing
     Exchange-correlation=  SLA  PW   PBX  PBC
                           (   1   4   3   4   0   0   0)

     celldm(1)=   7.244700  celldm(2)=   0.000000  celldm(3)=   0.000000
     celldm(4)=   0.000000  celldm(5)=   0.000000  celldm(6)=   0.000000

     crystal axes: (cart. coord. in units of alat)
               a(1) = (  -0.500000   0.000000   0.500000 )  
               a(2) = (   0.000000   0.500000   0.500000 )  
               a(3) = (  -0.500000   0.500000   0.000000 )  

     reciprocal axes: (cart. coord. in units 2 pi/alat)
               b(1) = ( -1.000000 -1.000000  1.000000 )  
               b(2) = (  1.000000  1.000000  1.000000 )  
               b(3) = ( -1.000000  1.000000 -1.000000 )  


     PseudoPot. # 1 for Rh read from file:
     /home/software/materia/pseudo/rh_pbe_v1.4.uspp.F.UPF
     MD5 check sum: 761627e959a2e3a1f56b0b5fe687810e
     Pseudo is Ultrasoft + core correction, Zval = 15.0
     Generated by new atomic code, or converted to UPF format
     Using radial grid of  969 points,  7 beta functions with: 
                l(1) =   0
                l(2) =   0
                l(3) =   1
                l(4) =   1
                l(5) =   2
                l(6) =   2
                l(7) =   2
     Q(r) pseudized with  8 coefficients,  rinner =    1.200   1.200   1.200
                                                       1.200   1.200

     atomic species   valence    mass     pseudopotential
        Rh            15.00   102.90500     Rh( 1.00)

     Starting magnetic structure 
     atomic species   magnetization
        Rh           0.010

     48 Sym. Ops., with inversion, found



   Cartesian axes

     site n.     atom                  positions (alat units)
         1           Rh  tau(   1) = (   0.0000000   0.0000000   0.0000000  )

     number of k points=   670  Gaussian smearing, width (Ry)=  0.0200

     Number of k-points >= 100: set verbosity='high' to print them.

     Dense  grid:     7631 G-vectors     FFT dimensions: (  27,  27,  27)

     Smooth grid:     2685 G-vectors     FFT dimensions: (  20,  20,  20)

     Estimated max dynamical RAM per process >      17.13 MB

     Estimated total dynamical RAM >     137.02 MB
     Generating pointlists ...
     new r_m :   0.2917 (alat units)  2.1131 (a.u.) for type    1

     Initial potential from superposition of free atoms

     starting charge   14.49990, renormalised to   15.00000

     negative rho (up, down):  2.592E-02 2.540E-02
     Starting wfcs are   12 randomized atomic wfcs

     total cpu time spent up to now is        4.8 secs

     Self-consistent Calculation

     iteration #  1     ecut=    35.00 Ry     beta= 0.40
     Davidson diagonalization with overlap
     ethr =  1.00E-02,  avg # of iterations =  4.3

     negative rho (up, down):  2.708E-02 2.691E-02

     total cpu time spent up to now is       22.3 secs

     total energy              =    -171.08821562 Ry
     estimated scf accuracy    <       0.55678189 Ry

     total magnetization       =     0.05 Bohr mag/cell
     absolute magnetization    =     0.05 Bohr mag/cell

     iteration #  2     ecut=    35.00 Ry     beta= 0.40
     Davidson diagonalization with overlap
     ethr =  3.71E-03,  avg # of iterations =  2.0

     negative rho (up, down):  2.712E-02 2.716E-02

     total cpu time spent up to now is       35.5 secs

     total energy              =    -171.19266162 Ry
     estimated scf accuracy    <       0.00135301 Ry

     total magnetization       =     0.05 Bohr mag/cell
     absolute magnetization    =     0.06 Bohr mag/cell

     iteration #  3     ecut=    35.00 Ry     beta= 0.40
     Davidson diagonalization with overlap
     ethr =  9.02E-06,  avg # of iterations =  3.5

     negative rho (up, down):  2.703E-02 2.733E-02

     total cpu time spent up to now is       51.7 secs

     total energy              =    -171.19300331 Ry
     estimated scf accuracy    <       0.00046719 Ry

     total magnetization       =     0.04 Bohr mag/cell
     absolute magnetization    =     0.05 Bohr mag/cell

     iteration #  4     ecut=    35.00 Ry     beta= 0.40
     Davidson diagonalization with overlap
     ethr =  3.11E-06,  avg # of iterations =  1.1

     negative rho (up, down):  2.707E-02 2.732E-02

     total cpu time spent up to now is       63.2 secs

     total energy              =    -171.19303200 Ry
     estimated scf accuracy    <       0.00003498 Ry

     total magnetization       =     0.02 Bohr mag/cell
     absolute magnetization    =     0.03 Bohr mag/cell

     iteration #  5     ecut=    35.00 Ry     beta= 0.40
     Davidson diagonalization with overlap
     ethr =  2.33E-07,  avg # of iterations =  1.7

     negative rho (up, down):  2.716E-02 2.724E-02

     total cpu time spent up to now is       75.5 secs

     total energy              =    -171.19303907 Ry
     estimated scf accuracy    <       0.00000464 Ry

     total magnetization       =     0.02 Bohr mag/cell
     absolute magnetization    =     0.02 Bohr mag/cell

     iteration #  6     ecut=    35.00 Ry     beta= 0.40
     Davidson diagonalization with overlap
     ethr =  3.09E-08,  avg # of iterations =  2.0

     negative rho (up, down):  2.718E-02 2.721E-02

     total cpu time spent up to now is       88.7 secs

     total energy              =    -171.19304705 Ry
     estimated scf accuracy    <       0.00000155 Ry

     total magnetization       =     0.01 Bohr mag/cell
     absolute magnetization    =     0.01 Bohr mag/cell

     iteration #  7     ecut=    35.00 Ry     beta= 0.40
     Davidson diagonalization with overlap
     ethr =  1.03E-08,  avg # of iterations =  2.0

     negative rho (up, down):  2.719E-02 2.720E-02

     total cpu time spent up to now is      103.4 secs

     total energy              =    -171.19304746 Ry
     estimated scf accuracy    <       0.00000253 Ry

     total magnetization       =     0.00 Bohr mag/cell
     absolute magnetization    =     0.00 Bohr mag/cell

     iteration #  8     ecut=    35.00 Ry     beta= 0.40
     Davidson diagonalization with overlap
     ethr =  1.03E-08,  avg # of iterations =  2.0

     negative rho (up, down):  2.719E-02 2.720E-02
 
     Magnetic moment per site:
     atom:    1    charge:   13.2483    magn:    0.0003    constr:    0.0000

     total cpu time spent up to now is      116.9 secs

     End of self-consistent calculation

     Number of k-points >= 100: set verbosity='high' to print the bands.

     the Fermi energy is    20.7238 ev

!    total energy              =    -171.19304810 Ry
     estimated scf accuracy    <          6.0E-09 Ry
     smearing contrib. (-TS)   =      -0.00382185 Ry
     internal energy E=F+TS    =    -171.18922625 Ry

     The total energy is F=E-TS. E is the sum of the following terms:
     one-electron contribution =     -24.33965895 Ry
     hartree contribution      =      25.47635908 Ry
     xc contribution           =     -29.93300926 Ry
     ewald contribution        =    -142.39291712 Ry

     total magnetization       =     0.00 Bohr mag/cell
     absolute magnetization    =     0.00 Bohr mag/cell

     convergence has been achieved in   8 iterations
 
     init_run     :      4.13s CPU      4.47s WALL (       1 calls)
     electrons    :    104.99s CPU    112.17s WALL (       1 calls)

     Called by init_run:
     wfcinit      :      3.93s CPU      4.26s WALL (       1 calls)
     potinit      :      0.02s CPU      0.02s WALL (       1 calls)
     hinit0       :      0.15s CPU      0.16s WALL (       1 calls)

     Called by electrons:
     c_bands      :     89.48s CPU     95.55s WALL (       8 calls)
     sum_band     :     15.31s CPU     16.40s WALL (       8 calls)
     v_of_rho     :      0.09s CPU      0.10s WALL (       9 calls)
     newd         :      0.11s CPU      0.12s WALL (       9 calls)
     mix_rho      :      0.01s CPU      0.01s WALL (       8 calls)

     Called by c_bands:
     init_us_2    :      1.10s CPU      1.18s WALL (   22780 calls)
     cegterg      :     85.37s CPU     91.18s WALL (   10720 calls)

     Called by *egterg:
     cdiaghg      :      9.80s CPU     10.46s WALL (   35665 calls)
     h_psi        :     69.72s CPU     74.55s WALL (   37005 calls)
     s_psi        :      1.70s CPU      1.84s WALL (   37005 calls)
     g_psi        :      0.28s CPU      0.29s WALL (   24945 calls)

     Called by h_psi:
     h_psi:calbec :      1.99s CPU      2.14s WALL (   37005 calls)
     vloc_psi     :     65.31s CPU     69.83s WALL (   37005 calls)
     add_vuspsi   :      1.79s CPU      1.94s WALL (   37005 calls)

     General routines
     calbec       :      2.40s CPU      2.61s WALL (   47725 calls)
     fft          :      0.06s CPU      0.06s WALL (     219 calls)
     ffts         :      0.00s CPU      0.00s WALL (      34 calls)
     fftw         :     73.45s CPU     78.84s WALL (  785426 calls)
     interpolate  :      0.01s CPU      0.01s WALL (      18 calls)
 
     Parallel routines
     fft_scatt_xy :      4.13s CPU      4.26s WALL (  785679 calls)
     fft_scatt_yz :     23.27s CPU     24.94s WALL (  785679 calls)
 
     PWSCF        :   1m49.38s CPU   1m56.96s WALL

 
   This run was terminated on:  18:52:19  26Mar2023            

=------------------------------------------------------------------------------=
   JOB DONE.
=------------------------------------------------------------------------------=
