MPI startup(): shm:dapl fabric is unknown or has been removed from the product, please use ofi or shm:ofi instead.

     Program PWSCF v.6.7MaX starts on 28Mar2023 at 13:19:26 

     This program is part of the open-source Quantum ESPRESSO suite
     for quantum simulation of materials; please cite
         "P. Giannozzi et al., J. Phys.:Condens. Matter 21 395502 (2009);
         "P. Giannozzi et al., J. Phys.:Condens. Matter 29 465901 (2017);
          URL http://www.quantum-espresso.org", 
     in publications or presentations arising from this work. More details at
     http://www.quantum-espresso.org/quote

     Parallel version (MPI), running on     8 processors

     MPI processes distributed on     1 nodes
     R & G space division:  proc/nbgrp/npool/nimage =       8
     Reading input from k_points_06.pwi

     Current dimensions of program PWSCF are:
     Max number of different atomic species (ntypx) = 10
     Max number of k-points (npk) =  40000
     Max angular momentum in pseudopotentials (lmaxx) =  3

     Subspace diagonalization in iterative solution of the eigenvalue problem:
     a serial algorithm will be used

 
     Parallelization info
     --------------------
     sticks:   dense  smooth     PW     G-vecs:    dense   smooth      PW
     Min          63      31     11                  953      334      70
     Max          64      32     12                  955      337      71
     Sum         511     253     91                 7631     2685     561
 


     bravais-lattice index     =            2
     lattice parameter (alat)  =       7.2447  a.u.
     unit-cell volume          =      95.0607 (a.u.)^3
     number of atoms/cell      =            1
     number of atomic types    =            1
     number of electrons       =        15.00
     number of Kohn-Sham states=           12
     kinetic-energy cutoff     =      35.0000  Ry
     charge density cutoff     =     280.0000  Ry
     scf convergence threshold =      1.0E-06
     mixing beta               =       0.4000
     number of iterations used =            8  plain     mixing
     Exchange-correlation=  SLA  PW   PBX  PBC
                           (   1   4   3   4   0   0   0)

     celldm(1)=   7.244700  celldm(2)=   0.000000  celldm(3)=   0.000000
     celldm(4)=   0.000000  celldm(5)=   0.000000  celldm(6)=   0.000000

     crystal axes: (cart. coord. in units of alat)
               a(1) = (  -0.500000   0.000000   0.500000 )  
               a(2) = (   0.000000   0.500000   0.500000 )  
               a(3) = (  -0.500000   0.500000   0.000000 )  

     reciprocal axes: (cart. coord. in units 2 pi/alat)
               b(1) = ( -1.000000 -1.000000  1.000000 )  
               b(2) = (  1.000000  1.000000  1.000000 )  
               b(3) = ( -1.000000  1.000000 -1.000000 )  


     PseudoPot. # 1 for Rh read from file:
     /home/software/materia/pseudo/rh_pbe_v1.4.uspp.F.UPF
     MD5 check sum: 761627e959a2e3a1f56b0b5fe687810e
     Pseudo is Ultrasoft + core correction, Zval = 15.0
     Generated by new atomic code, or converted to UPF format
     Using radial grid of  969 points,  7 beta functions with: 
                l(1) =   0
                l(2) =   0
                l(3) =   1
                l(4) =   1
                l(5) =   2
                l(6) =   2
                l(7) =   2
     Q(r) pseudized with  8 coefficients,  rinner =    1.200   1.200   1.200
                                                       1.200   1.200

     atomic species   valence    mass     pseudopotential
        Rh            15.00   102.90500     Rh( 1.00)

     Starting magnetic structure 
     atomic species   magnetization
        Rh           0.010

     48 Sym. Ops., with inversion, found



   Cartesian axes

     site n.     atom                  positions (alat units)
         1           Rh  tau(   1) = (   0.0000000   0.0000000   0.0000000  )

     number of k points=    28  Gaussian smearing, width (Ry)=  0.0200
                       cart. coord. in units 2pi/alat
        k(    1) = (  -0.0833333   0.0833333   0.0833333), wk =   0.0092593
        k(    2) = (  -0.2500000   0.2500000  -0.0833333), wk =   0.0277778
        k(    3) = (  -0.4166667   0.4166667  -0.2500000), wk =   0.0277778
        k(    4) = (   0.4166667  -0.4166667   0.5833333), wk =   0.0277778
        k(    5) = (   0.2500000  -0.2500000   0.4166667), wk =   0.0277778
        k(    6) = (   0.0833333  -0.0833333   0.2500000), wk =   0.0277778
        k(    7) = (  -0.0833333   0.4166667   0.0833333), wk =   0.0277778
        k(    8) = (  -0.2500000   0.5833333  -0.0833333), wk =   0.0555556
        k(    9) = (   0.5833333  -0.2500000   0.7500000), wk =   0.0555556
        k(   10) = (   0.4166667  -0.0833333   0.5833333), wk =   0.0555556
        k(   11) = (   0.2500000   0.0833333   0.4166667), wk =   0.0555556
        k(   12) = (  -0.0833333   0.7500000   0.0833333), wk =   0.0277778
        k(   13) = (   0.7500000  -0.0833333   0.9166667), wk =   0.0555556
        k(   14) = (   0.5833333   0.0833333   0.7500000), wk =   0.0555556
        k(   15) = (   0.4166667   0.2500000   0.5833333), wk =   0.0555556
        k(   16) = (  -0.0833333  -0.9166667   0.0833333), wk =   0.0277778
        k(   17) = (  -0.2500000  -0.7500000  -0.0833333), wk =   0.0555556
        k(   18) = (  -0.0833333  -0.5833333   0.0833333), wk =   0.0277778
        k(   19) = (  -0.2500000   0.2500000   0.2500000), wk =   0.0092593
        k(   20) = (  -0.4166667   0.4166667   0.0833333), wk =   0.0277778
        k(   21) = (   0.4166667  -0.4166667   0.9166667), wk =   0.0277778
        k(   22) = (   0.2500000  -0.2500000   0.7500000), wk =   0.0277778
        k(   23) = (  -0.2500000   0.5833333   0.2500000), wk =   0.0277778
        k(   24) = (   0.5833333  -0.2500000   1.0833333), wk =   0.0555556
        k(   25) = (   0.4166667  -0.0833333   0.9166667), wk =   0.0555556
        k(   26) = (  -0.2500000  -1.0833333   0.2500000), wk =   0.0277778
        k(   27) = (  -0.4166667   0.4166667   0.4166667), wk =   0.0092593
        k(   28) = (   0.4166667  -0.4166667   1.2500000), wk =   0.0277778

     Dense  grid:     7631 G-vectors     FFT dimensions: (  27,  27,  27)

     Smooth grid:     2685 G-vectors     FFT dimensions: (  20,  20,  20)

     Estimated max dynamical RAM per process >       7.49 MB

     Estimated total dynamical RAM >      59.90 MB
     Generating pointlists ...
     new r_m :   0.2917 (alat units)  2.1131 (a.u.) for type    1

     Initial potential from superposition of free atoms

     starting charge   14.49990, renormalised to   15.00000

     negative rho (up, down):  2.592E-02 2.540E-02
     Starting wfcs are   12 randomized atomic wfcs

     total cpu time spent up to now is        0.8 secs

     Self-consistent Calculation

     iteration #  1     ecut=    35.00 Ry     beta= 0.40
     Davidson diagonalization with overlap
     ethr =  1.00E-02,  avg # of iterations =  4.6

     negative rho (up, down):  2.712E-02 2.690E-02

     total cpu time spent up to now is        1.4 secs

     total energy              =    -171.08711665 Ry
     estimated scf accuracy    <       0.56068472 Ry

     total magnetization       =     0.03 Bohr mag/cell
     absolute magnetization    =     0.04 Bohr mag/cell

     iteration #  2     ecut=    35.00 Ry     beta= 0.40
     Davidson diagonalization with overlap
     ethr =  3.74E-03,  avg # of iterations =  2.0

     negative rho (up, down):  2.717E-02 2.716E-02

     total cpu time spent up to now is        1.9 secs

     total energy              =    -171.19221462 Ry
     estimated scf accuracy    <       0.00143985 Ry

     total magnetization       =     0.05 Bohr mag/cell
     absolute magnetization    =     0.05 Bohr mag/cell

     iteration #  3     ecut=    35.00 Ry     beta= 0.40
     Davidson diagonalization with overlap
     ethr =  9.60E-06,  avg # of iterations =  3.6

     negative rho (up, down):  2.709E-02 2.734E-02

     total cpu time spent up to now is        2.5 secs

     total energy              =    -171.19254804 Ry
     estimated scf accuracy    <       0.00049000 Ry

     total magnetization       =     0.04 Bohr mag/cell
     absolute magnetization    =     0.04 Bohr mag/cell

     iteration #  4     ecut=    35.00 Ry     beta= 0.40
     Davidson diagonalization with overlap
     ethr =  3.27E-06,  avg # of iterations =  1.1

     negative rho (up, down):  2.712E-02 2.733E-02

     total cpu time spent up to now is        2.9 secs

     total energy              =    -171.19257577 Ry
     estimated scf accuracy    <       0.00003640 Ry

     total magnetization       =     0.02 Bohr mag/cell
     absolute magnetization    =     0.02 Bohr mag/cell

     iteration #  5     ecut=    35.00 Ry     beta= 0.40
     Davidson diagonalization with overlap
     ethr =  2.43E-07,  avg # of iterations =  1.9

     negative rho (up, down):  2.720E-02 2.727E-02

     total cpu time spent up to now is        3.4 secs

     total energy              =    -171.19258388 Ry
     estimated scf accuracy    <       0.00000403 Ry

     total magnetization       =     0.02 Bohr mag/cell
     absolute magnetization    =     0.02 Bohr mag/cell

     iteration #  6     ecut=    35.00 Ry     beta= 0.40
     Davidson diagonalization with overlap
     ethr =  2.69E-08,  avg # of iterations =  1.9

     negative rho (up, down):  2.721E-02 2.724E-02
 
     Magnetic moment per site:
     atom:    1    charge:   13.2461    magn:    0.0047    constr:    0.0000

     total cpu time spent up to now is        3.9 secs

     End of self-consistent calculation

 ------ SPIN UP ------------


          k =-0.0833 0.0833 0.0833 (   332 PWs)   bands (ev):

   -25.7029 -25.6624 -25.6624  13.1882  17.6303  17.8474  17.8474  19.6995
    19.6995  37.6554  41.1163  42.9935

          k =-0.2500 0.2500-0.0833 (   325 PWs)   bands (ev):

   -25.8910 -25.7222 -25.6789  14.4215  17.2207  18.1668  18.2463  19.3103
    20.1396  37.6493  38.8009  42.7284

          k =-0.4167 0.4167-0.2500 (   334 PWs)   bands (ev):

   -26.2000 -25.7740 -25.7277  15.1333  17.7413  18.0012  18.7502  20.3433
    21.7027  32.1334  37.6600  41.5818

          k = 0.4167-0.4167 0.5833 (   337 PWs)   bands (ev):

   -26.3070 -25.7761 -25.7594  14.9890  17.5024  17.8646  19.8079  21.2728
    22.9078  29.2155  37.0021  41.5256

          k = 0.2500-0.2500 0.4167 (   332 PWs)   bands (ev):

   -26.1082 -25.7411 -25.7302  15.1184  17.7972  17.8849  18.1934  20.4297
    20.6501  34.0303  38.3628  42.4503

          k = 0.0833-0.0833 0.2500 (   330 PWs)   bands (ev):

   -25.7926 -25.6938 -25.6842  13.8606  17.2619  18.1468  18.1586  19.3210
    19.9242  38.4293  39.5777  42.6398

          k =-0.0833 0.4167 0.0833 (   334 PWs)   bands (ev):

   -25.9303 -25.7473 -25.7422  14.9283  16.6286  18.3493  18.7569  19.3627
    20.3221  38.1871  39.6682  40.9437

          k =-0.2500 0.5833-0.0833 (   328 PWs)   bands (ev):

   -26.1187 -25.8502 -25.7813  15.7913  16.4532  17.7807  19.3269  20.4121
    22.1360  34.6088  37.3791  38.9434

          k = 0.5833-0.2500 0.7500 (   334 PWs)   bands (ev):

   -26.2312 -25.9236 -25.8066  15.8113  16.7610  18.0909  18.8668  21.1400
    25.8591  29.1705  36.5342  37.7925

          k = 0.4167-0.0833 0.5833 (   332 PWs)   bands (ev):

   -26.1608 -25.9164 -25.7645  16.1727  17.0948  17.2652  19.0174  20.1342
    23.6973  32.8089  35.7322  39.2722

          k = 0.2500 0.0833 0.4167 (   331 PWs)   bands (ev):

   -26.0134 -25.7802 -25.7153  15.3011  16.8929  17.9546  18.6474  19.5122
    20.9063  36.1828  38.5712  41.6633

          k =-0.0833 0.7500 0.0833 (   327 PWs)   bands (ev):

   -26.1966 -25.8787 -25.8603  15.1382  15.4349  19.9082  20.4198  21.2508
    22.4834  34.7106  35.8522  36.0382

          k = 0.7500-0.0833 0.9167 (   334 PWs)   bands (ev):

   -26.2218 -25.9691 -25.8860  15.2198  15.6291  19.2261  20.4436  21.4811
    26.4052  31.7063  33.1745  34.7431

          k = 0.5833 0.0833 0.7500 (   335 PWs)   bands (ev):

   -26.1580 -26.0438 -25.8296  15.9981  16.6621  17.7150  19.4210  20.9216
    27.4335  29.7291  33.5147  37.4258

          k = 0.4167 0.2500 0.5833 (   334 PWs)   bands (ev):

   -26.2470 -25.8301 -25.7646  15.3969  17.2919  18.2311  18.6237  20.9418
    23.4014  30.4705  37.4155  39.7179

          k =-0.0833-0.9167 0.0833 (   334 PWs)   bands (ev):

   -26.2654 -25.9166 -25.8919  14.7950  15.1414  20.7916  20.9804  21.5424
    24.4860  32.9430  33.5798  34.6446

          k =-0.2500-0.7500-0.0833 (   333 PWs)   bands (ev):

   -26.1905 -25.9213 -25.8477  15.5347  15.9187  18.4868  20.0875  21.1041
    24.1490  32.9035  35.7211  35.9961

          k =-0.0833-0.5833 0.0833 (   331 PWs)   bands (ev):

   -26.0757 -25.8154 -25.8080  15.4706  15.9682  18.7163  19.5649  20.5684
    20.8069  36.6853  38.3656  38.6649

          k =-0.2500 0.2500 0.2500 (   326 PWs)   bands (ev):

   -25.9937 -25.7013 -25.7013  14.6932  17.6209  18.0977  18.0977  19.9294
    19.9294  35.7790  38.6588  45.0536

          k =-0.4167 0.4167 0.0833 (   329 PWs)   bands (ev):

   -26.1021 -25.8414 -25.7196  15.7898  17.1816  17.7592  18.5805  19.4723
    22.1300  34.4291  37.1913  40.8800

          k = 0.4167-0.4167 0.9167 (   337 PWs)   bands (ev):

   -26.1733 -25.9906 -25.7822  16.1587  16.9653  17.6791  18.9658  20.3418
    25.3508  31.2349  34.3096  40.1700

          k = 0.2500-0.2500 0.7500 (   331 PWs)   bands (ev):

   -26.2109 -25.9233 -25.8248  15.5609  16.4775  18.2571  19.2454  21.3789
    24.9327  30.5918  36.0825  38.1270

          k =-0.2500 0.5833 0.2500 (   334 PWs)   bands (ev):

   -26.1875 -25.8118 -25.7866  15.4824  17.1598  17.8858  18.5975  21.2030
    22.2994  32.2782  38.0261  39.9074

          k = 0.5833-0.2500 1.0833 (   333 PWs)   bands (ev):

   -26.1733 -25.9879 -25.8324  16.2201  16.5331  17.3776  19.5649  20.9073
    25.8756  31.3070  34.4831  36.4836

          k = 0.4167-0.0833 0.9167 (   334 PWs)   bands (ev):

   -26.1484 -26.0461 -25.8859  15.8531  16.4638  17.6889  19.7068  21.4589
    28.5016  30.2841  33.0315  34.1561

          k =-0.2500-1.0833 0.2500 (   335 PWs)   bands (ev):

   -26.1880 -26.0259 -25.8474  15.4375  16.1529  18.6595  19.9165  21.1563
    27.7191  29.4555  33.1913  37.2448

          k =-0.4167 0.4167 0.4167 (   338 PWs)   bands (ev):

   -26.2827 -25.7426 -25.7426  14.8476  17.7448  17.7448  20.5146  21.0363
    21.0363  30.3480  36.9981  42.8187

          k = 0.4167-0.4167 1.2500 (   334 PWs)   bands (ev):

   -26.2637 -25.8694 -25.7728  15.5048  17.1180  18.3316  18.7283  20.9641
    24.7538  29.2345  36.8507  39.7691

 ------ SPIN DOWN ----------


          k =-0.0833 0.0833 0.0833 (   332 PWs)   bands (ev):

   -25.6957 -25.6553 -25.6553  13.1868  17.6357  17.8530  17.8530  19.7063
    19.7063  37.6529  41.1145  42.9923

          k =-0.2500 0.2500-0.0833 (   325 PWs)   bands (ev):

   -25.8839 -25.7151 -25.6717  14.4204  17.2254  18.1723  18.2521  19.3167
    20.1462  37.6482  38.7990  42.7277

          k =-0.4167 0.4167-0.2500 (   334 PWs)   bands (ev):

   -26.1929 -25.7668 -25.7205  15.1356  17.7468  18.0069  18.7517  20.3500
    21.7081  32.1349  37.6577  41.5819

          k = 0.4167-0.4167 0.5833 (   337 PWs)   bands (ev):

   -26.3000 -25.7690 -25.7522  14.9918  17.5078  17.8703  19.8109  21.2798
    22.9098  29.2186  36.9993  41.5257

          k = 0.2500-0.2500 0.4167 (   332 PWs)   bands (ev):

   -26.1011 -25.7339 -25.7230  15.1198  17.7999  17.8901  18.1992  20.4351
    20.6570  34.0309  38.3606  42.4506

          k = 0.0833-0.0833 0.2500 (   330 PWs)   bands (ev):

   -25.7854 -25.6866 -25.6771  13.8592  17.2670  18.1524  18.1642  19.3274
    19.9311  38.4273  39.5756  42.6387

          k =-0.0833 0.4167 0.0833 (   334 PWs)   bands (ev):

   -25.9232 -25.7401 -25.7350  14.9275  16.6333  18.3548  18.7627  19.3681
    20.3290  38.1861  39.6664  40.9435

          k =-0.2500 0.5833-0.0833 (   328 PWs)   bands (ev):

   -26.1117 -25.8430 -25.7741  15.7937  16.4568  17.7851  19.3327  20.4182
    22.1409  34.6092  37.3790  38.9428

          k = 0.5833-0.2500 0.7500 (   334 PWs)   bands (ev):

   -26.2242 -25.9165 -25.7994  15.8147  16.7652  18.0947  18.8726  21.1469
    25.8608  29.1729  36.5338  37.7927

          k = 0.4167-0.0833 0.5833 (   332 PWs)   bands (ev):

   -26.1538 -25.9093 -25.7573  16.1755  17.0996  17.2682  19.0232  20.1406
    23.7014  32.8099  35.7325  39.2712

          k = 0.2500 0.0833 0.4167 (   331 PWs)   bands (ev):

   -26.0063 -25.7730 -25.7082  15.3010  16.8970  17.9601  18.6532  19.5181
    20.9126  36.1825  38.5704  41.6628

          k =-0.0833 0.7500 0.0833 (   327 PWs)   bands (ev):

   -26.1896 -25.8716 -25.8531  15.1412  15.4390  19.9123  20.4264  21.2579
    22.4858  34.7106  35.8529  36.0379

          k = 0.7500-0.0833 0.9167 (   334 PWs)   bands (ev):

   -26.2148 -25.9620 -25.8788  15.2232  15.6330  19.2305  20.4502  21.4881
    26.4065  31.7066  33.1761  34.7430

          k = 0.5833 0.0833 0.7500 (   335 PWs)   bands (ev):

   -26.1509 -26.0367 -25.8224  16.0021  16.6654  17.7190  19.4272  20.9283
    27.4350  29.7308  33.5158  37.4258

          k = 0.4167 0.2500 0.5833 (   334 PWs)   bands (ev):

   -26.2400 -25.8229 -25.7574  15.3998  17.2969  18.2366  18.6269  20.9485
    23.4046  30.4726  37.4136  39.7180

          k =-0.0833-0.9167 0.0833 (   334 PWs)   bands (ev):

   -26.2584 -25.9094 -25.8848  14.7982  15.1455  20.7968  20.9875  21.5495
    24.4864  32.9447  33.5799  34.6440

          k =-0.2500-0.7500-0.0833 (   333 PWs)   bands (ev):

   -26.1834 -25.9142 -25.8406  15.5381  15.9226  18.4908  20.0937  21.1109
    24.1518  32.9039  35.7214  35.9964

          k =-0.0833-0.5833 0.0833 (   331 PWs)   bands (ev):

   -26.0687 -25.8082 -25.8009  15.4722  15.9725  18.7202  19.5710  20.5729
    20.8140  36.6852  38.3656  38.6640

          k =-0.2500 0.2500 0.2500 (   326 PWs)   bands (ev):

   -25.9866 -25.6941 -25.6941  14.6931  17.6240  18.1034  18.1034  19.9360
    19.9360  35.7786  38.6566  45.0533

          k =-0.4167 0.4167 0.0833 (   329 PWs)   bands (ev):

   -26.0950 -25.8342 -25.7124  15.7912  17.1853  17.7636  18.5864  19.4786
    22.1356  34.4295  37.1911  40.8788

          k = 0.4167-0.4167 0.9167 (   337 PWs)   bands (ev):

   -26.1663 -25.9835 -25.7750  16.1624  16.9690  17.6825  18.9719  20.3484
    25.3536  31.2364  34.3102  40.1685

          k = 0.2500-0.2500 0.7500 (   331 PWs)   bands (ev):

   -26.2039 -25.9162 -25.8176  15.5645  16.4812  18.2609  19.2516  21.3860
    24.9351  30.5930  36.0826  38.1270

          k =-0.2500 0.5833 0.2500 (   334 PWs)   bands (ev):

   -26.1805 -25.8046 -25.7794  15.4851  17.1639  17.8895  18.6033  21.2101
    22.3029  32.2793  38.0243  39.9075

          k = 0.5833-0.2500 1.0833 (   333 PWs)   bands (ev):

   -26.1662 -25.9808 -25.8253  16.2237  16.5371  17.3813  19.5709  20.9140
    25.8780  31.3082  34.4836  36.4837

          k = 0.4167-0.0833 0.9167 (   334 PWs)   bands (ev):

   -26.1413 -26.0390 -25.8788  15.8567  16.4677  17.6929  19.7130  21.4658
    28.5029  30.2850  33.0329  34.1565

          k =-0.2500-1.0833 0.2500 (   335 PWs)   bands (ev):

   -26.1809 -26.0188 -25.8402  15.4413  16.1564  18.6635  19.9230  21.1632
    27.7205  29.4563  33.1928  37.2448

          k =-0.4167 0.4167 0.4167 (   338 PWs)   bands (ev):

   -26.2757 -25.7354 -25.7354  14.8502  17.7505  17.7505  20.5134  21.0433
    21.0433  30.3505  36.9952  42.8188

          k = 0.4167-0.4167 1.2500 (   334 PWs)   bands (ev):

   -26.2567 -25.8623 -25.7656  15.5078  17.1228  18.3374  18.7316  20.9710
    24.7558  29.2373  36.8496  39.7684

     the Fermi energy is    20.7048 ev

!    total energy              =    -171.19259004 Ry
     estimated scf accuracy    <       0.00000080 Ry
     smearing contrib. (-TS)   =      -0.00377299 Ry
     internal energy E=F+TS    =    -171.18881705 Ry

     The total energy is F=E-TS. E is the sum of the following terms:
     one-electron contribution =     -24.33086713 Ry
     hartree contribution      =      25.46631417 Ry
     xc contribution           =     -29.93134697 Ry
     ewald contribution        =    -142.39291712 Ry

     total magnetization       =     0.00 Bohr mag/cell
     absolute magnetization    =     0.01 Bohr mag/cell

     convergence has been achieved in   6 iterations
 
     init_run     :      0.32s CPU      0.37s WALL (       1 calls)
     electrons    :      2.89s CPU      3.09s WALL (       1 calls)

     Called by init_run:
     wfcinit      :      0.14s CPU      0.16s WALL (       1 calls)
     potinit      :      0.01s CPU      0.01s WALL (       1 calls)
     hinit0       :      0.15s CPU      0.17s WALL (       1 calls)

     Called by electrons:
     c_bands      :      2.33s CPU      2.46s WALL (       6 calls)
     sum_band     :      0.45s CPU      0.50s WALL (       6 calls)
     v_of_rho     :      0.06s CPU      0.06s WALL (       7 calls)
     newd         :      0.05s CPU      0.05s WALL (       7 calls)
     mix_rho      :      0.01s CPU      0.01s WALL (       6 calls)

     Called by c_bands:
     init_us_2    :      0.03s CPU      0.03s WALL (     728 calls)
     cegterg      :      2.21s CPU      2.33s WALL (     336 calls)

     Called by *egterg:
     cdiaghg      :      0.30s CPU      0.33s WALL (    1177 calls)
     h_psi        :      1.81s CPU      1.92s WALL (    1233 calls)
     s_psi        :      0.03s CPU      0.03s WALL (    1233 calls)
     g_psi        :      0.01s CPU      0.01s WALL (     841 calls)

     Called by h_psi:
     h_psi:calbec :      0.06s CPU      0.06s WALL (    1233 calls)
     vloc_psi     :      1.70s CPU      1.80s WALL (    1233 calls)
     add_vuspsi   :      0.04s CPU      0.04s WALL (    1233 calls)

     General routines
     calbec       :      0.07s CPU      0.07s WALL (    1569 calls)
     fft          :      0.04s CPU      0.04s WALL (     169 calls)
     ffts         :      0.00s CPU      0.00s WALL (      26 calls)
     fftw         :      1.90s CPU      2.04s WALL (   24788 calls)
     interpolate  :      0.00s CPU      0.00s WALL (      14 calls)
 
     Parallel routines
     fft_scatt_xy :      0.11s CPU      0.11s WALL (   24983 calls)
     fft_scatt_yz :      0.65s CPU      0.69s WALL (   24983 calls)
 
     PWSCF        :      3.49s CPU      3.88s WALL

 
   This run was terminated on:  13:19:30  28Mar2023            

=------------------------------------------------------------------------------=
   JOB DONE.
=------------------------------------------------------------------------------=
