MPI startup(): shm:dapl fabric is unknown or has been removed from the product, please use ofi or shm:ofi instead.

     Program PWSCF v.6.7MaX starts on 26Mar2023 at 19:26:24 

     This program is part of the open-source Quantum ESPRESSO suite
     for quantum simulation of materials; please cite
         "P. Giannozzi et al., J. Phys.:Condens. Matter 21 395502 (2009);
         "P. Giannozzi et al., J. Phys.:Condens. Matter 29 465901 (2017);
          URL http://www.quantum-espresso.org", 
     in publications or presentations arising from this work. More details at
     http://www.quantum-espresso.org/quote

     Parallel version (MPI), running on     8 processors

     MPI processes distributed on     1 nodes
     R & G space division:  proc/nbgrp/npool/nimage =       8
     Reading input from k_points_22.pwi

     Current dimensions of program PWSCF are:
     Max number of different atomic species (ntypx) = 10
     Max number of k-points (npk) =  40000
     Max angular momentum in pseudopotentials (lmaxx) =  3

     Subspace diagonalization in iterative solution of the eigenvalue problem:
     a serial algorithm will be used

 
     Parallelization info
     --------------------
     sticks:   dense  smooth     PW     G-vecs:    dense   smooth      PW
     Min          63      31     11                  953      334      76
     Max          64      32     12                  955      337      77
     Sum         511     253     91                 7631     2685     609
 


     bravais-lattice index     =            2
     lattice parameter (alat)  =       7.2447  a.u.
     unit-cell volume          =      95.0607 (a.u.)^3
     number of atoms/cell      =            1
     number of atomic types    =            1
     number of electrons       =        15.00
     number of Kohn-Sham states=           12
     kinetic-energy cutoff     =      35.0000  Ry
     charge density cutoff     =     280.0000  Ry
     scf convergence threshold =      1.0E-06
     mixing beta               =       0.4000
     number of iterations used =            8  plain     mixing
     Exchange-correlation=  SLA  PW   PBX  PBC
                           (   1   4   3   4   0   0   0)

     celldm(1)=   7.244700  celldm(2)=   0.000000  celldm(3)=   0.000000
     celldm(4)=   0.000000  celldm(5)=   0.000000  celldm(6)=   0.000000

     crystal axes: (cart. coord. in units of alat)
               a(1) = (  -0.500000   0.000000   0.500000 )  
               a(2) = (   0.000000   0.500000   0.500000 )  
               a(3) = (  -0.500000   0.500000   0.000000 )  

     reciprocal axes: (cart. coord. in units 2 pi/alat)
               b(1) = ( -1.000000 -1.000000  1.000000 )  
               b(2) = (  1.000000  1.000000  1.000000 )  
               b(3) = ( -1.000000  1.000000 -1.000000 )  


     PseudoPot. # 1 for Rh read from file:
     /home/software/materia/pseudo/rh_pbe_v1.4.uspp.F.UPF
     MD5 check sum: 761627e959a2e3a1f56b0b5fe687810e
     Pseudo is Ultrasoft + core correction, Zval = 15.0
     Generated by new atomic code, or converted to UPF format
     Using radial grid of  969 points,  7 beta functions with: 
                l(1) =   0
                l(2) =   0
                l(3) =   1
                l(4) =   1
                l(5) =   2
                l(6) =   2
                l(7) =   2
     Q(r) pseudized with  8 coefficients,  rinner =    1.200   1.200   1.200
                                                       1.200   1.200

     atomic species   valence    mass     pseudopotential
        Rh            15.00   102.90500     Rh( 1.00)

     Starting magnetic structure 
     atomic species   magnetization
        Rh           0.010

     48 Sym. Ops., with inversion, found



   Cartesian axes

     site n.     atom                  positions (alat units)
         1           Rh  tau(   1) = (   0.0000000   0.0000000   0.0000000  )

     number of k points=  1012  Gaussian smearing, width (Ry)=  0.0200

     Number of k-points >= 100: set verbosity='high' to print them.

     Dense  grid:     7631 G-vectors     FFT dimensions: (  27,  27,  27)

     Smooth grid:     2685 G-vectors     FFT dimensions: (  20,  20,  20)

     Estimated max dynamical RAM per process >      22.26 MB

     Estimated total dynamical RAM >     178.10 MB
     Generating pointlists ...
     new r_m :   0.2917 (alat units)  2.1131 (a.u.) for type    1

     Initial potential from superposition of free atoms

     starting charge   14.49990, renormalised to   15.00000

     negative rho (up, down):  2.592E-02 2.540E-02
     Starting wfcs are   12 randomized atomic wfcs

     total cpu time spent up to now is        3.4 secs

     Self-consistent Calculation

     iteration #  1     ecut=    35.00 Ry     beta= 0.40
     Davidson diagonalization with overlap
     ethr =  1.00E-02,  avg # of iterations =  4.3

     negative rho (up, down):  2.708E-02 2.690E-02

     total cpu time spent up to now is       16.9 secs

     total energy              =    -171.08825109 Ry
     estimated scf accuracy    <       0.55673857 Ry

     total magnetization       =     0.05 Bohr mag/cell
     absolute magnetization    =     0.05 Bohr mag/cell

     iteration #  2     ecut=    35.00 Ry     beta= 0.40
     Davidson diagonalization with overlap
     ethr =  3.71E-03,  avg # of iterations =  2.0

     negative rho (up, down):  2.712E-02 2.716E-02

     total cpu time spent up to now is       26.9 secs

     total energy              =    -171.19267654 Ry
     estimated scf accuracy    <       0.00135265 Ry

     total magnetization       =     0.05 Bohr mag/cell
     absolute magnetization    =     0.06 Bohr mag/cell

     iteration #  3     ecut=    35.00 Ry     beta= 0.40
     Davidson diagonalization with overlap
     ethr =  9.02E-06,  avg # of iterations =  3.5

     negative rho (up, down):  2.703E-02 2.733E-02

     total cpu time spent up to now is       39.3 secs

     total energy              =    -171.19301721 Ry
     estimated scf accuracy    <       0.00046721 Ry

     total magnetization       =     0.04 Bohr mag/cell
     absolute magnetization    =     0.05 Bohr mag/cell

     iteration #  4     ecut=    35.00 Ry     beta= 0.40
     Davidson diagonalization with overlap
     ethr =  3.11E-06,  avg # of iterations =  1.1

     negative rho (up, down):  2.707E-02 2.731E-02

     total cpu time spent up to now is       47.9 secs

     total energy              =    -171.19304585 Ry
     estimated scf accuracy    <       0.00003541 Ry

     total magnetization       =     0.02 Bohr mag/cell
     absolute magnetization    =     0.03 Bohr mag/cell

     iteration #  5     ecut=    35.00 Ry     beta= 0.40
     Davidson diagonalization with overlap
     ethr =  2.36E-07,  avg # of iterations =  1.7

     negative rho (up, down):  2.716E-02 2.724E-02

     total cpu time spent up to now is       57.3 secs

     total energy              =    -171.19305298 Ry
     estimated scf accuracy    <       0.00000464 Ry

     total magnetization       =     0.02 Bohr mag/cell
     absolute magnetization    =     0.02 Bohr mag/cell

     iteration #  6     ecut=    35.00 Ry     beta= 0.40
     Davidson diagonalization with overlap
     ethr =  3.09E-08,  avg # of iterations =  2.0

     negative rho (up, down):  2.718E-02 2.721E-02

     total cpu time spent up to now is       67.2 secs

     total energy              =    -171.19306096 Ry
     estimated scf accuracy    <       0.00000154 Ry

     total magnetization       =     0.01 Bohr mag/cell
     absolute magnetization    =     0.01 Bohr mag/cell

     iteration #  7     ecut=    35.00 Ry     beta= 0.40
     Davidson diagonalization with overlap
     ethr =  1.03E-08,  avg # of iterations =  2.0

     negative rho (up, down):  2.719E-02 2.720E-02

     total cpu time spent up to now is       78.2 secs

     total energy              =    -171.19306138 Ry
     estimated scf accuracy    <       0.00000244 Ry

     total magnetization       =     0.00 Bohr mag/cell
     absolute magnetization    =     0.00 Bohr mag/cell

     iteration #  8     ecut=    35.00 Ry     beta= 0.40
     Davidson diagonalization with overlap
     ethr =  1.03E-08,  avg # of iterations =  2.0

     negative rho (up, down):  2.719E-02 2.720E-02
 
     Magnetic moment per site:
     atom:    1    charge:   13.2483    magn:    0.0003    constr:    0.0000

     total cpu time spent up to now is       88.4 secs

     End of self-consistent calculation

     Number of k-points >= 100: set verbosity='high' to print the bands.

     the Fermi energy is    20.7239 ev

!    total energy              =    -171.19306200 Ry
     estimated scf accuracy    <          5.3E-09 Ry
     smearing contrib. (-TS)   =      -0.00382131 Ry
     internal energy E=F+TS    =    -171.18924069 Ry

     The total energy is F=E-TS. E is the sum of the following terms:
     one-electron contribution =     -24.33974059 Ry
     hartree contribution      =      25.47644506 Ry
     xc contribution           =     -29.93302804 Ry
     ewald contribution        =    -142.39291712 Ry

     total magnetization       =     0.00 Bohr mag/cell
     absolute magnetization    =     0.00 Bohr mag/cell

     convergence has been achieved in   8 iterations
 
     init_run     :      2.98s CPU      3.27s WALL (       1 calls)
     electrons    :     79.16s CPU     84.94s WALL (       1 calls)

     Called by init_run:
     wfcinit      :      2.87s CPU      3.15s WALL (       1 calls)
     potinit      :      0.01s CPU      0.01s WALL (       1 calls)
     hinit0       :      0.08s CPU      0.09s WALL (       1 calls)

     Called by electrons:
     c_bands      :     68.03s CPU     72.87s WALL (       8 calls)
     sum_band     :     11.01s CPU     11.95s WALL (       8 calls)
     v_of_rho     :      0.05s CPU      0.05s WALL (       9 calls)
     newd         :      0.07s CPU      0.07s WALL (       9 calls)
     mix_rho      :      0.01s CPU      0.01s WALL (       8 calls)

     Called by c_bands:
     init_us_2    :      0.96s CPU      1.04s WALL (   34408 calls)
     cegterg      :     64.28s CPU     68.84s WALL (   16192 calls)

     Called by *egterg:
     cdiaghg      :      9.84s CPU     10.56s WALL (   53866 calls)
     h_psi        :     51.85s CPU     55.60s WALL (   55890 calls)
     s_psi        :      0.75s CPU      0.82s WALL (   55890 calls)
     g_psi        :      0.21s CPU      0.23s WALL (   37674 calls)

     Called by h_psi:
     h_psi:calbec :      1.18s CPU      1.27s WALL (   55890 calls)
     vloc_psi     :     49.37s CPU     52.93s WALL (   55890 calls)
     add_vuspsi   :      0.84s CPU      0.91s WALL (   55890 calls)

     General routines
     calbec       :      1.33s CPU      1.44s WALL (   72082 calls)
     fft          :      0.03s CPU      0.03s WALL (     219 calls)
     ffts         :      0.00s CPU      0.00s WALL (      34 calls)
     fftw         :     55.05s CPU     59.28s WALL ( 1186390 calls)
     interpolate  :      0.00s CPU      0.00s WALL (      18 calls)
 
     Parallel routines
     fft_scatt_xy :      3.96s CPU      4.13s WALL ( 1186643 calls)
     fft_scatt_yz :     16.38s CPU     17.54s WALL ( 1186643 calls)
 
     PWSCF        :   1m22.30s CPU   1m28.39s WALL

 
   This run was terminated on:  19:27:52  26Mar2023            

=------------------------------------------------------------------------------=
   JOB DONE.
=------------------------------------------------------------------------------=
