MPI startup(): shm:dapl fabric is unknown or has been removed from the product, please use ofi or shm:ofi instead.

     Program PWSCF v.6.7MaX starts on 31Mar2023 at 14:39:43 

     This program is part of the open-source Quantum ESPRESSO suite
     for quantum simulation of materials; please cite
         "P. Giannozzi et al., J. Phys.:Condens. Matter 21 395502 (2009);
         "P. Giannozzi et al., J. Phys.:Condens. Matter 29 465901 (2017);
          URL http://www.quantum-espresso.org", 
     in publications or presentations arising from this work. More details at
     http://www.quantum-espresso.org/quote

     Parallel version (MPI), running on     8 processors

     MPI processes distributed on     1 nodes
     R & G space division:  proc/nbgrp/npool/nimage =       8
     Reading input from k_points_03.pwi

     Current dimensions of program PWSCF are:
     Max number of different atomic species (ntypx) = 10
     Max number of k-points (npk) =  40000
     Max angular momentum in pseudopotentials (lmaxx) =  3

     Subspace diagonalization in iterative solution of the eigenvalue problem:
     a serial algorithm will be used

 
     Parallelization info
     --------------------
     sticks:   dense  smooth     PW     G-vecs:    dense   smooth      PW
     Min          63      31     10                  953      334      66
     Max          64      32     11                  955      337      69
     Sum         511     253     85                 7631     2685     537
 


     bravais-lattice index     =            2
     lattice parameter (alat)  =       7.2447  a.u.
     unit-cell volume          =      95.0607 (a.u.)^3
     number of atoms/cell      =            1
     number of atomic types    =            1
     number of electrons       =        15.00
     number of Kohn-Sham states=           12
     kinetic-energy cutoff     =      35.0000  Ry
     charge density cutoff     =     280.0000  Ry
     scf convergence threshold =      1.0E-06
     mixing beta               =       0.4000
     number of iterations used =            8  plain     mixing
     Exchange-correlation=  SLA  PW   PBX  PBC
                           (   1   4   3   4   0   0   0)

     celldm(1)=   7.244700  celldm(2)=   0.000000  celldm(3)=   0.000000
     celldm(4)=   0.000000  celldm(5)=   0.000000  celldm(6)=   0.000000

     crystal axes: (cart. coord. in units of alat)
               a(1) = (  -0.500000   0.000000   0.500000 )  
               a(2) = (   0.000000   0.500000   0.500000 )  
               a(3) = (  -0.500000   0.500000   0.000000 )  

     reciprocal axes: (cart. coord. in units 2 pi/alat)
               b(1) = ( -1.000000 -1.000000  1.000000 )  
               b(2) = (  1.000000  1.000000  1.000000 )  
               b(3) = ( -1.000000  1.000000 -1.000000 )  


     PseudoPot. # 1 for Rh read from file:
     /home/software/materia/pseudo/rh_pbe_v1.4.uspp.F.UPF
     MD5 check sum: 761627e959a2e3a1f56b0b5fe687810e
     Pseudo is Ultrasoft + core correction, Zval = 15.0
     Generated by new atomic code, or converted to UPF format
     Using radial grid of  969 points,  7 beta functions with: 
                l(1) =   0
                l(2) =   0
                l(3) =   1
                l(4) =   1
                l(5) =   2
                l(6) =   2
                l(7) =   2
     Q(r) pseudized with  8 coefficients,  rinner =    1.200   1.200   1.200
                                                       1.200   1.200

     atomic species   valence    mass     pseudopotential
        Rh            15.00   102.90500     Rh( 1.00)

     Starting magnetic structure 
     atomic species   magnetization
        Rh           0.010

     48 Sym. Ops., with inversion, found



   Cartesian axes

     site n.     atom                  positions (alat units)
         1           Rh  tau(   1) = (   0.0000000   0.0000000   0.0000000  )

     number of k points=     6  Gaussian smearing, width (Ry)=  0.0200
                       cart. coord. in units 2pi/alat
        k(    1) = (  -0.1666667   0.1666667   0.1666667), wk =   0.0740741
        k(    2) = (   0.5000000  -0.5000000   0.8333333), wk =   0.2222222
        k(    3) = (   0.1666667  -0.1666667   0.5000000), wk =   0.2222222
        k(    4) = (  -0.1666667  -1.1666667   0.1666667), wk =   0.2222222
        k(    5) = (  -0.5000000  -0.8333333  -0.1666667), wk =   0.2222222
        k(    6) = (   0.5000000  -0.5000000  -0.5000000), wk =   0.0370370

     Dense  grid:     7631 G-vectors     FFT dimensions: (  27,  27,  27)

     Smooth grid:     2685 G-vectors     FFT dimensions: (  20,  20,  20)

     Estimated max dynamical RAM per process >       7.16 MB

     Estimated total dynamical RAM >      57.26 MB
     Generating pointlists ...
     new r_m :   0.2917 (alat units)  2.1131 (a.u.) for type    1

     Initial potential from superposition of free atoms

     starting charge   14.49990, renormalised to   15.00000

     negative rho (up, down):  2.592E-02 2.540E-02
     Starting wfcs are   12 randomized atomic wfcs

     total cpu time spent up to now is        0.3 secs

     Self-consistent Calculation

     iteration #  1     ecut=    35.00 Ry     beta= 0.40
     Davidson diagonalization with overlap
     ethr =  1.00E-02,  avg # of iterations =  4.9

     negative rho (up, down):  2.714E-02 2.700E-02

     total cpu time spent up to now is        0.5 secs

     total energy              =    -171.07574758 Ry
     estimated scf accuracy    <       0.57453182 Ry

     total magnetization       =     0.07 Bohr mag/cell
     absolute magnetization    =     0.07 Bohr mag/cell

     iteration #  2     ecut=    35.00 Ry     beta= 0.40
     Davidson diagonalization with overlap
     ethr =  3.83E-03,  avg # of iterations =  2.1

     negative rho (up, down):  2.711E-02 2.719E-02

     total cpu time spent up to now is        0.6 secs

     total energy              =    -171.18572324 Ry
     estimated scf accuracy    <       0.00110477 Ry

     total magnetization       =     0.08 Bohr mag/cell
     absolute magnetization    =     0.08 Bohr mag/cell

     iteration #  3     ecut=    35.00 Ry     beta= 0.40
     Davidson diagonalization with overlap
     ethr =  7.37E-06,  avg # of iterations =  3.2

     negative rho (up, down):  2.697E-02 2.734E-02

     total cpu time spent up to now is        0.7 secs

     total energy              =    -171.18603345 Ry
     estimated scf accuracy    <       0.00042290 Ry

     total magnetization       =     0.06 Bohr mag/cell
     absolute magnetization    =     0.06 Bohr mag/cell

     iteration #  4     ecut=    35.00 Ry     beta= 0.40
     Davidson diagonalization with overlap
     ethr =  2.82E-06,  avg # of iterations =  1.0

     negative rho (up, down):  2.701E-02 2.732E-02

     total cpu time spent up to now is        0.7 secs

     total energy              =    -171.18605995 Ry
     estimated scf accuracy    <       0.00003263 Ry

     total magnetization       =     0.04 Bohr mag/cell
     absolute magnetization    =     0.04 Bohr mag/cell

     iteration #  5     ecut=    35.00 Ry     beta= 0.40
     Davidson diagonalization with overlap
     ethr =  2.18E-07,  avg # of iterations =  1.7

     negative rho (up, down):  2.709E-02 2.725E-02

     total cpu time spent up to now is        0.8 secs

     total energy              =    -171.18606765 Ry
     estimated scf accuracy    <       0.00000511 Ry

     total magnetization       =     0.04 Bohr mag/cell
     absolute magnetization    =     0.04 Bohr mag/cell

     iteration #  6     ecut=    35.00 Ry     beta= 0.40
     Davidson diagonalization with overlap
     ethr =  3.41E-08,  avg # of iterations =  1.8

     negative rho (up, down):  2.716E-02 2.717E-02

     total cpu time spent up to now is        0.9 secs

     total energy              =    -171.18607442 Ry
     estimated scf accuracy    <       0.00000236 Ry

     total magnetization       =     0.02 Bohr mag/cell
     absolute magnetization    =     0.02 Bohr mag/cell

     iteration #  7     ecut=    35.00 Ry     beta= 0.40
     Davidson diagonalization with overlap
     ethr =  1.57E-08,  avg # of iterations =  2.0

     negative rho (up, down):  2.717E-02 2.717E-02

     total cpu time spent up to now is        1.0 secs

     total energy              =    -171.18607956 Ry
     estimated scf accuracy    <       0.00000344 Ry

     total magnetization       =     0.00 Bohr mag/cell
     absolute magnetization    =     0.00 Bohr mag/cell

     iteration #  8     ecut=    35.00 Ry     beta= 0.40
     Davidson diagonalization with overlap
     ethr =  1.57E-08,  avg # of iterations =  2.0

     negative rho (up, down):  2.717E-02 2.717E-02
 
     Magnetic moment per site:
     atom:    1    charge:   13.2510    magn:    0.0007    constr:    0.0000

     total cpu time spent up to now is        1.1 secs

     End of self-consistent calculation

 ------ SPIN UP ------------


          k =-0.1667 0.1667 0.1667 (   326 PWs)   bands (ev):

   -25.7819 -25.6354 -25.6354  13.9154  17.4664  18.0876  18.0876  19.6893
    19.6893  38.1752  38.8133  43.9635

          k = 0.5000-0.5000 0.8333 (   336 PWs)   bands (ev):

   -26.1638 -25.8266 -25.7058  15.6923  17.3312  18.2403  18.4089  20.3012
    23.5006  31.5476  36.8351  39.8611

          k = 0.1667-0.1667 0.5000 (   329 PWs)   bands (ev):

   -26.0240 -25.7297 -25.7282  15.4736  16.7424  17.9524  18.8023  20.6170
    20.7969  35.3501  39.0546  40.3103

          k =-0.1667-1.1667 0.1667 (   332 PWs)   bands (ev):

   -26.1771 -25.9006 -25.8201  15.2132  15.6839  19.3709  20.2311  21.4801
    25.0213  31.9397  34.4511  36.1511

          k =-0.5000-0.8333-0.1667 (   334 PWs)   bands (ev):

   -26.1343 -25.9674 -25.8008  16.3099  16.4633  17.5658  19.3779  21.1723
    27.7265  29.1246  35.1196  35.5336

          k = 0.5000-0.5000-0.5000 (   332 PWs)   bands (ev):

   -26.2824 -25.7048 -25.7048  14.8146  17.7017  17.7017  21.2932  21.2932
    21.4731  29.1227  36.6960  42.2627

 ------ SPIN DOWN ----------


          k =-0.1667 0.1667 0.1667 (   326 PWs)   bands (ev):

   -25.7811 -25.6346 -25.6346  13.9151  17.4665  18.0878  18.0878  19.6907
    19.6907  38.1747  38.8127  43.9634

          k = 0.5000-0.5000 0.8333 (   336 PWs)   bands (ev):

   -26.1630 -25.8258 -25.7051  15.6922  17.3319  18.2404  18.4099  20.3018
    23.5010  31.5476  36.8348  39.8607

          k = 0.1667-0.1667 0.5000 (   329 PWs)   bands (ev):

   -26.0233 -25.7289 -25.7274  15.4735  16.7425  17.9531  18.8029  20.6174
    20.7980  35.3499  39.0540  40.3102

          k =-0.1667-1.1667 0.1667 (   332 PWs)   bands (ev):

   -26.1764 -25.8998 -25.8194  15.2138  15.6841  19.3709  20.2322  21.4808
    25.0213  31.9395  34.4513  36.1510

          k =-0.5000-0.8333-0.1667 (   334 PWs)   bands (ev):

   -26.1336 -25.9667 -25.8000  16.3108  16.4633  17.5658  19.3791  21.1726
    27.7265  29.1246  35.1195  35.5334

          k = 0.5000-0.5000-0.5000 (   332 PWs)   bands (ev):

   -26.2817 -25.7041 -25.7041  14.8145  17.7026  17.7026  21.2940  21.2940
    21.4725  29.1228  36.6953  42.2625

     the Fermi energy is    20.6517 ev

!    total energy              =    -171.18608016 Ry
     estimated scf accuracy    <       0.00000003 Ry
     smearing contrib. (-TS)   =      -0.00512758 Ry
     internal energy E=F+TS    =    -171.18095258 Ry

     The total energy is F=E-TS. E is the sum of the following terms:
     one-electron contribution =     -24.34441311 Ry
     hartree contribution      =      25.49187125 Ry
     xc contribution           =     -29.93549360 Ry
     ewald contribution        =    -142.39291712 Ry

     total magnetization       =     0.00 Bohr mag/cell
     absolute magnetization    =     0.00 Bohr mag/cell

     convergence has been achieved in   8 iterations
 
     init_run     :      0.10s CPU      0.13s WALL (       1 calls)
     electrons    :      0.74s CPU      0.79s WALL (       1 calls)

     Called by init_run:
     wfcinit      :      0.02s CPU      0.03s WALL (       1 calls)
     potinit      :      0.01s CPU      0.01s WALL (       1 calls)
     hinit0       :      0.06s CPU      0.07s WALL (       1 calls)

     Called by electrons:
     c_bands      :      0.44s CPU      0.48s WALL (       8 calls)
     sum_band     :      0.18s CPU      0.19s WALL (       8 calls)
     v_of_rho     :      0.05s CPU      0.06s WALL (       9 calls)
     newd         :      0.05s CPU      0.06s WALL (       9 calls)
     mix_rho      :      0.01s CPU      0.01s WALL (       8 calls)

     Called by c_bands:
     init_us_2    :      0.01s CPU      0.01s WALL (     204 calls)
     cegterg      :      0.42s CPU      0.45s WALL (      96 calls)

     Called by *egterg:
     cdiaghg      :      0.06s CPU      0.07s WALL (     320 calls)
     h_psi        :      0.35s CPU      0.38s WALL (     332 calls)
     s_psi        :      0.01s CPU      0.01s WALL (     332 calls)
     g_psi        :      0.00s CPU      0.00s WALL (     224 calls)

     Called by h_psi:
     h_psi:calbec :      0.01s CPU      0.01s WALL (     332 calls)
     vloc_psi     :      0.33s CPU      0.36s WALL (     332 calls)
     add_vuspsi   :      0.01s CPU      0.01s WALL (     332 calls)

     General routines
     calbec       :      0.01s CPU      0.01s WALL (     428 calls)
     fft          :      0.04s CPU      0.04s WALL (     219 calls)
     ffts         :      0.00s CPU      0.00s WALL (      34 calls)
     fftw         :      0.37s CPU      0.40s WALL (    6982 calls)
     interpolate  :      0.00s CPU      0.00s WALL (      18 calls)
 
     Parallel routines
     fft_scatt_xy :      0.03s CPU      0.03s WALL (    7235 calls)
     fft_scatt_yz :      0.12s CPU      0.13s WALL (    7235 calls)
 
     PWSCF        :      1.01s CPU      1.13s WALL

 
   This run was terminated on:  14:39:44  31Mar2023            

=------------------------------------------------------------------------------=
   JOB DONE.
=------------------------------------------------------------------------------=
