&CONTROL
    calculation = 'relax'
    restart_mode = 'from_scratch'
    pseudo_dir = '/home/software.old/materia/pseudo'
    outdir = '/home/STUDENTI/leonardo.razzai/Rh_work/surf_111_H2O/interface'
    prefix = 'interf_at_5.5-L'
    nstep = 1000
    disk_io = 'nowf'
    max_seconds = 144000
/
&SYSTEM
    ibrav = 4
    celldm(1) = 10.245552
    celldm(3) = 6.1017745
    nat = 35
    ntyp = 3
    ecutwfc = 35
    ecutrho = 280
    nspin = 2
    starting_magnetization(1) = 0.01
    occupations = 'smearing'
    smearing = 'gaussian'
    degauss = 0.02
/
&ELECTRONS
    diagonalization = 'david'
    electron_maxstep = 200
    mixing_mode = 'local-TF'
    mixing_beta = 0.50
/
&IONS
    ion_dynamics = 'bfgs'
    upscale = 10
/

ATOMIC_SPECIES
Rh      102.905    rh_pbe_v1.4.uspp.F.UPF
O       15.9990    O.pbe-n-rrkjus_psl.1.0.0.UPF   
H       1.00784    H.pbe-rrkjus_psl.1.0.0.UPF

ATOMIC_POSITIONS angstrom
Rh   -0.0010035   0.0001693   19.8816096  1  1  0
Rh   2.7117101   0.0002501   19.8816096  1  1  0
Rh   -1.3555220   2.3467173   19.8816096  1  1  0
Rh   1.3554236   2.3478425   19.8816096  1  1  0
Rh   0.0005611   1.5656525   17.6974447
Rh   2.7100939   1.5658070   17.6968115
Rh   -1.3557531   3.9125083   17.6999215
Rh   1.3556305   3.9117477   17.6967788
Rh   1.3547376   0.7847982   15.5128988
Rh   4.0662183   0.7821864   15.5195457
Rh   0.0022943   3.1290542   15.5114003
Rh   2.7078923   3.1284968   15.5076531
Rh   -0.0019881   0.0000775   13.3378398
Rh   2.7120105   0.0003037   13.3407557
Rh   -1.3554998   2.3453222   13.3383769
Rh   1.3521776   2.3432307   13.2882700
H   2.3439494   2.3497394   10.5906283
H   1.1268759   3.3091555   10.5906298
O   1.3612862   2.3545346   10.5906085  1  1  0
Rh   1.3521795   2.3432350   7.8927893
Rh   -1.3555000   2.3453266   7.8426698
Rh   2.7120093   0.0003055   7.8402984
Rh   -0.0019876   0.0000782   7.8432134
Rh   2.7078906   3.1284969   5.6734530
Rh   0.0022950   3.1290534   5.6697135
Rh   4.0662176   0.7821860   5.6615767
Rh   1.3547376   0.7847987   5.6682200
Rh   1.3556287   3.9117484   3.4844035
Rh   -1.3557534   3.9125081   3.4812643
Rh   2.7100927   1.5658052   3.4843731
Rh   0.0005604   1.5656515   3.4837410
Rh   1.3554236   2.3478402   1.2996074  1  1  0
Rh   -1.3555220   2.3467165   1.2996074  1  1  0
Rh   2.7117098   0.0002501   1.2996074  1  1  0
Rh   -0.0010042   0.0001701   1.2996074  1  1  0

K_POINTS automatic
5 5 1 1 1 0

