&CONTROL
    calculation = 'relax'
    restart_mode = 'from_scratch'
    pseudo_dir = '/home/software.old/materia/pseudo'
    outdir = '/home/STUDENTI/leonardo.razzai/Rh_work/surf_111_H2O/interface'
    prefix = 'interf_at_5.0-L'
    nstep = 1000
    disk_io = 'nowf'
    max_seconds = 144000
/
&SYSTEM
    ibrav = 4
    celldm(1) = 10.245552
    celldm(3) = 6.1017745
    nat = 35
    ntyp = 3
    ecutwfc = 35
    ecutrho = 280
    nspin = 2
    starting_magnetization(1) = 0.01
    occupations = 'smearing'
    smearing = 'gaussian'
    degauss = 0.02
/
&ELECTRONS
    diagonalization = 'david'
    electron_maxstep = 200
    mixing_mode = 'local-TF'
    mixing_beta = 0.50
/
&IONS
    ion_dynamics = 'bfgs'
    upscale = 10
/

ATOMIC_SPECIES
Rh      102.905    rh_pbe_v1.4.uspp.F.UPF
O       15.9990    O.pbe-n-rrkjus_psl.1.0.0.UPF   
H       1.00784    H.pbe-rrkjus_psl.1.0.0.UPF

ATOMIC_POSITIONS angstrom
Rh   -0.0078559   -0.0062111   19.6316096  1  1  0
Rh   2.7069675   -0.0060790   19.6316096  1  1  0
Rh   -1.3612268   2.3382626   19.6316096  1  1  0
Rh   1.3493623   2.3403067   19.6316096  1  1  0
Rh   -0.0068578   1.5564913   17.4419600
Rh   2.7029040   1.5568464   17.4414726
Rh   -1.3628324   3.9034626   17.4501801
Rh   1.3487412   3.9021754   17.4420037
Rh   1.3470412   0.7757710   15.2560105
Rh   4.0581561   0.7719947   15.2626660
Rh   -0.0054163   3.1198091   15.2544857
Rh   2.7015590   3.1191663   15.2504781
Rh   -0.0083070   -0.0073136   13.0816849
Rh   2.7041550   -0.0084258   13.0827606
Rh   -1.3610800   2.3356840   13.0812379
Rh   1.3452559   2.3340978   13.0222793
H   2.4183801   2.4406398   10.5905505
H   1.2000797   3.4048671   10.5905514
O   1.4303628   2.4440138   10.5906085  1  1  0
Rh   1.3452519   2.3340963   8.1590796
Rh   -1.3610841   2.3356689   8.1001087
Rh   2.7041499   -0.0084309   8.0985906
Rh   -0.0083133   -0.0073155   8.0996594
Rh   2.7015740   3.1191794   5.9307824
Rh   -0.0054181   3.1198252   5.9267750
Rh   4.0581618   0.7720022   5.9185940
Rh   1.3470497   0.7757700   5.9252520
Rh   1.3487522   3.9021968   3.7391812
Rh   -1.3628223   3.9034800   3.7310044
Rh   2.7029168   1.5568617   3.7397136
Rh   -0.0068425   1.5565096   3.7392285
Rh   1.3493804   2.3403304   1.5496074  1  1  0
Rh   -1.3612112   2.3382849   1.5496074  1  1  0
Rh   2.7069764   -0.0060626   1.5496074  1  1  0
Rh   -0.0078379   -0.0061916   1.5496074  1  1  0

K_POINTS automatic
5 5 1 1 1 0

