&CONTROL
    calculation = 'relax'
    restart_mode = 'from_scratch'
    pseudo_dir = '/home/software.old/materia/pseudo'
    outdir = '/home/STUDENTI/leonardo.razzai/Rh_work/surf_111_H2O/interface'
    prefix = 'interf_at_7.0-L'
    nstep = 1000
    disk_io = 'nowf'
    max_seconds = 144000
/
&SYSTEM
    ibrav = 4
    celldm(1) = 10.245552
    celldm(3) = 6.1017745
    nat = 35
    ntyp = 3
    ecutwfc = 35
    ecutrho = 280
    nspin = 2
    starting_magnetization(1) = 0.01
    occupations = 'smearing'
    smearing = 'gaussian'
    degauss = 0.02
/
&ELECTRONS
    diagonalization = 'david'
    electron_maxstep = 200
    mixing_mode = 'local-TF'
    mixing_beta = 0.50
/
&IONS
    ion_dynamics = 'bfgs'
    upscale = 10
/

ATOMIC_SPECIES
Rh      102.905    rh_pbe_v1.4.uspp.F.UPF
O       15.9990    O.pbe-n-rrkjus_psl.1.0.0.UPF   
H       1.00784    H.pbe-rrkjus_psl.1.0.0.UPF

ATOMIC_POSITIONS angstrom
Rh   -0.0002600   0.0000800   20.6316096  1  1  0
Rh   2.7111180   0.0000874   20.6316096  1  1  0
Rh   -1.3554280   2.3474403   20.6316096  1  1  0
Rh   1.3554314   2.3477402   20.6316096  1  1  0
Rh   0.0000234   1.5651624   18.4509211
Rh   2.7108356   1.5652068   18.4508516
Rh   -1.3554700   3.9127376   18.4510729
Rh   1.3554830   3.9127095   18.4508377
Rh   1.3553641   0.7831752   16.2710080
Rh   4.0663168   0.7824607   16.2712747
Rh   0.0006465   3.1299949   16.2706013
Rh   2.7102199   3.1299565   16.2696492
Rh   -0.0001021   0.0002551   14.0911398
Rh   2.7109848   0.0001584   14.0921857
Rh   -1.3552564   2.3474391   14.0916218
Rh   1.3551680   2.3473603   14.0823834
H   2.3352492   2.3478962   10.5906010
H   1.1277256   3.3004458   10.5906013
O   1.3569492   2.3494940   10.5906085  1  1  0
Rh   1.3551681   2.3473601   7.0988560
Rh   -1.3552567   2.3474387   7.0895990
Rh   2.7109839   0.0001579   7.0890358
Rh   -0.0001026   0.0002546   7.0900805
Rh   2.7102199   3.1299567   4.9115670
Rh   0.0006468   3.1299950   4.9106154
Rh   4.0663170   0.7824613   4.9099414
Rh   1.3553639   0.7831755   4.9102084
Rh   1.3554829   3.9127097   2.7303799
Rh   -1.3554702   3.9127376   2.7301441
Rh   2.7108356   1.5652069   2.7303661
Rh   0.0000236   1.5651624   2.7302965
Rh   1.3554313   2.3477403   0.5496074  1  1  0
Rh   -1.3554279   2.3474401   0.5496074  1  1  0
Rh   2.7111183   0.0000871   0.5496074  1  1  0
Rh   -0.0002603   0.0000797   0.5496074  1  1  0

K_POINTS automatic
5 5 1 1 1 0

