&CONTROL
    calculation = 'relax'
    restart_mode = 'from_scratch'
    pseudo_dir = '/home/software.old/materia/pseudo'
    outdir = '/home/STUDENTI/leonardo.razzai/Rh_work/surf_111_H2O/interface'
    prefix = 'interf_at_3.5-L'
    nstep = 1000
    disk_io = 'nowf'
    max_seconds = 144000
/
&SYSTEM
    ibrav = 4
    celldm(1) = 10.245552
    celldm(3) = 6.1017745
    nat = 35
    ntyp = 3
    ecutwfc = 35
    ecutrho = 280
    nspin = 2
    starting_magnetization(1) = 0.01
    occupations = 'smearing'
    smearing = 'gaussian'
    degauss = 0.02
/
&ELECTRONS
    diagonalization = 'david'
    electron_maxstep = 200
    mixing_mode = 'local-TF'
    mixing_beta = 0.50
/
&IONS
    ion_dynamics = 'bfgs'
    upscale = 10
/

ATOMIC_SPECIES
Rh      102.905    rh_pbe_v1.4.uspp.F.UPF
O       15.9990    O.pbe-n-rrkjus_psl.1.0.0.UPF   
H       1.00784    H.pbe-rrkjus_psl.1.0.0.UPF

ATOMIC_POSITIONS angstrom
Rh   -0.0001581   0.0000520   20.8816096  1  1  0
Rh   2.7110169   0.0000532   20.8816096  1  1  0
Rh   -1.3554254   2.3475304   20.8816096  1  1  0
Rh   1.3554285   2.3477139   20.8816096  1  1  0
Rh   -0.0000049   1.5651269   18.7010482
Rh   2.7108657   1.5651423   18.7010345
Rh   -1.3554416   3.9127665   18.7012076
Rh   1.3554497   3.9127738   18.7010278
Rh   1.3554055   0.7828716   16.5211799
Rh   4.0662952   0.7824880   16.5210885
Rh   0.0003467   3.1301242   16.5209323
Rh   2.7105185   3.1301004   16.5204189
Rh   -0.0000231   0.0001375   14.3409044
Rh   2.7108942   0.0000687   14.3414742
Rh   -1.3553347   2.3475702   14.3411835
Rh   1.3553030   2.3475244   14.3364582
H   2.3347609   2.3480010   10.5906004
H   1.1280794   3.3001608   10.5906004
O   1.3569602   2.3495142   10.5906085  1  1  0
Rh   1.3553028   2.3475243   6.8447518
Rh   -1.3553349   2.3475696   6.8400298
Rh   2.7108947   0.0000686   6.8397380
Rh   -0.0000241   0.0001374   6.8403094
Rh   2.7105193   3.1301009   4.6608058
Rh   0.0003467   3.1301245   4.6602930
Rh   4.0662951   0.7824882   4.6601391
Rh   1.3554057   0.7828717   4.6600455
Rh   1.3554498   3.9127737   2.4802032
Rh   -1.3554416   3.9127664   2.4800214
Rh   2.7108656   1.5651426   2.4801961
Rh   -0.0000047   1.5651269   2.4801827
Rh   1.3554285   2.3477139   0.2996074  1  1  0
Rh   -1.3554255   2.3475296   0.2996074  1  1  0
Rh   2.7110174   0.0000534   0.2996074  1  1  0
Rh   -0.0001587   0.0000523   0.2996074  1  1  0

K_POINTS automatic
5 5 1 1 1 0

