&CONTROL
    calculation = 'relax'
    restart_mode = 'from_scratch'
    pseudo_dir = '/home/software.old/materia/pseudo'
    outdir = '/home/STUDENTI/leonardo.razzai/Rh_work/surf_111_H2O/interface'
    prefix = 'interf_at_6.0-L'
    nstep = 1000
    disk_io = 'nowf'
    max_seconds = 144000
/
&SYSTEM
    ibrav = 4
    celldm(1) = 10.245552
    celldm(3) = 6.1017745
    nat = 35
    ntyp = 3
    ecutwfc = 35
    ecutrho = 280
    nspin = 2
    starting_magnetization(1) = 0.01
    occupations = 'smearing'
    smearing = 'gaussian'
    degauss = 0.02
/
&ELECTRONS
    diagonalization = 'david'
    electron_maxstep = 200
    mixing_mode = 'local-TF'
    mixing_beta = 0.50
/
&IONS
    ion_dynamics = 'bfgs'
    upscale = 10
/

ATOMIC_SPECIES
Rh      102.905    rh_pbe_v1.4.uspp.F.UPF
O       15.9990    O.pbe-n-rrkjus_psl.1.0.0.UPF   
H       1.00784    H.pbe-rrkjus_psl.1.0.0.UPF

ATOMIC_POSITIONS angstrom
Rh   -0.0005402   0.0000922   20.1316096  1  1  0
Rh   2.7113809   0.0001587   20.1316096  1  1  0
Rh   -1.3554662   2.3472060   20.1316096  1  1  0
Rh   1.3554673   2.3478282   20.1316096  1  1  0
Rh   0.0004390   1.5655161   17.9494769
Rh   2.7103856   1.5656587   17.9489978
Rh   -1.3556164   3.9126247   17.9493335
Rh   1.3556410   3.9120997   17.9489511
Rh   1.3550814   0.7846069   15.7665515
Rh   4.0663719   0.7824145   15.7715443
Rh   0.0020031   3.1292910   15.7655615
Rh   2.7086586   3.1290539   15.7628348
Rh   -0.0010395   0.0006928   13.5904930
Rh   2.7117916   0.0005874   13.5930365
Rh   -1.3550822   2.3462585   13.5912160
Rh   1.3540354   2.3458349   13.5557461
H   2.3385827   2.3480395   10.5906075
H   1.1266407   3.3031558   10.5906078
O   1.3578310   2.3507216   10.5906085  1  1  0
Rh   1.3540355   2.3458353   7.6254466
Rh   -1.3550828   2.3462581   7.5899763
Rh   2.7117913   0.0005867   7.5881553
Rh   -0.0010399   0.0006919   7.5907014
Rh   2.7086581   3.1290537   5.4183824
Rh   0.0020032   3.1292908   5.4156553
Rh   4.0663719   0.7824141   5.4096710
Rh   1.3550808   0.7846076   5.4146665
Rh   1.3556406   3.9120994   3.2322692
Rh   -1.3556169   3.9126253   3.2318883
Rh   2.7103852   1.5656587   3.2322231
Rh   0.0004386   1.5655160   3.2317437
Rh   1.3554673   2.3478288   1.0496074  1  1  0
Rh   -1.3554663   2.3472061   1.0496074  1  1  0
Rh   2.7113802   0.0001587   1.0496074  1  1  0
Rh   -0.0005399   0.0000921   1.0496074  1  1  0

K_POINTS automatic
5 5 1 1 1 0

