&CONTROL
    calculation = 'relax'
    restart_mode = 'from_scratch'
    pseudo_dir = '/home/software.old/materia/pseudo'
    outdir = '/home/STUDENTI/leonardo.razzai/Rh_work/surf_111_H2O/interface'
    prefix = 'interf_at_6.5-L'
    nstep = 1000
    disk_io = 'nowf'
    max_seconds = 144000
/
&SYSTEM
    ibrav = 4
    celldm(1) = 10.245552
    celldm(3) = 6.1017745
    nat = 35
    ntyp = 3
    ecutwfc = 35
    ecutrho = 280
    nspin = 2
    starting_magnetization(1) = 0.01
    occupations = 'smearing'
    smearing = 'gaussian'
    degauss = 0.02
/
&ELECTRONS
    diagonalization = 'david'
    electron_maxstep = 200
    mixing_mode = 'local-TF'
    mixing_beta = 0.50
/
&IONS
    ion_dynamics = 'bfgs'
    upscale = 10
/

ATOMIC_SPECIES
Rh      102.905    rh_pbe_v1.4.uspp.F.UPF
O       15.9990    O.pbe-n-rrkjus_psl.1.0.0.UPF   
H       1.00784    H.pbe-rrkjus_psl.1.0.0.UPF

ATOMIC_POSITIONS angstrom
Rh   -0.0004496   0.0001345   20.3816096  1  1  0
Rh   2.7113114   0.0001598   20.3816096  1  1  0
Rh   -1.3554322   2.3472710   20.3816096  1  1  0
Rh   1.3554454   2.3477934   20.3816096  1  1  0
Rh   0.0001135   1.5652550   18.2005969
Rh   2.7107515   1.5653461   18.2003928
Rh   -1.3555168   3.9126978   18.2010539
Rh   1.3555529   3.9125656   18.2003687
Rh   1.3552738   0.7837429   16.0201307
Rh   4.0663599   0.7824303   16.0214546
Rh   0.0012072   3.1297751   16.0194564
Rh   2.7096551   3.1296711   16.0176981
Rh   -0.0003138   0.0004966   13.8412127
Rh   2.7112303   0.0003632   13.8430339
Rh   -1.3551031   2.3471317   13.8419367
Rh   1.3548086   2.3468991   13.8224579
H   2.3363825   2.3474679   10.5906126
H   1.1267942   3.3013972   10.5906126
O   1.3571106   2.3494329   10.5906085  1  1  0
Rh   1.3548081   2.3468987   7.3587400
Rh   -1.3551039   2.3471314   7.3392548
Rh   2.7112301   0.0003629   7.3381583
Rh   -0.0003147   0.0004957   7.3399765
Rh   2.7096542   3.1296704   5.1635085
Rh   0.0012080   3.1297747   5.1617509
Rh   4.0663594   0.7824300   5.1597491
Rh   1.3552739   0.7837439   5.1610753
Rh   1.3555530   3.9125658   2.9808332
Rh   -1.3555166   3.9126979   2.9801497
Rh   2.7107513   1.5653467   2.9808088
Rh   0.0001137   1.5652556   2.9806056
Rh   1.3554452   2.3477934   0.7996074  1  1  0
Rh   -1.3554322   2.3472714   0.7996074  1  1  0
Rh   2.7113117   0.0001598   0.7996074  1  1  0
Rh   -0.0004498   0.0001346   0.7996074  1  1  0

K_POINTS automatic
5 5 1 1 1 0

