MPI startup(): shm:dapl fabric is unknown or has been removed from the product, please use ofi or shm:ofi instead.

     Program PWSCF v.6.7MaX starts on  4Apr2023 at 22:43: 2 

     This program is part of the open-source Quantum ESPRESSO suite
     for quantum simulation of materials; please cite
         "P. Giannozzi et al., J. Phys.:Condens. Matter 21 395502 (2009);
         "P. Giannozzi et al., J. Phys.:Condens. Matter 29 465901 (2017);
          URL http://www.quantum-espresso.org", 
     in publications or presentations arising from this work. More details at
     http://www.quantum-espresso.org/quote

     Parallel version (MPI), running on     8 processors

     MPI processes distributed on     1 nodes
     R & G space division:  proc/nbgrp/npool/nimage =       8
     Reading input from n_layers5.pwi

     Current dimensions of program PWSCF are:
     Max number of different atomic species (ntypx) = 10
     Max number of k-points (npk) =  40000
     Max angular momentum in pseudopotentials (lmaxx) =  3

     Subspace diagonalization in iterative solution of the eigenvalue problem:
     a serial algorithm will be used

 
     Parallelization info
     --------------------
     sticks:   dense  smooth     PW     G-vecs:    dense   smooth      PW
     Min          63      31     11                12632     4451     972
     Max          65      32     12                12645     4494     987
     Sum         511     253     91               101117    35839    7825
 


     bravais-lattice index     =            4
     lattice parameter (alat)  =       5.1228  a.u.
     unit-cell volume          =    1276.0194 (a.u.)^3
     number of atoms/cell      =            5
     number of atomic types    =            1
     number of electrons       =        75.00
     number of Kohn-Sham states=           46
     kinetic-energy cutoff     =      35.0000  Ry
     charge density cutoff     =     280.0000  Ry
     scf convergence threshold =      1.0E-06
     mixing beta               =       0.4000
     number of iterations used =            8  local-TF  mixing
     energy convergence thresh.=      1.0E-04
     force convergence thresh. =      1.0E-03
     Exchange-correlation=  SLA  PW   PBX  PBC
                           (   1   4   3   4   0   0   0)
     nstep                     =           50


     celldm(1)=   5.122776  celldm(2)=   0.000000  celldm(3)=  10.960000
     celldm(4)=   0.000000  celldm(5)=   0.000000  celldm(6)=   0.000000

     crystal axes: (cart. coord. in units of alat)
               a(1) = (   1.000000   0.000000   0.000000 )  
               a(2) = (  -0.500000   0.866025   0.000000 )  
               a(3) = (   0.000000   0.000000  10.960000 )  

     reciprocal axes: (cart. coord. in units 2 pi/alat)
               b(1) = (  1.000000  0.577350  0.000000 )  
               b(2) = (  0.000000  1.154701  0.000000 )  
               b(3) = (  0.000000  0.000000  0.091241 )  


     PseudoPot. # 1 for Rh read from file:
     /home/software/materia/pseudo/rh_pbe_v1.4.uspp.F.UPF
     MD5 check sum: 761627e959a2e3a1f56b0b5fe687810e
     Pseudo is Ultrasoft + core correction, Zval = 15.0
     Generated by new atomic code, or converted to UPF format
     Using radial grid of  969 points,  7 beta functions with: 
                l(1) =   0
                l(2) =   0
                l(3) =   1
                l(4) =   1
                l(5) =   2
                l(6) =   2
                l(7) =   2
     Q(r) pseudized with  8 coefficients,  rinner =    1.200   1.200   1.200
                                                       1.200   1.200

     atomic species   valence    mass     pseudopotential
        Rh            15.00   102.90500     Rh( 1.00)

     Starting magnetic structure 
     atomic species   magnetization
        Rh           0.010

      6 Sym. Ops. (no inversion) found



   Cartesian axes

     site n.     atom                  positions (alat units)
         1           Rh  tau(   1) = (   0.0000000   0.0000000   0.0000000  )
         2           Rh  tau(   2) = (   1.0000002   0.5773504   0.8164967  )
         3           Rh  tau(   3) = (   0.5000001   0.2886752   1.6329934  )
         4           Rh  tau(   4) = (   0.0000000   0.0000000   2.4494902  )
         5           Rh  tau(   5) = (   1.0000002   0.5773504   3.2659869  )

     number of k points=    25  Gaussian smearing, width (Ry)=  0.0200
                       cart. coord. in units 2pi/alat
        k(    1) = (   0.0555556   0.0962250   0.0000000), wk =   0.0246914
        k(    2) = (   0.0555556   0.2245251   0.0000000), wk =   0.0493827
        k(    3) = (   0.0555556   0.3528252   0.0000000), wk =   0.0493827
        k(    4) = (   0.0555556   0.4811252   0.0000000), wk =   0.0493827
        k(    5) = (   0.0555556  -0.5452753   0.0000000), wk =   0.0493827
        k(    6) = (   0.0555556  -0.4169752   0.0000000), wk =   0.0493827
        k(    7) = (   0.0555556  -0.2886751   0.0000000), wk =   0.0493827
        k(    8) = (   0.0555556  -0.1603751   0.0000000), wk =   0.0493827
        k(    9) = (   0.0555556  -0.0320750   0.0000000), wk =   0.0246914
        k(   10) = (   0.1666667   0.2886751   0.0000000), wk =   0.0246914
        k(   11) = (   0.1666667   0.4169752   0.0000000), wk =   0.0493827
        k(   12) = (   0.1666667   0.5452753   0.0000000), wk =   0.0493827
        k(   13) = (   0.1666667  -0.4811252   0.0000000), wk =   0.0493827
        k(   14) = (   0.1666667  -0.3528252   0.0000000), wk =   0.0493827
        k(   15) = (   0.1666667  -0.2245251   0.0000000), wk =   0.0493827
        k(   16) = (   0.1666667  -0.0962250   0.0000000), wk =   0.0246914
        k(   17) = (   0.2777778   0.4811252   0.0000000), wk =   0.0246914
        k(   18) = (   0.2777778   0.6094253   0.0000000), wk =   0.0493827
        k(   19) = (   0.2777778  -0.4169752   0.0000000), wk =   0.0493827
        k(   20) = (   0.2777778  -0.2886751   0.0000000), wk =   0.0493827
        k(   21) = (   0.2777778  -0.1603751   0.0000000), wk =   0.0246914
        k(   22) = (   0.3888889   0.6735753   0.0000000), wk =   0.0246914
        k(   23) = (   0.3888889  -0.3528252   0.0000000), wk =   0.0493827
        k(   24) = (   0.3888889  -0.2245251   0.0000000), wk =   0.0246914
        k(   25) = (  -0.5000000  -0.8660254   0.0000000), wk =   0.0123457

     Dense  grid:   101117 G-vectors     FFT dimensions: (  27,  27, 300)

     Smooth grid:    35839 G-vectors     FFT dimensions: (  20,  20, 216)

     Estimated max dynamical RAM per process >      93.60 MB

     Estimated total dynamical RAM >     748.81 MB
     Generating pointlists ...
     new r_m :   0.4125 (alat units)  2.1131 (a.u.) for type    1

     Initial potential from superposition of free atoms

     starting charge   72.49951, renormalised to   75.00000

     negative rho (up, down):  1.412E-01 1.385E-01
     Starting wfcs are   60 randomized atomic wfcs

     total cpu time spent up to now is        5.5 secs

     Self-consistent Calculation

     iteration #  1     ecut=    35.00 Ry     beta= 0.40
     Davidson diagonalization with overlap
     ethr =  1.00E-02,  avg # of iterations =  3.4

     negative rho (up, down):  1.438E-01 1.425E-01

     total cpu time spent up to now is       17.0 secs

     total energy              =    -855.99272000 Ry
     estimated scf accuracy    <       3.58110968 Ry

     total magnetization       =     0.28 Bohr mag/cell
     absolute magnetization    =     0.29 Bohr mag/cell

     iteration #  2     ecut=    35.00 Ry     beta= 0.40
     Davidson diagonalization with overlap
     ethr =  4.77E-03,  avg # of iterations =  1.0

     negative rho (up, down):  1.483E-01 1.485E-01

     total cpu time spent up to now is       25.7 secs

     total energy              =    -855.71719171 Ry
     estimated scf accuracy    <       0.96995692 Ry

     total magnetization       =     0.27 Bohr mag/cell
     absolute magnetization    =     0.28 Bohr mag/cell

     iteration #  3     ecut=    35.00 Ry     beta= 0.40
     Davidson diagonalization with overlap
     ethr =  1.29E-03,  avg # of iterations =  2.0

     negative rho (up, down):  1.498E-01 1.505E-01

     total cpu time spent up to now is       36.1 secs

     total energy              =    -855.83709215 Ry
     estimated scf accuracy    <       0.10278798 Ry

     total magnetization       =     0.22 Bohr mag/cell
     absolute magnetization    =     0.23 Bohr mag/cell

     iteration #  4     ecut=    35.00 Ry     beta= 0.40
     Davidson diagonalization with overlap
     ethr =  1.37E-04,  avg # of iterations =  5.0

     negative rho (up, down):  1.505E-01 1.512E-01

     total cpu time spent up to now is       46.6 secs

     total energy              =    -855.84578048 Ry
     estimated scf accuracy    <       0.02767803 Ry

     total magnetization       =     0.19 Bohr mag/cell
     absolute magnetization    =     0.20 Bohr mag/cell

     iteration #  5     ecut=    35.00 Ry     beta= 0.40
     Davidson diagonalization with overlap
     ethr =  3.69E-05,  avg # of iterations =  2.2

     negative rho (up, down):  1.512E-01 1.519E-01

     total cpu time spent up to now is       55.7 secs

     total energy              =    -855.84662225 Ry
     estimated scf accuracy    <       0.00347483 Ry

     total magnetization       =     0.16 Bohr mag/cell
     absolute magnetization    =     0.17 Bohr mag/cell

     iteration #  6     ecut=    35.00 Ry     beta= 0.40
     Davidson diagonalization with overlap
     c_bands:  1 eigenvalues not converged
     c_bands:  1 eigenvalues not converged
     ethr =  4.63E-06,  avg # of iterations =  9.1

     negative rho (up, down):  1.510E-01 1.516E-01

     total cpu time spent up to now is       67.5 secs

     total energy              =    -855.84643521 Ry
     estimated scf accuracy    <       0.00156953 Ry

     total magnetization       =     0.13 Bohr mag/cell
     absolute magnetization    =     0.14 Bohr mag/cell

     iteration #  7     ecut=    35.00 Ry     beta= 0.40
     Davidson diagonalization with overlap
     ethr =  2.09E-06,  avg # of iterations =  8.5

     negative rho (up, down):  1.498E-01 1.502E-01

     total cpu time spent up to now is       80.9 secs

     total energy              =    -855.84696107 Ry
     estimated scf accuracy    <       0.00230694 Ry

     total magnetization       =     0.08 Bohr mag/cell
     absolute magnetization    =     0.09 Bohr mag/cell

     iteration #  8     ecut=    35.00 Ry     beta= 0.40
     Davidson diagonalization with overlap
     ethr =  2.09E-06,  avg # of iterations =  4.6

     negative rho (up, down):  1.482E-01 1.481E-01

     total cpu time spent up to now is       90.8 secs

     total energy              =    -855.84650942 Ry
     estimated scf accuracy    <       0.00269297 Ry

     total magnetization       =     0.05 Bohr mag/cell
     absolute magnetization    =     0.06 Bohr mag/cell

     iteration #  9     ecut=    35.00 Ry     beta= 0.40
     Davidson diagonalization with overlap
     ethr =  2.09E-06,  avg # of iterations =  5.7

     negative rho (up, down):  1.471E-01 1.466E-01

     total cpu time spent up to now is      101.1 secs

     total energy              =    -855.84551297 Ry
     estimated scf accuracy    <       0.00166539 Ry

     total magnetization       =    -0.01 Bohr mag/cell
     absolute magnetization    =     0.03 Bohr mag/cell

     iteration # 10     ecut=    35.00 Ry     beta= 0.40
     Davidson diagonalization with overlap
     c_bands:  1 eigenvalues not converged
     c_bands:  1 eigenvalues not converged
     ethr =  2.09E-06,  avg # of iterations =  6.0

     negative rho (up, down):  1.457E-01 1.452E-01

     total cpu time spent up to now is      113.4 secs

     total energy              =    -855.84563355 Ry
     estimated scf accuracy    <       0.00063720 Ry

     total magnetization       =    -0.06 Bohr mag/cell
     absolute magnetization    =     0.06 Bohr mag/cell

     iteration # 11     ecut=    35.00 Ry     beta= 0.40
     Davidson diagonalization with overlap
     c_bands:  1 eigenvalues not converged
     c_bands:  1 eigenvalues not converged
     ethr =  8.50E-07,  avg # of iterations =  8.3

     negative rho (up, down):  1.454E-01 1.448E-01

     total cpu time spent up to now is      126.8 secs

     total energy              =    -855.84574850 Ry
     estimated scf accuracy    <       0.00015072 Ry

     total magnetization       =    -0.09 Bohr mag/cell
     absolute magnetization    =     0.10 Bohr mag/cell

     iteration # 12     ecut=    35.00 Ry     beta= 0.40
     Davidson diagonalization with overlap
     ethr =  2.01E-07,  avg # of iterations =  1.3

     negative rho (up, down):  1.438E-01 1.435E-01

     total cpu time spent up to now is      135.7 secs

     total energy              =    -855.84571855 Ry
     estimated scf accuracy    <       0.00003171 Ry

     total magnetization       =    -0.09 Bohr mag/cell
     absolute magnetization    =     0.10 Bohr mag/cell

     iteration # 13     ecut=    35.00 Ry     beta= 0.40
     Davidson diagonalization with overlap
     ethr =  4.23E-08,  avg # of iterations =  4.9

     negative rho (up, down):  1.437E-01 1.434E-01

     total cpu time spent up to now is      147.0 secs

     total energy              =    -855.84572522 Ry
     estimated scf accuracy    <       0.00001055 Ry

     total magnetization       =    -0.05 Bohr mag/cell
     absolute magnetization    =     0.06 Bohr mag/cell

     iteration # 14     ecut=    35.00 Ry     beta= 0.40
     Davidson diagonalization with overlap
     ethr =  1.41E-08,  avg # of iterations =  2.0

     negative rho (up, down):  1.436E-01 1.433E-01

     total cpu time spent up to now is      156.9 secs

     total energy              =    -855.84572651 Ry
     estimated scf accuracy    <       0.00000175 Ry

     total magnetization       =    -0.04 Bohr mag/cell
     absolute magnetization    =     0.05 Bohr mag/cell

     iteration # 15     ecut=    35.00 Ry     beta= 0.40
     Davidson diagonalization with overlap
     ethr =  2.33E-09,  avg # of iterations =  1.2

     negative rho (up, down):  1.434E-01 1.432E-01
 
     Magnetic moment per site:
     atom:    1    charge:   13.1750    magn:   -0.0145    constr:    0.0000
     atom:    2    charge:   13.2375    magn:   -0.0054    constr:    0.0000
     atom:    3    charge:   13.2465    magn:    0.0031    constr:    0.0000
     atom:    4    charge:   13.2378    magn:   -0.0054    constr:    0.0000
     atom:    5    charge:   13.1744    magn:   -0.0145    constr:    0.0000

     total cpu time spent up to now is      165.5 secs

     End of self-consistent calculation

 ------ SPIN UP ------------


          k = 0.0556 0.0962 0.0000 (  4451 PWs)   bands (ev):

   -42.4939 -42.2811 -42.0717 -42.0285 -42.0035 -41.9813 -41.9790 -41.9584
   -41.9332 -41.5979 -41.5944 -41.5774 -41.5763 -41.5453 -41.5451  -2.6756
    -1.7944  -1.1570  -0.7685  -0.7263   1.1667   1.1681   1.3234   1.6269
     1.6980   1.7466   1.7893   1.8185   1.9797   2.0519   2.1525   2.3283
     2.4123   2.5566   3.2670   3.3216   3.6138   3.6644   3.7310   3.9359
     4.2688   4.4702   4.9111   4.9360   6.0597   6.9111

          k = 0.0556 0.2245 0.0000 (  4420 PWs)   bands (ev):

   -42.4503 -42.2892 -42.1722 -42.1380 -42.0903 -42.0397 -42.0221 -41.9989
   -41.9620 -41.7041 -41.7036 -41.5846 -41.5826 -41.5783 -41.5780  -1.7813
    -1.0286  -0.5293  -0.1416  -0.0274   0.4804   0.8251   0.8753   1.0888
     1.5537   1.6964   1.8875   1.9347   2.0665   2.2672   2.4546   2.6115
     2.7731   2.8165   2.9952   3.1622   3.3772   3.4570   3.8080   4.0709
     4.3641   4.7050   4.9118   5.9209   7.5510   8.8240

          k = 0.0556 0.3528 0.0000 (  4467 PWs)   bands (ev):

   -42.4222 -42.3833 -42.3056 -42.2769 -42.1561 -42.0918 -42.0653 -42.0391
   -41.9990 -41.8609 -41.8586 -41.6225 -41.6223 -41.5727 -41.5715  -1.0181
    -0.7961  -0.5668  -0.3768  -0.1033   0.1635   0.3233   0.9268   1.2483
     1.5473   1.7628   1.8411   2.0879   2.4238   2.6724   2.8377   2.9869
     3.2430   3.5206   3.7366   3.8333   4.1238   4.3180   4.4518   4.6038
     4.6774   4.9841   5.3283   7.1192   9.1155  10.7702

          k = 0.0556 0.4811 0.0000 (  4463 PWs)   bands (ev):

   -42.5076 -42.4744 -42.4357 -42.2529 -42.1864 -42.1308 -42.1077 -42.0710
   -42.0289 -41.9659 -41.9589 -41.6556 -41.6554 -41.5636 -41.5634  -1.2134
    -1.0731  -0.8889  -0.7445  -0.3656  -0.1852  -0.0935   0.7421   1.2199
     1.4989   1.7552   2.1517   2.4354   2.6106   3.2120   3.5470   3.9554
     4.2156   4.3051   4.5982   4.7550   4.7944   4.9227   5.0846   5.2406
     5.8491   6.4976   6.9259   8.3853  10.2346  12.4301

          k = 0.0556-0.5453 0.0000 (  4486 PWs)   bands (ev):

   -42.5355 -42.4963 -42.4655 -42.2291 -42.2064 -42.1396 -42.1194 -42.0793
   -42.0364 -41.9882 -41.9774 -41.6634 -41.6630 -41.5619 -41.5617  -1.3228
    -1.1251  -0.9844  -0.8232  -0.4524  -0.2459  -0.1912   0.6948   1.1654
     1.4237   1.7113   2.2113   2.6070   2.6534   3.2876   3.7507   4.0998
     4.3221   4.6622   4.7890   4.9388   5.0156   5.1211   5.2416   5.3956
     6.5263   7.5893   8.0682   8.5717   9.4535  12.3412

          k = 0.0556-0.4170 0.0000 (  4465 PWs)   bands (ev):

   -42.4582 -42.4384 -42.3801 -42.2751 -42.1699 -42.1147 -42.0880 -42.0567
   -42.0162 -41.9230 -41.9195 -41.6418 -41.6415 -41.5674 -41.5668  -1.0207
    -0.9989  -0.7125  -0.6071  -0.2266  -0.0596   0.0879   0.8378   1.2770
     1.6422   1.7926   2.0477   2.0746   2.5971   2.9068   3.3469   3.5544
     3.6482   4.0458   4.1264   4.3133   4.5290   4.6505   4.7912   5.0165
     5.1840   5.4139   5.9936   7.7822   9.8567  11.7162

          k = 0.0556-0.2887 0.0000 (  4439 PWs)   bands (ev):

   -42.4272 -42.3226 -42.2383 -42.2199 -42.1338 -42.0647 -42.0427 -42.0197
   -41.9800 -41.7845 -41.7828 -41.6003 -41.6000 -41.5784 -41.5766  -1.2902
    -0.7615  -0.4760  -0.0711   0.0112   0.3674   0.5586   0.8331   1.0486
     1.4267   1.7681   1.9460   2.0109   2.1872   2.3729   2.4591   2.8216
     2.9074   3.0605   3.2968   3.4719   3.7129   3.8302   4.0627   4.2128
     4.4900   4.8625   4.9939   6.4989   8.3326   9.8034

          k = 0.0556-0.1604 0.0000 (  4443 PWs)   bands (ev):

   -42.4751 -42.2809 -42.1095 -42.0746 -42.0313 -42.0200 -42.0009 -41.9778
   -41.9461 -41.6335 -41.6331 -41.5906 -41.5874 -41.5594 -41.5592  -2.2874
    -1.4382  -0.8410  -0.4419  -0.4082   0.8465   0.9812   1.0992   1.4362
     1.5571   1.7682   1.9443   1.9647   2.0683   2.1149   2.1826   2.3122
     2.5889   2.7055   3.0675   3.2012   3.2771   3.4649   3.7310   3.9367
     4.3092   4.5821   4.8891   5.3864   6.7827   7.8405

          k = 0.0556-0.0321 0.0000 (  4465 PWs)   bands (ev):

   -42.5041 -42.2832 -42.0588 -42.0026 -41.9932 -41.9665 -41.9593 -41.9389
   -41.9259 -41.6008 -41.5953 -41.5492 -41.5489 -41.5380 -41.5376  -2.8825
    -1.9920  -1.3360  -0.9580  -0.9056   1.3183   1.3435   1.4558   1.6009
     1.6852   1.6918   1.7031   1.8276   1.8635   2.1302   2.1643   2.2120
     2.2610   2.8509   3.3935   3.3962   3.6580   3.6863   4.0650   4.0731
     4.2460   4.5468   4.6395   4.9573   5.4930   6.2027

          k = 0.1667 0.2887 0.0000 (  4425 PWs)   bands (ev):

   -42.4136 -42.3403 -42.2682 -42.2576 -42.1496 -42.0892 -42.0536 -42.0528
   -42.0104 -41.8164 -41.8155 -41.6335 -41.6329 -41.5736 -41.5726  -0.8566
    -0.4821  -0.0190   0.0576   0.1207   0.3341   0.5023   0.6381   1.1557
     1.2058   1.4401   1.6258   1.7256   1.7342   2.3210   2.4697   2.6777
     2.8949   3.3192   3.5262   3.7661   4.0807   4.3679   4.3750   4.7017
     4.7281   4.7988   5.4195   7.0480   8.9115  10.4699

          k = 0.1667 0.4170 0.0000 (  4459 PWs)   bands (ev):

   -42.4430 -42.4229 -42.3717 -42.2859 -42.1611 -42.1503 -42.1418 -42.0904
   -42.0490 -41.9127 -41.9124 -41.6960 -41.6957 -41.5639 -41.5638  -0.6597
    -0.5810  -0.3648  -0.1049   0.0098   0.1887   0.5213   0.8216   1.0613
     1.2231   1.4926   1.8737   2.0818   2.1665   2.4729   2.6888   2.9029
     3.2577   3.4778   3.7790   4.0039   4.3481   4.9307   4.9824   5.2002
     6.3735   6.6235   7.2774   8.7280  10.6014  12.3418

          k = 0.1667 0.5453 0.0000 (  4490 PWs)   bands (ev):

   -42.4989 -42.4594 -42.4308 -42.2522 -42.2049 -42.1760 -42.1727 -42.1032
   -42.0808 -41.9598 -41.9569 -41.7302 -41.7298 -41.5590 -41.5587  -0.9454
    -0.6624  -0.5579  -0.3137  -0.1040   0.1480   0.3015   0.7073   0.8505
     1.4311   1.7481   1.8991   2.1159   2.5758   2.6402   3.2826   3.4292
     3.5060   4.0108   4.2710   4.4379   4.5948   4.8420   4.9713   5.2111
     8.3010   8.9032   9.4459  10.1065  10.5841  12.6091

          k = 0.1667-0.4811 0.0000 (  4476 PWs)   bands (ev):

   -42.4782 -42.4472 -42.4101 -42.2677 -42.1806 -42.1685 -42.1661 -42.1005
   -42.0676 -41.9437 -41.9422 -41.7183 -41.7179 -41.5607 -41.5605  -0.8445
    -0.6307  -0.4902  -0.2404  -0.0459   0.1469   0.3931   0.7264   0.9853
     1.3242   1.7210   1.9288   2.0390   2.3649   2.7117   3.0457   3.1697
     3.3824   3.8904   4.0103   4.0969   4.4597   4.9457   5.0418   5.2961
     7.3671   7.7772   8.4381   9.6708  11.2373  12.8984

          k = 0.1667-0.3528 0.0000 (  4458 PWs)   bands (ev):

   -42.4155 -42.3836 -42.3197 -42.2932 -42.1570 -42.1216 -42.0976 -42.0737
   -42.0299 -41.8695 -41.8690 -41.6664 -41.6659 -41.5688 -41.5682  -0.5830
    -0.4705  -0.1969  -0.0564   0.0766   0.3611   0.5022   0.8205   0.9808
     1.2243   1.4640   1.6441   1.9286   2.0216   2.2394   2.3717   2.7915
     3.1154   3.2603   3.7020   3.9464   4.2122   4.6817   4.7806   4.9739
     5.4760   5.5809   6.2132   7.8076   9.7252  11.3918

          k = 0.1667-0.2245 0.0000 (  4433 PWs)   bands (ev):

   -42.4307 -42.3080 -42.2205 -42.1935 -42.1299 -42.0608 -42.0352 -42.0193
   -41.9871 -41.7592 -41.7582 -41.6029 -41.6026 -41.5795 -41.5778  -1.3315
    -0.7057  -0.2312   0.0568   0.1406   0.3630   0.5897   0.7792   0.9631
     1.3402   1.5370   1.6927   1.8265   1.9560   2.2489   2.5812   2.7350
     2.7714   3.0570   3.2913   3.4318   3.7543   3.8080   4.1555   4.1640
     4.3622   4.7835   4.9640   6.4343   8.1835   9.6043

          k = 0.1667-0.0962 0.0000 (  4427 PWs)   bands (ev):

   -42.4668 -42.2823 -42.1331 -42.0967 -42.0491 -42.0259 -42.0131 -41.9867
   -41.9470 -41.6596 -41.6592 -41.5885 -41.5857 -41.5641 -41.5639  -2.1134
    -1.2945  -0.7383  -0.3427  -0.2605   0.6662   0.9843   1.0145   1.2746
     1.6168   1.7996   1.9720   2.0030   2.0772   2.1864   2.2693   2.4107
     2.5925   2.8283   2.8748   3.1546   3.2398   3.4589   3.6714   4.0756
     4.2264   4.6465   4.9984   5.5211   7.0573   8.2001

          k = 0.2778 0.4811 0.0000 (  4485 PWs)   bands (ev):

   -42.4371 -42.4325 -42.3720 -42.3193 -42.2305 -42.2248 -42.1546 -42.1459
   -42.0824 -41.9208 -41.9196 -41.7902 -41.7896 -41.5578 -41.5576  -0.4486
    -0.4155  -0.0914   0.1581   0.3697   0.4261   0.5386   0.5780   1.0092
     1.2280   1.5737   1.6547   2.1369   2.2315   2.3834   2.4544   2.9456
     3.1497   3.5027   3.6295   4.0224   4.4738   4.8592   4.9783   5.1774
     8.7016   9.1872   9.9982  11.2035  12.6280  13.1381

          k = 0.2778 0.6094 0.0000 (  4491 PWs)   bands (ev):

   -42.4345 -42.4122 -42.3715 -42.3285 -42.2756 -42.2513 -42.1511 -42.1389
   -42.0976 -41.9121 -41.9114 -41.8229 -41.8222 -41.5562 -41.5559  -0.4579
    -0.2268   0.0078   0.1228   0.2570   0.4293   0.5357   0.6614   0.9764
     1.3461   1.5666   1.7019   2.0895   2.1463   2.4517   2.4878   2.9306
     3.2277   3.5071   3.6507   4.2877   4.4998   4.7158   4.8330   4.9564
     9.9374  10.4898  11.1034  11.6063  12.2599  12.7554

          k = 0.2778-0.4170 0.0000 (  4462 PWs)   bands (ev):

   -42.4464 -42.4304 -42.3808 -42.2947 -42.1902 -42.1820 -42.1561 -42.1328
   -42.0653 -41.9227 -41.9211 -41.7442 -41.7434 -41.5603 -41.5599  -0.5791
    -0.4422  -0.2253   0.0317   0.2090   0.3410   0.5367   0.8644   0.9828
     1.0465   1.5581   1.7205   2.1038   2.2637   2.3663   2.5409   2.8561
     3.1877   3.5100   3.7645   3.8407   4.4113   4.9572   5.0813   5.2870
     7.5067   7.8621   8.6018   9.9164  11.6213  13.2404

          k = 0.2778-0.2887 0.0000 (  4463 PWs)   bands (ev):

   -42.4303 -42.4091 -42.3447 -42.2845 -42.1604 -42.1182 -42.0997 -42.0542
   -42.0274 -41.8921 -41.8907 -41.6538 -41.6536 -41.5682 -41.5675  -0.7985
    -0.7185  -0.4948  -0.3201  -0.0444   0.1168   0.3997   0.8244   1.1609
     1.4830   1.5650   1.8396   2.0979   2.2611   2.6211   2.8183   2.9576
     3.2767   3.4846   3.8108   4.0599   4.3898   4.6104   4.7782   5.0013
     5.3534   5.5243   6.1262   7.7812   9.7643  11.4959

          k = 0.2778-0.1604 0.0000 (  4458 PWs)   bands (ev):

   -42.4227 -42.3504 -42.2629 -42.2578 -42.1458 -42.0750 -42.0467 -42.0291
   -41.9819 -41.8225 -41.8199 -41.6050 -41.6048 -41.5761 -41.5746  -1.1891
    -0.8127  -0.5908  -0.2441  -0.1049   0.2428   0.4060   0.9622   1.2407
     1.5280   1.7606   2.0208   2.0519   2.4724   2.6180   2.6819   2.8348
     3.0853   3.3984   3.4065   3.7038   3.7111   3.9117   4.0889   4.2467
     4.6507   4.9141   5.0508   6.7055   8.6415  10.1978

          k = 0.3889 0.6736 0.0000 (  4511 PWs)   bands (ev):

   -42.4708 -42.4322 -42.4049 -42.2872 -42.2473 -42.2072 -42.1674 -42.1294
   -42.0898 -41.9388 -41.9378 -41.7805 -41.7796 -41.5574 -41.5570  -0.7224
    -0.3625  -0.1942  -0.1118   0.1877   0.3077   0.4284   0.7081   0.9291
     1.2222   1.6706   1.9011   1.9899   2.2677   2.6735   2.8530   2.9725
     3.2892   3.7512   3.9592   4.4469   4.4801   4.7170   4.9066   5.0415
     9.4819   9.9276  10.3418  10.8260  11.2874  12.7693

          k = 0.3889-0.3528 0.0000 (  4485 PWs)   bands (ev):

   -42.5117 -42.4745 -42.4421 -42.2440 -42.1924 -42.1534 -42.1417 -42.0773
   -42.0610 -41.9689 -41.9637 -41.6868 -41.6866 -41.5615 -41.5611  -1.1154
    -0.9185  -0.8008  -0.5734  -0.2806  -0.0524   0.0337   0.6989   1.0611
     1.5123   1.7476   1.9651   2.3118   2.6685   2.9351   3.5296   3.7081
     3.9397   4.1939   4.4899   4.5558   4.6564   4.9612   5.0394   5.3068
     7.0404   7.6808   8.1658   9.1830  10.4235  12.5490

          k = 0.3889-0.2245 0.0000 (  4444 PWs)   bands (ev):

   -42.4877 -42.4610 -42.4131 -42.2640 -42.1793 -42.1168 -42.0873 -42.0658
   -42.0132 -41.9499 -41.9435 -41.6405 -41.6404 -41.5657 -41.5651  -1.1900
    -1.1021  -0.8484  -0.7593  -0.3539  -0.1910  -0.0628   0.8019   1.2970
     1.5371   1.7869   2.2264   2.4017   2.4927   3.3373   3.4052   3.9391
     4.2179   4.3177   4.5777   4.6963   4.7710   4.7836   4.9695   5.0870
     5.2004   5.5181   6.0759   7.9308  10.0186  12.0550

          k =-0.5000-0.8660 0.0000 (  4492 PWs)   bands (ev):

   -42.5440 -42.5044 -42.4740 -42.2199 -42.2167 -42.1340 -42.1118 -42.0803
   -42.0257 -41.9963 -41.9818 -41.6549 -41.6546 -41.5624 -41.5620  -1.3999
    -1.1976  -1.0434  -0.9107  -0.5205  -0.3335  -0.2462   0.6865   1.2133
     1.3778   1.6841   2.4222   2.5039   2.7665   3.4035   3.7941   4.2648
     4.3508   4.8757   5.0151   5.0362   5.1192   5.2640   5.5312   5.5452
     6.1001   7.5296   8.1498   8.5116   8.6888  12.2599

 ------ SPIN DOWN ----------


          k = 0.0556 0.0962 0.0000 (  4451 PWs)   bands (ev):

   -42.4952 -42.2875 -42.0749 -42.0310 -42.0057 -41.9864 -41.9830 -41.9618
   -41.9344 -41.6161 -41.6121 -41.5910 -41.5900 -41.5587 -41.5585  -2.6757
    -1.7949  -1.1572  -0.7723  -0.7307   1.1634   1.1641   1.3216   1.6216
     1.6921   1.7424   1.7839   1.8141   1.9741   2.0447   2.1442   2.3188
     2.4040   2.5497   3.2624   3.3167   3.6058   3.6551   3.7227   3.9262
     4.2614   4.4591   4.9031   4.9287   6.0525   6.9070

          k = 0.0556 0.2245 0.0000 (  4420 PWs)   bands (ev):

   -42.4515 -42.2938 -42.1778 -42.1441 -42.0900 -42.0418 -42.0245 -42.0050
   -41.9632 -41.7174 -41.7169 -41.6030 -41.6006 -41.5918 -41.5914  -1.7816
    -1.0293  -0.5301  -0.1453  -0.0308   0.4767   0.8212   0.8722   1.0824
     1.5493   1.6883   1.8798   1.9298   2.0635   2.2610   2.4508   2.6035
     2.7661   2.8097   2.9869   3.1546   3.3684   3.4489   3.8006   4.0630
     4.3541   4.6943   4.9049   5.9147   7.5448   8.8203

          k = 0.0556 0.3528 0.0000 (  4467 PWs)   bands (ev):

   -42.4241 -42.3839 -42.3118 -42.2826 -42.1595 -42.0938 -42.0689 -42.0438
   -42.0003 -41.8737 -41.8712 -41.6358 -41.6357 -41.5913 -41.5901  -1.0193
    -0.7975  -0.5688  -0.3800  -0.1082   0.1588   0.3175   0.9215   1.2436
     1.5432   1.7563   1.8375   2.0816   2.4164   2.6646   2.8310   2.9807
     3.2362   3.5138   3.7290   3.8264   4.1192   4.3119   4.4413   4.5944
     4.6692   4.9769   5.3215   7.1137   9.1104  10.7668

          k = 0.0556 0.4811 0.0000 (  4463 PWs)   bands (ev):

   -42.5103 -42.4750 -42.4419 -42.2572 -42.1916 -42.1329 -42.1116 -42.0760
   -42.0305 -41.9776 -41.9698 -41.6689 -41.6688 -41.5825 -41.5823  -1.2150
    -1.0750  -0.8903  -0.7487  -0.3712  -0.1907  -0.1001   0.7367   1.2131
     1.4952   1.7512   2.1438   2.4303   2.6027   3.2034   3.5392   3.9480
     4.2051   4.2995   4.5891   4.7494   4.7872   4.9190   5.0743   5.2331
     5.8435   6.4941   6.9223   8.3814  10.2315  12.4251

          k = 0.0556-0.5453 0.0000 (  4486 PWs)   bands (ev):

   -42.5381 -42.4969 -42.4719 -42.2346 -42.2109 -42.1418 -42.1232 -42.0844
   -42.0382 -41.9993 -41.9877 -41.6767 -41.6763 -41.5808 -41.5807  -1.3244
    -1.1273  -0.9855  -0.8274  -0.4580  -0.2515  -0.1981   0.6894   1.1584
     1.4198   1.7072   2.2035   2.6000   2.6472   3.2792   3.7399   4.0931
     4.3106   4.6577   4.7831   4.9299   5.0094   5.1169   5.2323   5.3860
     6.5225   7.5869   8.0660   8.5687   9.4517  12.3373

          k = 0.0556-0.4170 0.0000 (  4465 PWs)   bands (ev):

   -42.4614 -42.4384 -42.3862 -42.2795 -42.1746 -42.1167 -42.0919 -42.0614
   -42.0176 -41.9353 -41.9313 -41.6551 -41.6548 -41.5862 -41.5855  -1.0226
    -1.0002  -0.7142  -0.6111  -0.2320  -0.0648   0.0816   0.8324   1.2711
     1.6383   1.7880   2.0427   2.0671   2.5891   2.8989   3.3411   3.5491
     3.6396   4.0379   4.1164   4.3070   4.5240   4.6436   4.7824   5.0099
     5.1761   5.4083   5.9883   7.7774   9.8523  11.7126

          k = 0.0556-0.2887 0.0000 (  4439 PWs)   bands (ev):

   -42.4284 -42.3248 -42.2448 -42.2263 -42.1351 -42.0668 -42.0454 -42.0251
   -41.9813 -41.7976 -41.7958 -41.6137 -41.6134 -41.5969 -41.5950  -1.2909
    -0.7626  -0.4774  -0.0740   0.0065   0.3646   0.5528   0.8289   1.0435
     1.4213   1.7620   1.9411   2.0068   2.1810   2.3652   2.4511   2.8133
     2.9022   3.0540   3.2913   3.4643   3.7071   3.8218   4.0531   4.2055
     4.4792   4.8533   4.9874   6.4929   8.3269   9.7998

          k = 0.0556-0.1604 0.0000 (  4443 PWs)   bands (ev):

   -42.4763 -42.2868 -42.1142 -42.0784 -42.0323 -42.0222 -42.0042 -41.9835
   -41.9473 -41.6470 -41.6466 -41.6087 -41.6053 -41.5728 -41.5726  -2.2875
    -1.4388  -0.8414  -0.4457  -0.4123   0.8426   0.9772   1.0974   1.4302
     1.5514   1.7594   1.9395   1.9604   2.0660   2.1083   2.1760   2.3064
     2.5801   2.6981   3.0594   3.1947   3.2670   3.4576   3.7233   3.9284
     4.3007   4.5707   4.8815   5.3801   6.7759   7.8366

          k = 0.0556-0.0321 0.0000 (  4465 PWs)   bands (ev):

   -42.5055 -42.2897 -42.0612 -42.0048 -41.9951 -41.9725 -41.9657 -41.9401
   -41.9272 -41.6191 -41.6131 -41.5626 -41.5623 -41.5514 -41.5510  -2.8826
    -1.9925  -1.3361  -0.9619  -0.9099   1.3153   1.3398   1.4538   1.5979
     1.6787   1.6909   1.6987   1.8222   1.8533   2.1219   2.1551   2.2023
     2.2523   2.8439   3.3897   3.3927   3.6508   3.6784   4.0572   4.0626
     4.2349   4.5431   4.6264   4.9495   5.4855   6.1985

          k = 0.1667 0.2887 0.0000 (  4425 PWs)   bands (ev):

   -42.4148 -42.3414 -42.2743 -42.2639 -42.1524 -42.0931 -42.0588 -42.0534
   -42.0120 -41.8293 -41.8283 -41.6468 -41.6463 -41.5922 -41.5911  -0.8575
    -0.4828  -0.0224   0.0561   0.1193   0.3308   0.4965   0.6323   1.1529
     1.2003   1.4330   1.6167   1.7176   1.7299   2.3166   2.4621   2.6693
     2.8865   3.3141   3.5191   3.7572   4.0729   4.3628   4.3648   4.6920
     4.7210   4.7927   5.4125   7.0422   8.9061  10.4665

          k = 0.1667 0.4170 0.0000 (  4459 PWs)   bands (ev):

   -42.4463 -42.4223 -42.3781 -42.2896 -42.1661 -42.1550 -42.1457 -42.0917
   -42.0511 -41.9249 -41.9246 -41.7093 -41.7089 -41.5828 -41.5826  -0.6615
    -0.5826  -0.3666  -0.1088   0.0057   0.1830   0.5167   0.8157   1.0563
     1.2182   1.4888   1.8682   2.0737   2.1601   2.4659   2.6821   2.8953
     3.2517   3.4716   3.7687   3.9939   4.3373   4.9243   4.9737   5.1947
     6.3699   6.6172   7.2721   8.7231  10.5969  12.3383

          k = 0.1667 0.5453 0.0000 (  4490 PWs)   bands (ev):

   -42.5014 -42.4600 -42.4371 -42.2556 -42.2073 -42.1819 -42.1789 -42.1046
   -42.0828 -41.9715 -41.9684 -41.7434 -41.7430 -41.5780 -41.5777  -0.9473
    -0.6646  -0.5591  -0.3182  -0.1095   0.1418   0.2967   0.7014   0.8464
     1.4260   1.7406   1.8917   2.1119   2.5690   2.6336   3.2750   3.4220
     3.4992   4.0010   4.2653   4.4287   4.5809   4.8356   4.9641   5.2059
     8.2984   8.8997   9.4427  10.1030  10.5820  12.6015

          k = 0.1667-0.4811 0.0000 (  4476 PWs)   bands (ev):

   -42.4810 -42.4475 -42.4165 -42.2710 -42.1832 -42.1744 -42.1721 -42.1018
   -42.0698 -41.9555 -41.9540 -41.7315 -41.7311 -41.5796 -41.5795  -0.8463
    -0.6327  -0.4917  -0.2446  -0.0511   0.1412   0.3883   0.7205   0.9808
     1.3193   1.7153   1.9219   2.0336   2.3582   2.7049   3.0387   3.1629
     3.3752   3.8820   4.0020   4.0886   4.4476   4.9381   5.0341   5.2907
     7.3641   7.7722   8.4337   9.6664  11.2341  12.8950

          k = 0.1667-0.3528 0.0000 (  4458 PWs)   bands (ev):

   -42.4179 -42.3834 -42.3261 -42.2982 -42.1613 -42.1261 -42.1014 -42.0750
   -42.0318 -41.8821 -41.8815 -41.6797 -41.6792 -41.5876 -41.5869  -0.5849
    -0.4712  -0.1989  -0.0593   0.0731   0.3551   0.4990   0.8157   0.9754
     1.2189   1.4590   1.6388   1.9208   2.0144   2.2334   2.3643   2.7842
     3.1076   3.2545   3.6939   3.9353   4.2022   4.6749   4.7734   4.9677
     5.4715   5.5731   6.2072   7.8021   9.7203  11.3885

          k = 0.1667-0.2245 0.0000 (  4433 PWs)   bands (ev):

   -42.4318 -42.3110 -42.2267 -42.1999 -42.1307 -42.0637 -42.0375 -42.0243
   -41.9884 -41.7723 -41.7713 -41.6163 -41.6160 -41.5979 -41.5961  -1.3319
    -0.7064  -0.2325   0.0543   0.1375   0.3597   0.5849   0.7744   0.9581
     1.3359   1.5293   1.6842   1.8202   1.9516   2.2439   2.5734   2.7270
     2.7630   3.0528   3.2853   3.4237   3.7480   3.8009   4.1469   4.1553
     4.3505   4.7767   4.9559   6.4282   8.1776   9.6007

          k = 0.1667-0.0962 0.0000 (  4427 PWs)   bands (ev):

   -42.4680 -42.2878 -42.1381 -42.1018 -42.0489 -42.0278 -42.0159 -41.9931
   -41.9484 -41.6730 -41.6726 -41.6068 -41.6037 -41.5775 -41.5773  -2.1135
    -1.2951  -0.7389  -0.3466  -0.2643   0.6626   0.9804   1.0119   1.2681
     1.6114   1.7909   1.9666   2.0001   2.0709   2.1845   2.2627   2.4051
     2.5843   2.8208   2.8661   3.1444   3.2328   3.4503   3.6637   4.0685
     4.2179   4.6341   4.9911   5.5152   7.0508   8.1963

          k = 0.2778 0.4811 0.0000 (  4485 PWs)   bands (ev):

   -42.4414 -42.4320 -42.3776 -42.3212 -42.2356 -42.2312 -42.1552 -42.1510
   -42.0835 -41.9332 -41.9319 -41.8033 -41.8026 -41.5768 -41.5766  -0.4491
    -0.4192  -0.0945   0.1552   0.3661   0.4223   0.5328   0.5730   1.0044
     1.2229   1.5675   1.6504   2.1277   2.2230   2.3753   2.4466   2.9412
     3.1455   3.4961   3.6195   4.0130   4.4590   4.8508   4.9719   5.1725
     8.6993   9.1823   9.9939  11.1991  12.6248  13.1363

          k = 0.2778 0.6094 0.0000 (  4491 PWs)   bands (ev):

   -42.4370 -42.4134 -42.3761 -42.3312 -42.2807 -42.2567 -42.1549 -42.1426
   -42.0980 -41.9246 -41.9239 -41.8358 -41.8350 -41.5752 -41.5750  -0.4598
    -0.2291   0.0049   0.1205   0.2535   0.4238   0.5307   0.6566   0.9713
     1.3413   1.5608   1.6978   2.0798   2.1372   2.4428   2.4795   2.9271
     3.2241   3.4994   3.6423   4.2764   4.4828   4.7104   4.8271   4.9513
     9.9355  10.4859  11.1005  11.6031  12.2565  12.7533

          k = 0.2778-0.4170 0.0000 (  4462 PWs)   bands (ev):

   -42.4498 -42.4301 -42.3869 -42.2973 -42.1965 -42.1881 -42.1590 -42.1337
   -42.0670 -41.9349 -41.9333 -41.7574 -41.7565 -41.5793 -41.5788  -0.5809
    -0.4441  -0.2279   0.0279   0.2052   0.3353   0.5327   0.8601   0.9773
     1.0412   1.5539   1.7143   2.0951   2.2568   2.3588   2.5338   2.8496
     3.1829   3.5031   3.7540   3.8318   4.3983   4.9486   5.0742   5.2821
     7.5040   7.8564   8.5970   9.9117  11.6172  13.2368

          k = 0.2778-0.2887 0.0000 (  4463 PWs)   bands (ev):

   -42.4333 -42.4088 -42.3510 -42.2892 -42.1646 -42.1208 -42.1044 -42.0572
   -42.0289 -41.9047 -41.9030 -41.6671 -41.6669 -41.5870 -41.5862  -0.8001
    -0.7199  -0.4964  -0.3238  -0.0489   0.1112   0.3945   0.8187   1.1558
     1.4791   1.5598   1.8351   2.0906   2.2541   2.6141   2.8117   2.9504
     3.2692   3.4789   3.8013   4.0497   4.3813   4.6042   4.7707   4.9948
     5.3474   5.5177   6.1204   7.7760   9.7595  11.4924

          k = 0.2778-0.1604 0.0000 (  4458 PWs)   bands (ev):

   -42.4240 -42.3518 -42.2694 -42.2641 -42.1481 -42.0769 -42.0484 -42.0356
   -41.9833 -41.8356 -41.8327 -41.6184 -41.6182 -41.5947 -41.5931  -1.1900
    -0.8141  -0.5926  -0.2470  -0.1099   0.2389   0.3999   0.9572   1.2363
     1.5234   1.7548   2.0179   2.0453   2.4643   2.6106   2.6747   2.8279
     3.0801   3.3930   3.3996   3.7008   3.7026   3.9029   4.0783   4.2392
     4.6396   4.9061   5.0440   6.6997   8.6360  10.1943

          k = 0.3889 0.6736 0.0000 (  4511 PWs)   bands (ev):

   -42.4732 -42.4329 -42.4111 -42.2892 -42.2520 -42.2134 -42.1717 -42.1317
   -42.0909 -41.9509 -41.9499 -41.7936 -41.7926 -41.5764 -41.5761  -0.7244
    -0.3644  -0.1957  -0.1164   0.1830   0.3025   0.4236   0.7038   0.9235
     1.2168   1.6640   1.8962   1.9812   2.2605   2.6686   2.8446   2.9652
     3.2832   3.7429   3.9530   4.4347   4.4659   4.7115   4.8987   5.0374
     9.4799   9.9248  10.3387  10.8222  11.2847  12.7628

          k = 0.3889-0.3528 0.0000 (  4485 PWs)   bands (ev):

   -42.5143 -42.4751 -42.4485 -42.2483 -42.1963 -42.1568 -42.1471 -42.0805
   -42.0628 -41.9803 -41.9747 -41.7001 -41.6998 -41.5805 -41.5801  -1.1171
    -0.9208  -0.8019  -0.5776  -0.2861  -0.0588   0.0281   0.6934   1.0557
     1.5086   1.7412   1.9573   2.3074   2.6611   2.9272   3.5228   3.7002
     3.9329   4.1827   4.4815   4.5509   4.6461   4.9543   5.0318   5.3004
     7.0369   7.6771   8.1624   9.1793  10.4213  12.5424

          k = 0.3889-0.2245 0.0000 (  4444 PWs)   bands (ev):

   -42.4905 -42.4615 -42.4192 -42.2682 -42.1844 -42.1187 -42.0897 -42.0722
   -42.0145 -41.9619 -41.9547 -41.6539 -41.6537 -41.5845 -41.5839  -1.1916
    -1.1037  -0.8501  -0.7634  -0.3595  -0.1962  -0.0694   0.7965   1.2902
     1.5325   1.7840   2.2189   2.3958   2.4844   3.3277   3.3980   3.9318
     4.2087   4.3125   4.5743   4.6901   4.7659   4.7747   4.9617   5.0757
     5.1916   5.5156   6.0721   7.9265  10.0146  12.0510

          k =-0.5000-0.8660 0.0000 (  4492 PWs)   bands (ev):

   -42.5466 -42.5050 -42.4805 -42.2273 -42.2197 -42.1359 -42.1143 -42.0867
   -42.0271 -42.0079 -41.9918 -41.6682 -41.6679 -41.5814 -41.5810  -1.4015
    -1.1997  -1.0445  -0.9150  -0.5261  -0.3392  -0.2532   0.6811   1.2051
     1.3739   1.6812   2.4138   2.4969   2.7601   3.3962   3.7806   4.2594
     4.3389   4.8697   5.0059   5.0347   5.1129   5.2611   5.5192   5.5336
     6.0973   7.5283   8.1472   8.5095   8.6871  12.2505

     the Fermi energy is     4.4736 ev

!    total energy              =    -855.84572724 Ry
     estimated scf accuracy    <       0.00000098 Ry
     smearing contrib. (-TS)   =      -0.02249704 Ry
     internal energy E=F+TS    =    -855.82323021 Ry

     The total energy is F=E-TS. E is the sum of the following terms:
     one-electron contribution =  -11767.00252258 Ry
     hartree contribution      =    5905.69196936 Ry
     xc contribution           =    -149.47862909 Ry
     ewald contribution        =    5154.96595210 Ry

     total magnetization       =    -0.04 Bohr mag/cell
     absolute magnetization    =     0.05 Bohr mag/cell

     convergence has been achieved in  15 iterations

     negative rho (up, down):  1.434E-01 1.432E-01

     Forces acting on atoms (cartesian axes, Ry/au):

     atom    1 type  1   force =     0.00000000    0.00000000    0.01175935
     atom    2 type  1   force =     0.00000000    0.00000000   -0.00886574
     atom    3 type  1   force =     0.00000000    0.00000000   -0.00001026
     atom    4 type  1   force =     0.00000000    0.00000000    0.00886448
     atom    5 type  1   force =     0.00000000    0.00000000   -0.01174783

     Total force =     0.020820     Total SCF correction =     0.002088
     SCF correction compared to forces is large: reduce conv_thr to get better values

     BFGS Geometry Optimization
     Energy error            =      0.0E+00
     Gradient error          =      1.2E-02

     number of scf cycles    =   1
     number of bfgs steps    =   0

     energy   new            =    -855.8457272439 Ry

     new trust radius        =       0.0117593489 bohr
     new conv_thr            =       0.0000010000 Ry


ATOMIC_POSITIONS (angstrom)
Rh            0.0000000000        0.0000000000        0.0062227794
Rh            2.7108568000        1.5651139000        2.2087137549
Rh            1.3554284000        0.7825569000        4.4268051695
Rh            0.0000000000        0.0000000000        6.6449067810
Rh            2.7108568000        1.5651139000        8.8474045152



     Writing output data file /home/STUDENTI/leonardo.razzai/WORK/relax_surf/5-L.save/
     NEW-OLD atomic charge density approx. for the potential

     negative rho (up, down):  1.441E-01 1.440E-01
     Generating pointlists ...

     total cpu time spent up to now is      168.2 secs

     Self-consistent Calculation

     iteration #  1     ecut=    35.00 Ry     beta= 0.40
     Davidson diagonalization with overlap
     ethr =  1.00E-06,  avg # of iterations =  6.0

     negative rho (up, down):  1.441E-01 1.440E-01

     total cpu time spent up to now is      186.3 secs

     total energy              =    -855.84607108 Ry
     estimated scf accuracy    <       0.00082907 Ry

     total magnetization       =    -0.03 Bohr mag/cell
     absolute magnetization    =     0.04 Bohr mag/cell

     iteration #  2     ecut=    35.00 Ry     beta= 0.40
     Davidson diagonalization with overlap
     ethr =  1.11E-06,  avg # of iterations =  1.0

     negative rho (up, down):  1.441E-01 1.440E-01

     total cpu time spent up to now is      195.1 secs

     total energy              =    -855.84610098 Ry
     estimated scf accuracy    <       0.00011670 Ry

     total magnetization       =    -0.03 Bohr mag/cell
     absolute magnetization    =     0.03 Bohr mag/cell

     iteration #  3     ecut=    35.00 Ry     beta= 0.40
     Davidson diagonalization with overlap
     ethr =  1.56E-07,  avg # of iterations =  1.0

     negative rho (up, down):  1.441E-01 1.440E-01

     total cpu time spent up to now is      203.9 secs

     total energy              =    -855.84609940 Ry
     estimated scf accuracy    <       0.00008319 Ry

     total magnetization       =    -0.02 Bohr mag/cell
     absolute magnetization    =     0.03 Bohr mag/cell

     iteration #  4     ecut=    35.00 Ry     beta= 0.40
     Davidson diagonalization with overlap
     ethr =  1.11E-07,  avg # of iterations =  1.0

     negative rho (up, down):  1.441E-01 1.440E-01

     total cpu time spent up to now is      212.8 secs

     total energy              =    -855.84609654 Ry
     estimated scf accuracy    <       0.00002832 Ry

     total magnetization       =    -0.02 Bohr mag/cell
     absolute magnetization    =     0.03 Bohr mag/cell

     iteration #  5     ecut=    35.00 Ry     beta= 0.40
     Davidson diagonalization with overlap
     ethr =  3.78E-08,  avg # of iterations =  1.5

     negative rho (up, down):  1.441E-01 1.440E-01

     total cpu time spent up to now is      221.8 secs

     total energy              =    -855.84609866 Ry
     estimated scf accuracy    <       0.00000247 Ry

     total magnetization       =    -0.02 Bohr mag/cell
     absolute magnetization    =     0.02 Bohr mag/cell

     iteration #  6     ecut=    35.00 Ry     beta= 0.40
     Davidson diagonalization with overlap
     ethr =  3.29E-09,  avg # of iterations =  1.5

     negative rho (up, down):  1.441E-01 1.440E-01

     total cpu time spent up to now is      231.0 secs

     total energy              =    -855.84609866 Ry
     estimated scf accuracy    <       0.00000171 Ry

     total magnetization       =    -0.02 Bohr mag/cell
     absolute magnetization    =     0.02 Bohr mag/cell

     iteration #  7     ecut=    35.00 Ry     beta= 0.40
     Davidson diagonalization with overlap
     ethr =  2.27E-09,  avg # of iterations =  1.2

     negative rho (up, down):  1.441E-01 1.440E-01

     total cpu time spent up to now is      239.8 secs

     total energy              =    -855.84609881 Ry
     estimated scf accuracy    <       0.00000114 Ry

     total magnetization       =    -0.01 Bohr mag/cell
     absolute magnetization    =     0.02 Bohr mag/cell

     iteration #  8     ecut=    35.00 Ry     beta= 0.40
     Davidson diagonalization with overlap
     ethr =  1.52E-09,  avg # of iterations =  1.1

     negative rho (up, down):  1.441E-01 1.441E-01

     total cpu time spent up to now is      248.6 secs

     total energy              =    -855.84609866 Ry
     estimated scf accuracy    <       0.00000103 Ry

     total magnetization       =    -0.01 Bohr mag/cell
     absolute magnetization    =     0.01 Bohr mag/cell

     iteration #  9     ecut=    35.00 Ry     beta= 0.40
     Davidson diagonalization with overlap
     ethr =  1.37E-09,  avg # of iterations =  1.9

     negative rho (up, down):  1.441E-01 1.441E-01
 
     Magnetic moment per site:
     atom:    1    charge:   13.1784    magn:   -0.0008    constr:    0.0000
     atom:    2    charge:   13.2395    magn:   -0.0003    constr:    0.0000
     atom:    3    charge:   13.2440    magn:    0.0002    constr:    0.0000
     atom:    4    charge:   13.2398    magn:   -0.0003    constr:    0.0000
     atom:    5    charge:   13.1777    magn:   -0.0008    constr:    0.0000

     total cpu time spent up to now is      257.9 secs

     End of self-consistent calculation

 ------ SPIN UP ------------


          k = 0.0556 0.0962 0.0000 (  4451 PWs)   bands (ev):

   -42.4938 -42.2976 -42.0797 -42.0327 -42.0070 -41.9906 -41.9861 -41.9638
   -41.9348 -41.6217 -41.6176 -41.5976 -41.5965 -41.5655 -41.5654  -2.6796
    -1.8128  -1.1559  -0.7895  -0.7495   1.1512   1.1686   1.3226   1.6079
     1.6810   1.7421   1.7835   1.8194   1.9623   2.0366   2.1346   2.3013
     2.3903   2.5447   3.2618   3.3131   3.5979   3.6539   3.7119   3.9278
     4.2563   4.4572   4.9050   4.9265   6.0586   6.9098

          k = 0.0556 0.2245 0.0000 (  4420 PWs)   bands (ev):

   -42.4498 -42.3008 -42.1835 -42.1490 -42.0905 -42.0432 -42.0275 -42.0098
   -41.9639 -41.7240 -41.7235 -41.6086 -41.6062 -41.5986 -41.5982  -1.7851
    -1.0456  -0.5320  -0.1624  -0.0457   0.4709   0.8054   0.8752   1.0623
     1.5379   1.6858   1.8733   1.9271   2.0630   2.2558   2.4488   2.5882
     2.7518   2.8045   2.9836   3.1420   3.3662   3.4477   3.7972   4.0600
     4.3541   4.7010   4.9055   5.9141   7.5516   8.8227

          k = 0.0556 0.3528 0.0000 (  4467 PWs)   bands (ev):

   -42.4223 -42.3839 -42.3171 -42.2899 -42.1661 -42.0946 -42.0727 -42.0478
   -42.0013 -41.8797 -41.8769 -41.6426 -41.6425 -41.5976 -41.5962  -1.0217
    -0.7997  -0.5813  -0.3866  -0.1286   0.1408   0.3038   0.9077   1.2390
     1.5389   1.7503   1.8358   2.0774   2.4041   2.6471   2.8200   2.9724
     3.2267   3.5151   3.7326   3.8191   4.1146   4.3031   4.4415   4.5976
     4.6695   4.9794   5.3230   7.1185   9.1145  10.7680

          k = 0.0556 0.4811 0.0000 (  4463 PWs)   bands (ev):

   -42.5110 -42.4738 -42.4472 -42.2636 -42.1997 -42.1337 -42.1150 -42.0797
   -42.0318 -41.9824 -41.9745 -41.6756 -41.6755 -41.5894 -41.5890  -1.2170
    -1.0771  -0.8910  -0.7670  -0.3918  -0.2084  -0.1186   0.7244   1.2121
     1.4937   1.7483   2.1302   2.4287   2.5865   3.1909   3.5292   3.9442
     4.2040   4.3001   4.5912   4.7455   4.7881   4.9187   5.0706   5.2314
     5.8402   6.4880   6.9200   8.3869  10.2307  12.4244

          k = 0.0556-0.5453 0.0000 (  4486 PWs)   bands (ev):

   -42.5389 -42.4956 -42.4775 -42.2432 -42.2174 -42.1426 -42.1260 -42.0880
   -42.0396 -42.0038 -41.9922 -41.6834 -41.6830 -41.5878 -41.5876  -1.3264
    -1.1301  -0.9855  -0.8459  -0.4781  -0.2669  -0.2198   0.6757   1.1601
     1.4180   1.7045   2.1857   2.5846   2.6486   3.2667   3.7346   4.0888
     4.3151   4.6554   4.7843   4.9311   5.0049   5.1149   5.2287   5.3830
     6.5184   7.5796   8.0630   8.5733   9.4500  12.3270

          k = 0.0556-0.4170 0.0000 (  4465 PWs)   bands (ev):

   -42.4618 -42.4370 -42.3914 -42.2855 -42.1827 -42.1174 -42.0957 -42.0652
   -42.0187 -41.9406 -41.9364 -41.6618 -41.6616 -41.5928 -41.5920  -1.0275
    -0.9988  -0.7177  -0.6270  -0.2533  -0.0833   0.0658   0.8216   1.2656
     1.6371   1.7838   2.0414   2.0609   2.5667   2.8876   3.3284   3.5386
     3.6361   4.0388   4.1222   4.3044   4.5164   4.6509   4.7778   5.0091
     5.1753   5.4040   5.9873   7.7835   9.8543  11.7134

          k = 0.0556-0.2887 0.0000 (  4439 PWs)   bands (ev):

   -42.4263 -42.3276 -42.2521 -42.2316 -42.1386 -42.0678 -42.0488 -42.0295
   -41.9822 -41.8040 -41.8021 -41.6205 -41.6202 -41.6028 -41.6008  -1.2939
    -0.7741  -0.4843  -0.0830  -0.0097   0.3559   0.5355   0.8148   1.0355
     1.4152   1.7585   1.9339   2.0023   2.1740   2.3550   2.4469   2.7964
     2.8959   3.0544   3.2809   3.4648   3.7012   3.8115   4.0520   4.2041
     4.4843   4.8605   4.9868   6.4952   8.3327   9.8016

          k = 0.0556-0.1604 0.0000 (  4443 PWs)   bands (ev):

   -42.4748 -42.2959 -42.1193 -42.0816 -42.0328 -42.0240 -42.0074 -41.9879
   -41.9478 -41.6538 -41.6535 -41.6142 -41.6106 -41.5797 -41.5794  -2.2913
    -1.4563  -0.8407  -0.4635  -0.4303   0.8345   0.9751   1.0989   1.4105
     1.5351   1.7637   1.9350   1.9571   2.0652   2.1025   2.1733   2.2965
     2.5602   2.6852   3.0541   3.1931   3.2622   3.4592   3.7157   3.9258
     4.2968   4.5740   4.8831   5.3773   6.7828   7.8393

          k = 0.0556-0.0321 0.0000 (  4465 PWs)   bands (ev):

   -42.5041 -42.3002 -42.0657 -42.0059 -41.9960 -41.9773 -41.9706 -41.9405
   -41.9277 -41.6245 -41.6184 -41.5694 -41.5692 -41.5583 -41.5578  -2.8865
    -2.0104  -1.3347  -0.9791  -0.9286   1.3092   1.3400   1.4541   1.5954
     1.6699   1.6929   1.6967   1.8103   1.8558   2.1095   2.1426   2.1842
     2.2385   2.8372   3.3889   3.3925   3.6431   3.6693   4.0445   4.0609
     4.2341   4.5383   4.6308   4.9509   5.4905   6.2011

          k = 0.1667 0.2887 0.0000 (  4425 PWs)   bands (ev):

   -42.4125 -42.3428 -42.2811 -42.2692 -42.1579 -42.0965 -42.0641 -42.0536
   -42.0137 -41.8354 -41.8344 -41.6536 -41.6531 -41.5983 -41.5972  -0.8598
    -0.4922  -0.0381   0.0556   0.1215   0.3113   0.4724   0.6167   1.1435
     1.1878   1.4251   1.6036   1.7039   1.7325   2.3145   2.4563   2.6636
     2.8832   3.3076   3.5172   3.7499   4.0719   4.3571   4.3692   4.6883
     4.7215   4.7916   5.4138   7.0469   8.9105  10.4676

          k = 0.1667 0.4170 0.0000 (  4459 PWs)   bands (ev):

   -42.4468 -42.4204 -42.3836 -42.2942 -42.1744 -42.1599 -42.1486 -42.0923
   -42.0535 -41.9302 -41.9299 -41.7160 -41.7155 -41.5894 -41.5892  -0.6626
    -0.5843  -0.3699  -0.1268  -0.0122   0.1624   0.5014   0.8049   1.0406
     1.2110   1.4916   1.8541   2.0666   2.1538   2.4527   2.6750   2.8822
     3.2503   3.4677   3.7772   3.9985   4.3410   4.9253   4.9716   5.1941
     6.3676   6.6113   7.2688   8.7274  10.5982  12.3384

          k = 0.1667 0.5453 0.0000 (  4490 PWs)   bands (ev):

   -42.5020 -42.4587 -42.4426 -42.2602 -42.2086 -42.1887 -42.1866 -42.1063
   -42.0842 -41.9764 -41.9734 -41.7499 -41.7495 -41.5849 -41.5846  -0.9488
    -0.6672  -0.5596  -0.3404  -0.1269   0.1188   0.2805   0.6873   0.8470
     1.4123   1.7294   1.8868   2.1171   2.5571   2.6185   3.2645   3.4156
     3.4957   4.0040   4.2664   4.4323   4.5888   4.8353   4.9641   5.2061
     8.2947   8.8935   9.4382  10.1045  10.5794  12.5977

          k = 0.1667-0.4811 0.0000 (  4476 PWs)   bands (ev):

   -42.4817 -42.4458 -42.4220 -42.2751 -42.1861 -42.1810 -42.1788 -42.1028
   -42.0719 -41.9605 -41.9591 -41.7381 -41.7377 -41.5864 -41.5863  -0.8477
    -0.6348  -0.4933  -0.2655  -0.0685   0.1190   0.3722   0.7091   0.9770
     1.3049   1.7119   1.9147   2.0314   2.3471   2.6906   3.0268   3.1536
     3.3732   3.8844   4.0068   4.0930   4.4523   4.9396   5.0336   5.2904
     7.3610   7.7661   8.4301   9.6689  11.2330  12.8933

          k = 0.1667-0.3528 0.0000 (  4458 PWs)   bands (ev):

   -42.4165 -42.3826 -42.3315 -42.3043 -42.1687 -42.1303 -42.1052 -42.0754
   -42.0341 -41.8879 -41.8872 -41.6864 -41.6859 -41.5939 -41.5933  -0.5858
    -0.4738  -0.2062  -0.0705   0.0574   0.3343   0.4864   0.7971   0.9646
     1.2137   1.4537   1.6278   1.9060   2.0061   2.2297   2.3596   2.7781
     3.1051   3.2464   3.6979   3.9362   4.2055   4.6725   4.7734   4.9660
     5.4702   5.5678   6.2052   7.8075   9.7231  11.3889

          k = 0.1667-0.2245 0.0000 (  4433 PWs)   bands (ev):

   -42.4297 -42.3153 -42.2331 -42.2052 -42.1332 -42.0661 -42.0403 -42.0284
   -41.9892 -41.7788 -41.7777 -41.6231 -41.6228 -41.6037 -41.6019  -1.3352
    -0.7208  -0.2360   0.0441   0.1246   0.3518   0.5644   0.7670   0.9436
     1.3262   1.5219   1.6773   1.8116   1.9492   2.2404   2.5674   2.7225
     2.7527   3.0553   3.2756   3.4147   3.7402   3.7917   4.1486   4.1550
     4.3549   4.7775   4.9589   6.4307   8.1834   9.6026

          k = 0.1667-0.0962 0.0000 (  4427 PWs)   bands (ev):

   -42.4665 -42.2964 -42.1431 -42.1060 -42.0490 -42.0285 -42.0196 -41.9980
   -41.9491 -41.6798 -41.6793 -41.6123 -41.6091 -41.5843 -41.5841  -2.1173
    -1.3123  -0.7393  -0.3648  -0.2808   0.6571   0.9746   1.0108   1.2470
     1.5986   1.7939   1.9607   1.9997   2.0673   2.1840   2.2606   2.3928
     2.5612   2.8074   2.8601   3.1403   3.2306   3.4561   3.6561   4.0607
     4.2168   4.6413   4.9930   5.5113   7.0579   8.1989

          k = 0.2778 0.4811 0.0000 (  4485 PWs)   bands (ev):

   -42.4429 -42.4304 -42.3825 -42.3216 -42.2413 -42.2368 -42.1599 -42.1567
   -42.0844 -41.9387 -41.9373 -41.8096 -41.8088 -41.5837 -41.5835  -0.4455
    -0.4247  -0.1077   0.1466   0.3503   0.4075   0.5103   0.5606   0.9878
     1.2105   1.5530   1.6496   2.1219   2.2159   2.3633   2.4352   2.9351
     3.1422   3.4986   3.6301   4.0188   4.4644   4.8528   4.9735   5.1718
     8.6960   9.1764   9.9906  11.1996  12.6232  13.1305

          k = 0.2778 0.6094 0.0000 (  4491 PWs)   bands (ev):

   -42.4375 -42.4126 -42.3796 -42.3329 -42.2853 -42.2619 -42.1620 -42.1491
   -42.0975 -41.9304 -41.9296 -41.8418 -41.8410 -41.5822 -41.5819  -0.4603
    -0.2307  -0.0050   0.1165   0.2389   0.3982   0.5095   0.6432   0.9535
     1.3289   1.5485   1.6959   2.0713   2.1304   2.4318   2.4698   2.9190
     3.2213   3.5062   3.6523   4.2824   4.4908   4.7104   4.8279   4.9509
     9.9319  10.4804  11.0957  11.6015  12.2523  12.7497

          k = 0.2778-0.4170 0.0000 (  4462 PWs)   bands (ev):

   -42.4508 -42.4282 -42.3923 -42.2996 -42.2030 -42.1940 -42.1653 -42.1343
   -42.0689 -41.9402 -41.9386 -41.7639 -41.7630 -41.5861 -41.5855  -0.5818
    -0.4449  -0.2365   0.0121   0.1892   0.3164   0.5151   0.8543   0.9600
     1.0276   1.5550   1.6983   2.0892   2.2516   2.3451   2.5245   2.8413
     3.1806   3.5010   3.7625   3.8393   4.4029   4.9507   5.0743   5.2815
     7.5012   7.8503   8.5936   9.9140  11.6175  13.2365

          k = 0.2778-0.2887 0.0000 (  4463 PWs)   bands (ev):

   -42.4328 -42.4077 -42.3562 -42.2953 -42.1724 -42.1225 -42.1085 -42.0598
   -42.0304 -41.9103 -41.9085 -41.6738 -41.6737 -41.5934 -41.5926  -0.8023
    -0.7209  -0.5002  -0.3394  -0.0699   0.0915   0.3812   0.8076   1.1434
     1.4791   1.5548   1.8296   2.0835   2.2418   2.6003   2.8041   2.9362
     3.2652   3.4784   3.8063   4.0498   4.3823   4.6035   4.7690   4.9942
     5.3455   5.5132   6.1186   7.7815   9.7622  11.4931

          k = 0.2778-0.1604 0.0000 (  4458 PWs)   bands (ev):

   -42.4219 -42.3528 -42.2763 -42.2705 -42.1531 -42.0775 -42.0515 -42.0405
   -41.9842 -41.8418 -41.8387 -41.6252 -41.6250 -41.6008 -41.5990  -1.1927
    -0.8202  -0.6041  -0.2521  -0.1292   0.2257   0.3832   0.9405   1.2365
     1.5149   1.7512   2.0179   2.0417   2.4573   2.5868   2.6638   2.8227
     3.0689   3.3828   3.4008   3.6940   3.7092   3.8916   4.0751   4.2372
     4.6493   4.9082   5.0463   6.7028   8.6413  10.1959

          k = 0.3889 0.6736 0.0000 (  4511 PWs)   bands (ev):

   -42.4738 -42.4314 -42.4164 -42.2911 -42.2554 -42.2200 -42.1789 -42.1359
   -42.0913 -41.9562 -41.9552 -41.7999 -41.7989 -41.5834 -41.5830  -0.7256
    -0.3659  -0.1965  -0.1370   0.1664   0.2828   0.4022   0.6965   0.9095
     1.2010   1.6557   1.8936   1.9750   2.2552   2.6563   2.8332   2.9561
     3.2834   3.7473   3.9560   4.4430   4.4722   4.7112   4.8993   5.0372
     9.4761   9.9200  10.3315  10.8226  11.2823  12.7596

          k = 0.3889-0.3528 0.0000 (  4485 PWs)   bands (ev):

   -42.5151 -42.4737 -42.4540 -42.2548 -42.2026 -42.1591 -42.1518 -42.0827
   -42.0644 -41.9850 -41.9795 -41.7067 -41.7065 -41.5873 -41.5869  -1.1188
    -0.9239  -0.8019  -0.5971  -0.3060  -0.0806   0.0126   0.6803   1.0567
     1.5031   1.7339   1.9457   2.3101   2.6434   2.9156   3.5147   3.6930
     3.9288   4.1872   4.4845   4.5478   4.6504   4.9543   5.0304   5.3000
     7.0333   7.6707   8.1590   9.1824  10.4192  12.5396

          k = 0.3889-0.2245 0.0000 (  4444 PWs)   bands (ev):

   -42.4912 -42.4602 -42.4244 -42.2743 -42.1928 -42.1191 -42.0921 -42.0773
   -42.0156 -41.9671 -41.9596 -41.6606 -41.6605 -41.5913 -41.5905  -1.1942
    -1.1048  -0.8522  -0.7805  -0.3804  -0.2127  -0.0884   0.7848   1.2875
     1.5313   1.7834   2.2114   2.3982   2.4572   3.3184   3.3830   3.9300
     4.2100   4.3049   4.5705   4.6937   4.7617   4.7784   4.9578   5.0705
     5.1913   5.5100   6.0718   7.9330  10.0155  12.0516

          k =-0.5000-0.8660 0.0000 (  4492 PWs)   bands (ev):

   -42.5475 -42.5036 -42.4862 -42.2381 -42.2247 -42.1363 -42.1153 -42.0918
   -42.0282 -42.0126 -41.9962 -41.6749 -41.6746 -41.5884 -41.5879  -1.4036
    -1.2023  -1.0446  -0.9332  -0.5461  -0.3539  -0.2757   0.6676   1.2062
     1.3725   1.6805   2.3861   2.4887   2.7644   3.3818   3.7774   4.2532
     4.3471   4.8700   5.0074   5.0353   5.1074   5.2576   5.5126   5.5281
     6.0926   7.5210   8.1494   8.5055   8.6903  12.2438

 ------ SPIN DOWN ----------


          k = 0.0556 0.0962 0.0000 (  4451 PWs)   bands (ev):

   -42.4939 -42.2979 -42.0798 -42.0328 -42.0071 -41.9908 -41.9864 -41.9639
   -41.9348 -41.6227 -41.6186 -41.5984 -41.5973 -41.5663 -41.5662  -2.6796
    -1.8128  -1.1559  -0.7896  -0.7497   1.1511   1.1684   1.3225   1.6076
     1.6807   1.7419   1.7832   1.8192   1.9620   2.0362   2.1342   2.3008
     2.3899   2.5444   3.2616   3.3129   3.5975   3.6534   3.7115   3.9273
     4.2559   4.4566   4.9046   4.9261   6.0583   6.9096

          k = 0.0556 0.2245 0.0000 (  4420 PWs)   bands (ev):

   -42.4498 -42.3011 -42.1838 -42.1494 -42.0904 -42.0434 -42.0276 -42.0101
   -41.9639 -41.7248 -41.7242 -41.6096 -41.6072 -41.5994 -41.5990  -1.7851
    -1.0456  -0.5321  -0.1626  -0.0459   0.4707   0.8052   0.8751   1.0620
     1.5377   1.6854   1.8729   1.9269   2.0629   2.2555   2.4486   2.5877
     2.7514   2.8041   2.9831   3.1416   3.3657   3.4473   3.7968   4.0595
     4.3536   4.7004   4.9051   5.9138   7.5513   8.8225

          k = 0.0556 0.3528 0.0000 (  4467 PWs)   bands (ev):

   -42.4224 -42.3840 -42.3174 -42.2902 -42.1662 -42.0947 -42.0729 -42.0480
   -42.0013 -41.8804 -41.8776 -41.6433 -41.6432 -41.5986 -41.5973  -1.0217
    -0.7998  -0.5814  -0.3867  -0.1288   0.1406   0.3034   0.9074   1.2388
     1.5387   1.7499   1.8356   2.0770   2.4037   2.6466   2.8196   2.9720
     3.2264   3.5147   3.7322   3.8188   4.1144   4.3027   4.4410   4.5971
     4.6691   4.9790   5.3226   7.1183   9.1142  10.7678

          k = 0.0556 0.4811 0.0000 (  4463 PWs)   bands (ev):

   -42.5112 -42.4738 -42.4475 -42.2638 -42.2000 -42.1338 -42.1152 -42.0799
   -42.0318 -41.9830 -41.9751 -41.6764 -41.6763 -41.5904 -41.5900  -1.2171
    -1.0772  -0.8910  -0.7672  -0.3921  -0.2087  -0.1190   0.7242   1.2117
     1.4935   1.7481   2.1298   2.4285   2.5860   3.1905   3.5288   3.9438
     4.2034   4.2997   4.5907   4.7452   4.7877   4.9185   5.0701   5.2310
     5.8399   6.4878   6.9198   8.3868  10.2306  12.4242

          k = 0.0556-0.5453 0.0000 (  4486 PWs)   bands (ev):

   -42.5390 -42.4956 -42.4778 -42.2435 -42.2176 -42.1427 -42.1261 -42.0882
   -42.0397 -42.0044 -41.9928 -41.6841 -41.6838 -41.5888 -41.5886  -1.3265
    -1.1302  -0.9855  -0.8461  -0.4784  -0.2672  -0.2202   0.6755   1.1597
     1.4178   1.7043   2.1853   2.5842   2.6483   3.2663   3.7340   4.0885
     4.3145   4.6552   4.7840   4.9307   5.0046   5.1147   5.2282   5.3825
     6.5182   7.5794   8.0629   8.5731   9.4500  12.3311

          k = 0.0556-0.4170 0.0000 (  4465 PWs)   bands (ev):

   -42.4620 -42.4370 -42.3917 -42.2858 -42.1829 -42.1175 -42.0959 -42.0654
   -42.0187 -41.9413 -41.9371 -41.6626 -41.6623 -41.5938 -41.5931  -1.0276
    -0.9988  -0.7178  -0.6272  -0.2536  -0.0835   0.0654   0.8213   1.2653
     1.6369   1.7836   2.0411   2.0606   2.5662   2.8872   3.3281   3.5383
     3.6357   4.0384   4.1216   4.3041   4.5162   4.6506   4.7774   5.0087
     5.1749   5.4037   5.9871   7.7833   9.8541  11.7132

          k = 0.0556-0.2887 0.0000 (  4439 PWs)   bands (ev):

   -42.4263 -42.3278 -42.2524 -42.2320 -42.1386 -42.0679 -42.0490 -42.0298
   -41.9822 -41.8047 -41.8028 -41.6213 -41.6210 -41.6038 -41.6018  -1.2939
    -0.7741  -0.4843  -0.0831  -0.0099   0.3557   0.5352   0.8146   1.0353
     1.4149   1.7582   1.9337   2.0021   2.1737   2.3545   2.4465   2.7959
     2.8956   3.0541   3.2806   3.4645   3.7008   3.8110   4.0514   4.2037
     4.4838   4.8600   4.9865   6.4949   8.3324   9.8014

          k = 0.0556-0.1604 0.0000 (  4443 PWs)   bands (ev):

   -42.4749 -42.2963 -42.1195 -42.0818 -42.0328 -42.0241 -42.0075 -41.9881
   -41.9478 -41.6546 -41.6542 -41.6151 -41.6115 -41.5804 -41.5802  -2.2913
    -1.4564  -0.8407  -0.4637  -0.4305   0.8343   0.9749   1.0988   1.4101
     1.5348   1.7632   1.9348   1.9569   2.0650   2.1022   2.1729   2.2962
     2.5597   2.6848   3.0537   3.1928   3.2617   3.4588   3.7153   3.9254
     4.2963   4.5734   4.8827   5.3770   6.7825   7.8391

          k = 0.0556-0.0321 0.0000 (  4465 PWs)   bands (ev):

   -42.5042 -42.3005 -42.0658 -42.0061 -41.9962 -41.9776 -41.9709 -41.9405
   -41.9276 -41.6255 -41.6194 -41.5702 -41.5699 -41.5590 -41.5586  -2.8865
    -2.0104  -1.3347  -0.9793  -0.9288   1.3091   1.3398   1.4540   1.5953
     1.6696   1.6929   1.6965   1.8100   1.8553   2.1091   2.1421   2.1836
     2.2381   2.8368   3.3887   3.3923   3.6427   3.6689   4.0441   4.0603
     4.2335   4.5382   4.6300   4.9505   5.4901   6.2009

          k = 0.1667 0.2887 0.0000 (  4425 PWs)   bands (ev):

   -42.4125 -42.3429 -42.2814 -42.2695 -42.1580 -42.0967 -42.0644 -42.0535
   -42.0138 -41.8362 -41.8351 -41.6544 -41.6538 -41.5993 -41.5982  -0.8598
    -0.4922  -0.0383   0.0555   0.1214   0.3111   0.4722   0.6164   1.1434
     1.1875   1.4248   1.6032   1.7035   1.7323   2.3143   2.4559   2.6631
     2.8828   3.3073   3.5168   3.7495   4.0715   4.3568   4.3686   4.6878
     4.7211   4.7913   5.4135   7.0466   8.9103  10.4674

          k = 0.1667 0.4170 0.0000 (  4459 PWs)   bands (ev):

   -42.4470 -42.4204 -42.3839 -42.2944 -42.1747 -42.1602 -42.1488 -42.0923
   -42.0535 -41.9309 -41.9306 -41.7168 -41.7163 -41.5904 -41.5903  -0.6627
    -0.5844  -0.3699  -0.1270  -0.0124   0.1621   0.5011   0.8046   1.0404
     1.2107   1.4914   1.8538   2.0662   2.1535   2.4523   2.6747   2.8818
     3.2500   3.4674   3.7766   3.9979   4.3405   4.9250   4.9711   5.1938
     6.3675   6.6110   7.2685   8.7271  10.5980  12.3382

          k = 0.1667 0.5453 0.0000 (  4490 PWs)   bands (ev):

   -42.5022 -42.4587 -42.4430 -42.2604 -42.2088 -42.1890 -42.1869 -42.1064
   -42.0843 -41.9770 -41.9740 -41.7507 -41.7503 -41.5860 -41.5857  -0.9489
    -0.6673  -0.5596  -0.3406  -0.1272   0.1185   0.2803   0.6869   0.8468
     1.4120   1.7290   1.8865   2.1169   2.5568   2.6182   3.2641   3.4152
     3.4953   4.0035   4.2661   4.4318   4.5881   4.8350   4.9638   5.2058
     8.2946   8.8933   9.4380  10.1043  10.5793  12.5975

          k = 0.1667-0.4811 0.0000 (  4476 PWs)   bands (ev):

   -42.4818 -42.4458 -42.4224 -42.2753 -42.1863 -42.1813 -42.1791 -42.1028
   -42.0719 -41.9611 -41.9598 -41.7389 -41.7384 -41.5874 -41.5873  -0.8478
    -0.6349  -0.4934  -0.2657  -0.0688   0.1187   0.3720   0.7088   0.9767
     1.3047   1.7116   1.9143   2.0311   2.3468   2.6903   3.0264   3.1533
     3.3728   3.8839   4.0064   4.0925   4.4517   4.9392   5.0332   5.2901
     7.3609   7.7659   8.4299   9.6687  11.2328  12.8931

          k = 0.1667-0.3528 0.0000 (  4458 PWs)   bands (ev):

   -42.4166 -42.3826 -42.3318 -42.3045 -42.1689 -42.1305 -42.1054 -42.0754
   -42.0342 -41.8886 -41.8879 -41.6872 -41.6867 -41.5949 -41.5943  -0.5859
    -0.4738  -0.2063  -0.0706   0.0572   0.3340   0.4862   0.7969   0.9643
     1.2134   1.4534   1.6275   1.9056   2.0057   2.2294   2.3592   2.7777
     3.1047   3.2461   3.6975   3.9356   4.2051   4.6722   4.7730   4.9657
     5.4700   5.5673   6.2048   7.8072   9.7229  11.3887

          k = 0.1667-0.2245 0.0000 (  4433 PWs)   bands (ev):

   -42.4298 -42.3155 -42.2334 -42.2055 -42.1331 -42.0663 -42.0404 -42.0286
   -41.9892 -41.7795 -41.7784 -41.6238 -41.6236 -41.6047 -41.6029  -1.3352
    -0.7209  -0.2361   0.0440   0.1245   0.3517   0.5641   0.7667   0.9433
     1.3260   1.5215   1.6768   1.8113   1.9490   2.2402   2.5670   2.7220
     2.7523   3.0550   3.2753   3.4143   3.7398   3.7913   4.1482   4.1545
     4.3543   4.7771   4.9585   6.4304   8.1831   9.6024

          k = 0.1667-0.0962 0.0000 (  4427 PWs)   bands (ev):

   -42.4665 -42.2967 -42.1434 -42.1062 -42.0489 -42.0286 -42.0197 -41.9984
   -41.9490 -41.6806 -41.6801 -41.6133 -41.6101 -41.5851 -41.5849  -2.1173
    -1.3123  -0.7393  -0.3650  -0.2810   0.6569   0.9744   1.0107   1.2467
     1.5983   1.7934   1.9604   1.9995   2.0670   2.1839   2.2602   2.3925
     2.5607   2.8070   2.8597   3.1398   3.2302   3.4556   3.6557   4.0603
     4.2164   4.6406   4.9927   5.5110   7.0575   8.1987

          k = 0.2778 0.4811 0.0000 (  4485 PWs)   bands (ev):

   -42.4431 -42.4303 -42.3828 -42.3217 -42.2416 -42.2372 -42.1602 -42.1567
   -42.0844 -41.9394 -41.9380 -41.8103 -41.8095 -41.5847 -41.5845  -0.4455
    -0.4249  -0.1079   0.1464   0.3502   0.4073   0.5100   0.5603   0.9876
     1.2102   1.5527   1.6493   2.1214   2.2154   2.3628   2.4347   2.9348
     3.1420   3.4983   3.6296   4.0184   4.4637   4.8524   4.9732   5.1716
     8.6959   9.1761   9.9904  11.1994  12.6231  13.1305

          k = 0.2778 0.6094 0.0000 (  4491 PWs)   bands (ev):

   -42.4377 -42.4127 -42.3798 -42.3330 -42.2856 -42.2622 -42.1622 -42.1493
   -42.0974 -41.9311 -41.9303 -41.8426 -41.8417 -41.5832 -41.5830  -0.4604
    -0.2308  -0.0052   0.1164   0.2387   0.3979   0.5092   0.6430   0.9532
     1.3286   1.5482   1.6957   2.0708   2.1299   2.4313   2.4694   2.9188
     3.2211   3.5058   3.6518   4.2818   4.4899   4.7101   4.8276   4.9507
     9.9318  10.4802  11.0956  11.6014  12.2521  12.7497

          k = 0.2778-0.4170 0.0000 (  4462 PWs)   bands (ev):

   -42.4510 -42.4282 -42.3926 -42.2997 -42.2033 -42.1943 -42.1655 -42.1342
   -42.0689 -41.9409 -41.9393 -41.7647 -41.7637 -41.5871 -41.5866  -0.5819
    -0.4450  -0.2366   0.0119   0.1890   0.3162   0.5149   0.8541   0.9597
     1.0274   1.5548   1.6980   2.0887   2.2512   2.3447   2.5241   2.8410
     3.1804   3.5006   3.7619   3.8388   4.4022   4.9503   5.0739   5.2813
     7.5011   7.8500   8.5933   9.9138  11.6173  13.2364

          k = 0.2778-0.2887 0.0000 (  4463 PWs)   bands (ev):

   -42.4329 -42.4076 -42.3566 -42.2956 -42.1726 -42.1227 -42.1087 -42.0599
   -42.0304 -41.9110 -41.9092 -41.6746 -41.6744 -41.5944 -41.5937  -0.8024
    -0.7210  -0.5003  -0.3396  -0.0702   0.0912   0.3809   0.8073   1.1431
     1.4789   1.5545   1.8294   2.0831   2.2414   2.5999   2.8038   2.9358
     3.2649   3.4782   3.8058   4.0492   4.3819   4.6032   4.7686   4.9939
     5.3452   5.5128   6.1183   7.7813   9.7619  11.4929

          k = 0.2778-0.1604 0.0000 (  4458 PWs)   bands (ev):

   -42.4219 -42.3529 -42.2766 -42.2708 -42.1532 -42.0776 -42.0515 -42.0409
   -41.9842 -41.8425 -41.8394 -41.6259 -41.6257 -41.6018 -41.6000  -1.1927
    -0.8203  -0.6042  -0.2522  -0.1295   0.2255   0.3829   0.9403   1.2362
     1.5146   1.7509   2.0178   2.0414   2.4569   2.5864   2.6634   2.8224
     3.0686   3.3825   3.4005   3.6938   3.7088   3.8911   4.0745   4.2368
     4.6487   4.9078   5.0459   6.7025   8.6410  10.1957

          k = 0.3889 0.6736 0.0000 (  4511 PWs)   bands (ev):

   -42.4739 -42.4314 -42.4167 -42.2912 -42.2557 -42.2203 -42.1792 -42.1360
   -42.0913 -41.9569 -41.9559 -41.8007 -41.7997 -41.5844 -41.5841  -0.7257
    -0.3660  -0.1965  -0.1372   0.1662   0.2825   0.4020   0.6963   0.9092
     1.2007   1.6553   1.8934   1.9745   2.2549   2.6561   2.8327   2.9557
     3.2831   3.7469   3.9557   4.4423   4.4715   4.7109   4.8989   5.0370
     9.4760   9.9198  10.3313  10.8225  11.2821  12.7595

          k = 0.3889-0.3528 0.0000 (  4485 PWs)   bands (ev):

   -42.5152 -42.4737 -42.4544 -42.2551 -42.2028 -42.1593 -42.1521 -42.0828
   -42.0644 -41.9856 -41.9801 -41.7075 -41.7073 -41.5884 -41.5879  -1.1189
    -0.9240  -0.8019  -0.5973  -0.3063  -0.0809   0.0123   0.6800   1.0564
     1.5030   1.7335   1.9453   2.3099   2.6430   2.9152   3.5143   3.6926
     3.9285   4.1866   4.4841   4.5476   4.6498   4.9540   5.0300   5.2997
     7.0331   7.6705   8.1588   9.1822  10.4191  12.5393

          k = 0.3889-0.2245 0.0000 (  4444 PWs)   bands (ev):

   -42.4913 -42.4602 -42.4247 -42.2745 -42.1931 -42.1192 -42.0922 -42.0776
   -42.0156 -41.9677 -41.9602 -41.6613 -41.6612 -41.5923 -41.5916  -1.1943
    -1.1049  -0.8522  -0.7807  -0.3807  -0.2129  -0.0888   0.7845   1.2871
     1.5310   1.7833   2.2110   2.3979   2.4568   3.3179   3.3826   3.9296
     4.2095   4.3046   4.5704   4.6934   4.7615   4.7779   4.9574   5.0698
     5.1908   5.5099   6.0716   7.9328  10.0153  12.0514

          k =-0.5000-0.8660 0.0000 (  4492 PWs)   bands (ev):

   -42.5476 -42.5035 -42.4865 -42.2385 -42.2249 -42.1364 -42.1154 -42.0921
   -42.0282 -42.0133 -41.9968 -41.6757 -41.6754 -41.5894 -41.5889  -1.4037
    -1.2024  -1.0447  -0.9334  -0.5464  -0.3542  -0.2761   0.6673   1.2057
     1.3723   1.6803   2.3856   2.4884   2.7641   3.3814   3.7767   4.2529
     4.3464   4.8697   5.0069   5.0352   5.1071   5.2575   5.5119   5.5275
     6.0924   7.5209   8.1493   8.5054   8.6902  12.2432

     the Fermi energy is     4.4701 ev

!    total energy              =    -855.84609967 Ry
     estimated scf accuracy    <       0.00000038 Ry
     smearing contrib. (-TS)   =      -0.02243059 Ry
     internal energy E=F+TS    =    -855.82366908 Ry

     The total energy is F=E-TS. E is the sum of the following terms:
     one-electron contribution =  -11776.11606874 Ry
     hartree contribution      =    5910.25617725 Ry
     xc contribution           =    -149.48320664 Ry
     ewald contribution        =    5159.51942905 Ry

     total magnetization       =    -0.00 Bohr mag/cell
     absolute magnetization    =     0.00 Bohr mag/cell

     convergence has been achieved in   9 iterations

     negative rho (up, down):  1.441E-01 1.441E-01

     Forces acting on atoms (cartesian axes, Ry/au):

     atom    1 type  1   force =     0.00000000    0.00000000    0.00900670
     atom    2 type  1   force =     0.00000000    0.00000000   -0.00503465
     atom    3 type  1   force =     0.00000000    0.00000000   -0.00000307
     atom    4 type  1   force =     0.00000000    0.00000000    0.00502499
     atom    5 type  1   force =     0.00000000    0.00000000   -0.00899397

     Total force =     0.014581     Total SCF correction =     0.003946
     SCF correction compared to forces is large: reduce conv_thr to get better values
     Energy error            =      3.7E-04
     Gradient error          =      9.0E-03

     number of scf cycles    =   2
     number of bfgs steps    =   1

     energy   old            =    -855.8457272439 Ry
     energy   new            =    -855.8460996726 Ry

     CASE: energy  _new < energy  _old

     new trust radius        =       0.0129352837 bohr
     new conv_thr            =       0.0000003724 Ry


ATOMIC_POSITIONS (angstrom)
Rh            0.0000000000        0.0000000000        0.0130678368
Rh            2.7108568000        1.5651139000        2.2048376139
Rh            1.3554284000        0.7825569000        4.4268027028
Rh            0.0000000000        0.0000000000        6.6487758241
Rh            2.7108568000        1.5651139000        8.8405690224



     Writing output data file /home/STUDENTI/leonardo.razzai/WORK/relax_surf/5-L.save/
     NEW-OLD atomic charge density approx. for the potential

     negative rho (up, down):  1.444E-01 1.444E-01
     Generating pointlists ...

     total cpu time spent up to now is      260.5 secs

     Self-consistent Calculation

     iteration #  1     ecut=    35.00 Ry     beta= 0.40
     Davidson diagonalization with overlap
     ethr =  1.00E-06,  avg # of iterations =  6.0

     negative rho (up, down):  1.444E-01 1.444E-01

     total cpu time spent up to now is      278.6 secs

     total energy              =    -855.84631501 Ry
     estimated scf accuracy    <       0.00191812 Ry

     total magnetization       =    -0.00 Bohr mag/cell
     absolute magnetization    =     0.00 Bohr mag/cell

     iteration #  2     ecut=    35.00 Ry     beta= 0.40
     Davidson diagonalization with overlap
     ethr =  2.56E-06,  avg # of iterations =  1.0

     negative rho (up, down):  1.444E-01 1.444E-01

     total cpu time spent up to now is      287.3 secs

     total energy              =    -855.84634564 Ry
     estimated scf accuracy    <       0.00114357 Ry

     total magnetization       =    -0.00 Bohr mag/cell
     absolute magnetization    =     0.00 Bohr mag/cell

     iteration #  3     ecut=    35.00 Ry     beta= 0.40
     Davidson diagonalization with overlap
     ethr =  1.52E-06,  avg # of iterations =  1.0

     negative rho (up, down):  1.444E-01 1.444E-01

     total cpu time spent up to now is      296.0 secs

     total energy              =    -855.84634802 Ry
     estimated scf accuracy    <       0.00015521 Ry

     total magnetization       =    -0.00 Bohr mag/cell
     absolute magnetization    =     0.00 Bohr mag/cell

     iteration #  4     ecut=    35.00 Ry     beta= 0.40
     Davidson diagonalization with overlap
     ethr =  2.07E-07,  avg # of iterations =  1.0

     negative rho (up, down):  1.444E-01 1.444E-01

     total cpu time spent up to now is      304.8 secs

     total energy              =    -855.84634349 Ry
     estimated scf accuracy    <       0.00005337 Ry

     total magnetization       =    -0.00 Bohr mag/cell
     absolute magnetization    =     0.00 Bohr mag/cell

     iteration #  5     ecut=    35.00 Ry     beta= 0.40
     Davidson diagonalization with overlap
     ethr =  7.12E-08,  avg # of iterations =  1.0

     negative rho (up, down):  1.444E-01 1.444E-01

     total cpu time spent up to now is      313.7 secs

     total energy              =    -855.84634555 Ry
     estimated scf accuracy    <       0.00000406 Ry

     total magnetization       =    -0.00 Bohr mag/cell
     absolute magnetization    =     0.00 Bohr mag/cell

     iteration #  6     ecut=    35.00 Ry     beta= 0.40
     Davidson diagonalization with overlap
     ethr =  5.42E-09,  avg # of iterations =  1.6

     negative rho (up, down):  1.444E-01 1.444E-01

     total cpu time spent up to now is      322.9 secs

     total energy              =    -855.84634538 Ry
     estimated scf accuracy    <       0.00000182 Ry

     total magnetization       =    -0.00 Bohr mag/cell
     absolute magnetization    =     0.00 Bohr mag/cell

     iteration #  7     ecut=    35.00 Ry     beta= 0.40
     Davidson diagonalization with overlap
     ethr =  2.42E-09,  avg # of iterations =  1.2

     negative rho (up, down):  1.444E-01 1.444E-01

     total cpu time spent up to now is      331.6 secs

     total energy              =    -855.84634537 Ry
     estimated scf accuracy    <       0.00000119 Ry

     total magnetization       =    -0.00 Bohr mag/cell
     absolute magnetization    =     0.00 Bohr mag/cell

     iteration #  8     ecut=    35.00 Ry     beta= 0.40
     Davidson diagonalization with overlap
     ethr =  1.58E-09,  avg # of iterations =  1.2

     negative rho (up, down):  1.444E-01 1.444E-01

     total cpu time spent up to now is      340.6 secs

     total energy              =    -855.84634546 Ry
     estimated scf accuracy    <       0.00000089 Ry

     total magnetization       =    -0.00 Bohr mag/cell
     absolute magnetization    =     0.00 Bohr mag/cell

     iteration #  9     ecut=    35.00 Ry     beta= 0.40
     Davidson diagonalization with overlap
     ethr =  1.18E-09,  avg # of iterations =  1.4

     negative rho (up, down):  1.444E-01 1.444E-01
 
     Magnetic moment per site:
     atom:    1    charge:   13.1816    magn:   -0.0000    constr:    0.0000
     atom:    2    charge:   13.2416    magn:   -0.0000    constr:    0.0000
     atom:    3    charge:   13.2422    magn:    0.0000    constr:    0.0000
     atom:    4    charge:   13.2417    magn:   -0.0000    constr:    0.0000
     atom:    5    charge:   13.1814    magn:   -0.0000    constr:    0.0000

     total cpu time spent up to now is      349.3 secs

     End of self-consistent calculation

 ------ SPIN UP ------------


          k = 0.0556 0.0962 0.0000 (  4451 PWs)   bands (ev):

   -42.4889 -42.3052 -42.0800 -42.0312 -42.0049 -41.9913 -41.9862 -41.9599
   -41.9290 -41.6311 -41.6267 -41.6052 -41.6040 -41.5732 -41.5732  -2.6785
    -1.8244  -1.1501  -0.8024  -0.7647   1.1433   1.1757   1.3276   1.5973
     1.6720   1.7432   1.7865   1.8275   1.9533   2.0314   2.1272   2.2847
     2.3789   2.5431   3.2645   3.3124   3.5923   3.6540   3.7035   3.9307
     4.2539   4.4557   4.9096   4.9272   6.0677   6.9181

          k = 0.0556 0.2245 0.0000 (  4420 PWs)   bands (ev):

   -42.4445 -42.3052 -42.1862 -42.1513 -42.0848 -42.0411 -42.0258 -42.0116
   -41.9585 -41.7315 -41.7309 -41.6181 -41.6155 -41.6063 -41.6059  -1.7839
    -1.0560  -0.5301  -0.1759  -0.0566   0.4682   0.7929   0.8816   1.0453
     1.5304   1.6856   1.8686   1.9287   2.0644   2.2540   2.4493   2.5740
     2.7397   2.8023   2.9823   3.1320   3.3653   3.4486   3.7965   4.0593
     4.3553   4.7082   4.9096   5.9172   7.5622   8.8313

          k = 0.0556 0.3528 0.0000 (  4467 PWs)   bands (ev):

   -42.4171 -42.3799 -42.3196 -42.2945 -42.1679 -42.0918 -42.0727 -42.0475
   -41.9964 -41.8861 -41.8830 -41.6501 -41.6501 -41.6080 -41.6064  -1.0202
    -0.7982  -0.5904  -0.3893  -0.1452   0.1262   0.2934   0.8970   1.2379
     1.5377   1.7473   1.8373   2.0748   2.3935   2.6317   2.8115   2.9673
     3.2197   3.5191   3.7379   3.8148   4.1138   4.2974   4.4423   4.6019
     4.6721   4.9852   5.3278   7.1276   9.1235  10.7760

          k = 0.0556 0.4811 0.0000 (  4463 PWs)   bands (ev):

   -42.5087 -42.4680 -42.4493 -42.2675 -42.2046 -42.1308 -42.1144 -42.0794
   -42.0275 -41.9868 -41.9785 -41.6831 -41.6830 -41.6005 -41.6000  -1.2161
    -1.0757  -0.8883  -0.7816  -0.4090  -0.2230  -0.1339   0.7158   1.2135
     1.4971   1.7469   2.1181   2.4284   2.5735   3.1803   3.5213   3.9428
     4.2030   4.3038   4.5944   4.7446   4.7920   4.9228   5.0679   5.2326
     5.8402   6.4868   6.9225   8.3973  10.2360  12.4283

          k = 0.0556-0.5453 0.0000 (  4486 PWs)   bands (ev):

   -42.5366 -42.4892 -42.4802 -42.2500 -42.2206 -42.1398 -42.1244 -42.0875
   -42.0359 -42.0074 -41.9956 -41.6909 -41.6905 -41.5990 -41.5988  -1.3255
    -1.1296  -0.9819  -0.8610  -0.4948  -0.2790  -0.2386   0.6657   1.1639
     1.4210   1.7033   2.1693   2.5707   2.6533   3.2564   3.7296   4.0874
     4.3197   4.6565   4.7887   4.9336   5.0039   5.1171   5.2265   5.3815
     6.5185   7.5778   8.0657   8.5829   9.4546  12.3231

          k = 0.0556-0.4170 0.0000 (  4465 PWs)   bands (ev):

   -42.4592 -42.4311 -42.3935 -42.2887 -42.1869 -42.1146 -42.0957 -42.0648
   -42.0140 -41.9462 -41.9413 -41.6694 -41.6691 -41.6035 -41.6026  -1.0292
    -0.9936  -0.7189  -0.6382  -0.2710  -0.0984   0.0532   0.8142   1.2632
     1.6404   1.7812   2.0397   2.0590   2.5460   2.8784   3.3191   3.5315
     3.6344   4.0414   4.1286   4.3050   4.5124   4.6607   4.7749   5.0117
     5.1768   5.4032   5.9905   7.7941   9.8617  11.7207

          k = 0.0556-0.2887 0.0000 (  4439 PWs)   bands (ev):

   -42.4206 -42.3272 -42.2568 -42.2343 -42.1362 -42.0654 -42.0480 -42.0302
   -41.9771 -41.8110 -41.8089 -41.6281 -41.6278 -41.6127 -41.6105  -1.2924
    -0.7808  -0.4872  -0.0887  -0.0223   0.3515   0.5205   0.8040   1.0308
     1.4126   1.7584   1.9306   1.9990   2.1701   2.3466   2.4444   2.7804
     2.8929   3.0577   3.2737   3.4675   3.6987   3.8032   4.0521   4.2052
     4.4900   4.8694   4.9899   6.5014   8.3428   9.8100

          k = 0.0556-0.1604 0.0000 (  4443 PWs)   bands (ev):

   -42.4698 -42.3026 -42.1209 -42.0818 -42.0278 -42.0221 -42.0064 -41.9887
   -41.9421 -41.6617 -41.6613 -41.6233 -41.6194 -41.5873 -41.5871  -2.2902
    -1.4677  -0.8357  -0.4772  -0.4445   0.8293   0.9757   1.1046   1.3936
     1.5221   1.7697   1.9327   1.9567   2.0676   2.0998   2.1732   2.2899
     2.5418   2.6750   3.0505   3.1943   3.2587   3.4626   3.7108   3.9254
     4.2949   4.5774   4.8878   5.3781   6.7931   7.8479

          k = 0.0556-0.0321 0.0000 (  4465 PWs)   bands (ev):

   -42.4993 -42.3082 -42.0653 -42.0038 -41.9936 -41.9791 -41.9728 -41.9346
   -41.9219 -41.6338 -41.6272 -41.5771 -41.5768 -41.5660 -41.5656  -2.8854
    -2.0220  -1.3286  -0.9921  -0.9436   1.3055   1.3460   1.4583   1.5954
     1.6632   1.6974   1.6987   1.8013   1.8594   2.0995   2.1317   2.1668
     2.2267   2.8338   3.3917   3.3957   3.6379   3.6624   4.0343   4.0597
     4.2340   4.5388   4.6343   4.9551   5.4981   6.2091

          k = 0.1667 0.2887 0.0000 (  4425 PWs)   bands (ev):

   -42.4065 -42.3405 -42.2853 -42.2716 -42.1582 -42.0967 -42.0663 -42.0480
   -42.0095 -41.8421 -41.8409 -41.6613 -41.6607 -41.6083 -41.6072  -0.8579
    -0.4969  -0.0501   0.0584   0.1272   0.2953   0.4514   0.6046   1.1392
     1.1790   1.4197   1.5912   1.6921   1.7380   2.3167   2.4524   2.6603
     2.8807   3.3039   3.5181   3.7440   4.0732   4.3548   4.3743   4.6858
     4.7244   4.7942   5.4186   7.0556   8.9196  10.4756

          k = 0.1667 0.4170 0.0000 (  4459 PWs)   bands (ev):

   -42.4443 -42.4135 -42.3865 -42.2957 -42.1791 -42.1619 -42.1483 -42.0866
   -42.0506 -41.9357 -41.9352 -41.7234 -41.7229 -41.6002 -41.6000  -0.6608
    -0.5826  -0.3704  -0.1411  -0.0258   0.1448   0.4898   0.7972   1.0281
     1.2064   1.4975   1.8430   2.0611   2.1511   2.4423   2.6707   2.8716
     3.2520   3.4673   3.7862   4.0038   4.3456   4.9291   4.9713   5.1973
     6.3695   6.6085   7.2694   8.7361  10.6049  12.3453

          k = 0.1667 0.5453 0.0000 (  4490 PWs)   bands (ev):

   -42.4996 -42.4522 -42.4455 -42.2623 -42.2064 -42.1941 -42.1896 -42.1023
   -42.0800 -41.9810 -41.9781 -41.7572 -41.7568 -41.5962 -41.5959  -0.9476
    -0.6665  -0.5568  -0.3593  -0.1411   0.0987   0.2685   0.6761   0.8504
     1.4016   1.7199   1.8849   2.1252   2.5478   2.6069   3.2563   3.4109
     3.4954   4.0079   4.2709   4.4372   4.5954   4.8384   4.9670   5.2103
     8.2958   8.8920   9.4387  10.1108  10.5827  12.5964

          k = 0.1667-0.4811 0.0000 (  4476 PWs)   bands (ev):

   -42.4793 -42.4390 -42.4250 -42.2764 -42.1877 -42.1850 -42.1799 -42.0977
   -42.0686 -41.9653 -41.9641 -41.7455 -41.7450 -41.5974 -41.5974  -0.8463
    -0.6336  -0.4919  -0.2829  -0.0825   0.0998   0.3602   0.7006   0.9759
     1.2937   1.7109   1.9093   2.0330   2.3389   2.6794   3.0176   3.1472
     3.3735   3.8883   4.0138   4.0992   4.4571   4.9435   5.0355   5.2940
     7.3625   7.7640   8.4309   9.6761  11.2376  12.8967

          k = 0.1667-0.3528 0.0000 (  4458 PWs)   bands (ev):

   -42.4118 -42.3773 -42.3341 -42.3075 -42.1718 -42.1315 -42.1062 -42.0694
   -42.0309 -41.8940 -41.8931 -41.6940 -41.6934 -41.6043 -41.6037  -0.5834
    -0.4726  -0.2111  -0.0769   0.0454   0.3162   0.4777   0.7823   0.9576
     1.2116   1.4504   1.6199   1.8933   2.0004   2.2296   2.3570   2.7747
     3.1039   3.2424   3.7034   3.9371   4.2102   4.6728   4.7754   4.9682
     5.4727   5.5647   6.2068   7.8171   9.7311  11.3964

          k = 0.1667-0.2245 0.0000 (  4433 PWs)   bands (ev):

   -42.4241 -42.3167 -42.2367 -42.2078 -42.1296 -42.0651 -42.0395 -42.0280
   -41.9838 -41.7859 -41.7847 -41.6308 -41.6306 -41.6134 -41.6115  -1.3337
    -0.7297  -0.2361   0.0381   0.1146   0.3478   0.5473   0.7625   0.9329
     1.3203   1.5168   1.6717   1.8061   1.9491   2.2412   2.5627   2.7202
     2.7437   3.0602   3.2687   3.4084   3.7355   3.7853   4.1520   4.1566
     4.3593   4.7812   4.9648   6.4370   8.1935   9.6110

          k = 0.1667-0.0962 0.0000 (  4427 PWs)   bands (ev):

   -42.4614 -42.3024 -42.1450 -42.1073 -42.0427 -42.0257 -42.0184 -42.0002
   -41.9437 -41.6875 -41.6870 -41.6215 -41.6182 -41.5919 -41.5918  -2.1161
    -1.3234  -0.7355  -0.3791  -0.2932   0.6547   0.9684   1.0166   1.2287
     1.5895   1.7987   1.9585   2.0008   2.0671   2.1867   2.2617   2.3833
     2.5397   2.7968   2.8558   3.1374   3.2306   3.4634   3.6510   4.0557
     4.2178   4.6481   4.9981   5.5112   7.0685   8.2075

          k = 0.2778 0.4811 0.0000 (  4485 PWs)   bands (ev):

   -42.4415 -42.4242 -42.3839 -42.3184 -42.2444 -42.2399 -42.1651 -42.1523
   -42.0793 -41.9445 -41.9429 -41.8165 -41.8156 -41.5949 -41.5947  -0.4387
    -0.4282  -0.1186   0.1400   0.3375   0.3970   0.4910   0.5521   0.9750
     1.2021   1.5412   1.6523   2.1174   2.2104   2.3534   2.4260   2.9337
     3.1434   3.5038   3.6416   4.0260   4.4683   4.8570   4.9784   5.1754
     8.6977   9.1744   9.9917  11.2046  12.6270  13.1306

          k = 0.2778 0.6094 0.0000 (  4491 PWs)   bands (ev):

   -42.4349 -42.4078 -42.3796 -42.3307 -42.2869 -42.2642 -42.1656 -42.1505
   -42.0906 -41.9364 -41.9357 -41.8483 -41.8474 -41.5935 -41.5933  -0.4585
    -0.2298  -0.0141   0.1148   0.2298   0.3764   0.4911   0.6337   0.9393
     1.3207   1.5389   1.6980   2.0640   2.1250   2.4223   2.4622   2.9163
     3.2232   3.5152   3.6641   4.2886   4.4957   4.7143   4.8322   4.9547
     9.9334  10.4795  11.0960  11.6047  12.2534  12.7516

          k = 0.2778-0.4170 0.0000 (  4462 PWs)   bands (ev):

   -42.4489 -42.4214 -42.3948 -42.2986 -42.2069 -42.1972 -42.1684 -42.1277
   -42.0652 -41.9457 -41.9440 -41.7712 -41.7701 -41.5971 -41.5966  -0.5800
    -0.4425  -0.2426  -0.0007   0.1770   0.3005   0.5015   0.8516   0.9459
     1.0180   1.5592   1.6853   2.0848   2.2491   2.3340   2.5179   2.8364
     3.1823   3.5016   3.7715   3.8482   4.4070   4.9548   5.0771   5.2851
     7.5031   7.8476   8.5943   9.9208  11.6232  13.2427

          k = 0.2778-0.2887 0.0000 (  4463 PWs)   bands (ev):

   -42.4292 -42.4020 -42.3586 -42.2985 -42.1760 -42.1212 -42.1090 -42.0573
   -42.0261 -41.9162 -41.9140 -41.6814 -41.6812 -41.6040 -41.6031  -0.8011
    -0.7186  -0.5013  -0.3506  -0.0870   0.0748   0.3716   0.7995   1.1342
     1.4819   1.5520   1.8284   2.0779   2.2320   2.5892   2.7991   2.9248
     3.2634   3.4816   3.8123   4.0503   4.3853   4.6057   4.7695   4.9973
     5.3466   5.5117   6.1207   7.7914   9.7700  11.5006

          k = 0.2778-0.1604 0.0000 (  4458 PWs)   bands (ev):

   -42.4162 -42.3501 -42.2812 -42.2736 -42.1527 -42.0745 -42.0491 -42.0428
   -41.9792 -41.8486 -41.8452 -41.6328 -41.6326 -41.6109 -41.6090  -1.1911
    -0.8224  -0.6114  -0.2538  -0.1451   0.2164   0.3693   0.9270   1.2400
     1.5099   1.7515   2.0191   2.0412   2.4521   2.5640   2.6554   2.8203
     3.0605   3.3757   3.4050   3.6917   3.7177   3.8820   4.0726   4.2378
     4.6593   4.9127   5.0521   6.7099   8.6512  10.2042

          k = 0.3889 0.6736 0.0000 (  4511 PWs)   bands (ev):

   -42.4711 -42.4250 -42.4190 -42.2896 -42.2559 -42.2240 -42.1827 -42.1345
   -42.0855 -41.9615 -41.9606 -41.8069 -41.8058 -41.5946 -41.5943  -0.7243
    -0.3641  -0.1943  -0.1551   0.1530   0.2660   0.3850   0.6928   0.8991
     1.1885   1.6490   1.8944   1.9706   2.2524   2.6485   2.8237   2.9496
     3.2867   3.7534   3.9623   4.4508   4.4770   4.7148   4.9025   5.0417
     9.4776   9.9200  10.3292  10.8276  11.2857  12.7599

          k = 0.3889-0.3528 0.0000 (  4485 PWs)   bands (ev):

   -42.5127 -42.4674 -42.4567 -42.2591 -42.2059 -42.1578 -42.1528 -42.0799
   -42.0605 -41.9892 -41.9836 -41.7142 -41.7139 -41.5985 -41.5980  -1.1176
    -0.9238  -0.7983  -0.6131  -0.3226  -0.0996   0.0009   0.6706   1.0599
     1.5019   1.7281   1.9363   2.3154   2.6284   2.9063   3.5092   3.6878
     3.9274   4.1919   4.4893   4.5486   4.6557   4.9573   5.0313   5.3029
     7.0339   7.6689   8.1606   9.1904  10.4233  12.5399

          k = 0.3889-0.2245 0.0000 (  4444 PWs)   bands (ev):

   -42.4888 -42.4545 -42.4263 -42.2776 -42.1977 -42.1160 -42.0893 -42.0796
   -42.0108 -41.9722 -41.9639 -41.6681 -41.6680 -41.6022 -41.6014  -1.1939
    -1.1020  -0.8517  -0.7932  -0.3979  -0.2257  -0.1043   0.7767   1.2878
     1.5346   1.7842   2.2061   2.4026   2.4313   3.3102   3.3706   3.9309
     4.2119   4.3009   4.5702   4.6999   4.7615   4.7835   4.9563   5.0656
     5.1934   5.5100   6.0764   7.9443  10.0220  12.0580

          k =-0.5000-0.8660 0.0000 (  4492 PWs)   bands (ev):

   -42.5452 -42.4968 -42.4892 -42.2469 -42.2268 -42.1331 -42.1106 -42.0942
   -42.0235 -42.0172 -41.9995 -41.6824 -41.6821 -41.5996 -41.5991  -1.4027
    -1.2015  -1.0412  -0.9479  -0.5626  -0.3650  -0.2957   0.6578   1.2093
     1.3761   1.6811   2.3596   2.4829   2.7707   3.3701   3.7732   4.2510
     4.3549   4.8737   5.0104   5.0403   5.1047   5.2591   5.5059   5.5231
     6.0926   7.5200   8.1569   8.5077   8.6994  12.2384

 ------ SPIN DOWN ----------


          k = 0.0556 0.0962 0.0000 (  4451 PWs)   bands (ev):

   -42.4889 -42.3053 -42.0800 -42.0312 -42.0049 -41.9913 -41.9862 -41.9599
   -41.9290 -41.6311 -41.6267 -41.6052 -41.6040 -41.5732 -41.5732  -2.6785
    -1.8244  -1.1501  -0.8024  -0.7647   1.1433   1.1757   1.3276   1.5973
     1.6720   1.7432   1.7865   1.8275   1.9533   2.0314   2.1272   2.2847
     2.3789   2.5431   3.2645   3.3124   3.5923   3.6539   3.7034   3.9307
     4.2538   4.4557   4.9096   4.9272   6.0677   6.9181

          k = 0.0556 0.2245 0.0000 (  4420 PWs)   bands (ev):

   -42.4445 -42.3052 -42.1862 -42.1513 -42.0848 -42.0411 -42.0258 -42.0116
   -41.9585 -41.7315 -41.7309 -41.6182 -41.6156 -41.6063 -41.6059  -1.7839
    -1.0560  -0.5301  -0.1759  -0.0566   0.4682   0.7929   0.8816   1.0452
     1.5304   1.6856   1.8686   1.9287   2.0644   2.2540   2.4493   2.5740
     2.7397   2.8023   2.9823   3.1320   3.3653   3.4486   3.7965   4.0593
     4.3553   4.7082   4.9096   5.9171   7.5622   8.8313

          k = 0.0556 0.3528 0.0000 (  4467 PWs)   bands (ev):

   -42.4171 -42.3799 -42.3196 -42.2945 -42.1679 -42.0918 -42.0727 -42.0475
   -41.9964 -41.8861 -41.8830 -41.6501 -41.6501 -41.6080 -41.6065  -1.0202
    -0.7982  -0.5904  -0.3893  -0.1452   0.1262   0.2934   0.8970   1.2379
     1.5377   1.7473   1.8373   2.0748   2.3934   2.6316   2.8115   2.9673
     3.2197   3.5191   3.7379   3.8148   4.1138   4.2974   4.4423   4.6019
     4.6721   4.9852   5.3278   7.1275   9.1235  10.7760

          k = 0.0556 0.4811 0.0000 (  4463 PWs)   bands (ev):

   -42.5087 -42.4680 -42.4493 -42.2675 -42.2046 -42.1308 -42.1144 -42.0794
   -42.0275 -41.9868 -41.9785 -41.6831 -41.6831 -41.6005 -41.6000  -1.2161
    -1.0757  -0.8883  -0.7816  -0.4090  -0.2230  -0.1339   0.7157   1.2135
     1.4971   1.7469   2.1181   2.4284   2.5735   3.1803   3.5213   3.9428
     4.2030   4.3038   4.5944   4.7445   4.7920   4.9227   5.0678   5.2325
     5.8402   6.4868   6.9225   8.3973  10.2360  12.4283

          k = 0.0556-0.5453 0.0000 (  4486 PWs)   bands (ev):

   -42.5366 -42.4892 -42.4803 -42.2500 -42.2206 -42.1398 -42.1245 -42.0875
   -42.0359 -42.0074 -41.9957 -41.6909 -41.6905 -41.5990 -41.5988  -1.3255
    -1.1296  -0.9819  -0.8610  -0.4948  -0.2790  -0.2386   0.6657   1.1639
     1.4210   1.7033   2.1693   2.5707   2.6533   3.2564   3.7296   4.0873
     4.3197   4.6565   4.7887   4.9336   5.0039   5.1171   5.2265   5.3815
     6.5185   7.5778   8.0657   8.5829   9.4546  12.3276

          k = 0.0556-0.4170 0.0000 (  4465 PWs)   bands (ev):

   -42.4592 -42.4311 -42.3935 -42.2887 -42.1869 -42.1146 -42.0957 -42.0648
   -42.0140 -41.9462 -41.9414 -41.6694 -41.6691 -41.6036 -41.6027  -1.0292
    -0.9936  -0.7189  -0.6382  -0.2711  -0.0984   0.0532   0.8142   1.2632
     1.6404   1.7811   2.0397   2.0590   2.5460   2.8784   3.3191   3.5314
     3.6344   4.0413   4.1286   4.3050   4.5124   4.6606   4.7749   5.0117
     5.1767   5.4032   5.9905   7.7941   9.8617  11.7207

          k = 0.0556-0.2887 0.0000 (  4439 PWs)   bands (ev):

   -42.4206 -42.3272 -42.2568 -42.2343 -42.1362 -42.0654 -42.0480 -42.0302
   -41.9771 -41.8111 -41.8090 -41.6282 -41.6279 -41.6127 -41.6106  -1.2924
    -0.7808  -0.4872  -0.0887  -0.0223   0.3514   0.5205   0.8040   1.0308
     1.4126   1.7584   1.9306   1.9990   2.1701   2.3466   2.4444   2.7804
     2.8929   3.0577   3.2737   3.4675   3.6987   3.8032   4.0521   4.2052
     4.4900   4.8694   4.9899   6.5014   8.3428   9.8100

          k = 0.0556-0.1604 0.0000 (  4443 PWs)   bands (ev):

   -42.4698 -42.3026 -42.1209 -42.0818 -42.0278 -42.0221 -42.0064 -41.9887
   -41.9421 -41.6617 -41.6613 -41.6233 -41.6194 -41.5874 -41.5871  -2.2902
    -1.4677  -0.8357  -0.4772  -0.4445   0.8293   0.9757   1.1046   1.3936
     1.5221   1.7697   1.9327   1.9567   2.0676   2.0998   2.1732   2.2899
     2.5418   2.6750   3.0504   3.1942   3.2587   3.4626   3.7108   3.9254
     4.2949   4.5774   4.8878   5.3781   6.7931   7.8479

          k = 0.0556-0.0321 0.0000 (  4465 PWs)   bands (ev):

   -42.4993 -42.3083 -42.0653 -42.0038 -41.9936 -41.9791 -41.9728 -41.9346
   -41.9219 -41.6338 -41.6272 -41.5771 -41.5769 -41.5660 -41.5656  -2.8854
    -2.0220  -1.3286  -0.9921  -0.9436   1.3055   1.3460   1.4583   1.5954
     1.6632   1.6974   1.6987   1.8013   1.8594   2.0995   2.1317   2.1668
     2.2267   2.8338   3.3917   3.3957   3.6378   3.6623   4.0343   4.0597
     4.2340   4.5388   4.6343   4.9551   5.4981   6.2091

          k = 0.1667 0.2887 0.0000 (  4425 PWs)   bands (ev):

   -42.4065 -42.3405 -42.2853 -42.2716 -42.1582 -42.0967 -42.0663 -42.0480
   -42.0095 -41.8421 -41.8409 -41.6613 -41.6607 -41.6084 -41.6073  -0.8579
    -0.4969  -0.0501   0.0584   0.1272   0.2953   0.4513   0.6046   1.1392
     1.1790   1.4197   1.5911   1.6921   1.7379   2.3167   2.4524   2.6602
     2.8807   3.3039   3.5180   3.7440   4.0732   4.3548   4.3743   4.6858
     4.7244   4.7942   5.4185   7.0556   8.9196  10.4756

          k = 0.1667 0.4170 0.0000 (  4459 PWs)   bands (ev):

   -42.4443 -42.4135 -42.3865 -42.2957 -42.1791 -42.1620 -42.1483 -42.0866
   -42.0506 -41.9357 -41.9353 -41.7235 -41.7230 -41.6002 -41.6000  -0.6608
    -0.5826  -0.3705  -0.1411  -0.0258   0.1448   0.4898   0.7972   1.0281
     1.2064   1.4975   1.8430   2.0611   2.1511   2.4423   2.6707   2.8716
     3.2520   3.4673   3.7861   4.0037   4.3456   4.9291   4.9713   5.1972
     6.3695   6.6085   7.2694   8.7361  10.6049  12.3453

          k = 0.1667 0.5453 0.0000 (  4490 PWs)   bands (ev):

   -42.4996 -42.4522 -42.4455 -42.2623 -42.2064 -42.1941 -42.1896 -42.1023
   -42.0800 -41.9810 -41.9781 -41.7572 -41.7568 -41.5962 -41.5959  -0.9476
    -0.6665  -0.5568  -0.3593  -0.1411   0.0987   0.2685   0.6761   0.8504
     1.4016   1.7199   1.8849   2.1252   2.5478   2.6069   3.2563   3.4109
     3.4954   4.0079   4.2709   4.4372   4.5954   4.8384   4.9670   5.2103
     8.2958   8.8920   9.4387  10.1108  10.5827  12.5965

          k = 0.1667-0.4811 0.0000 (  4476 PWs)   bands (ev):

   -42.4793 -42.4390 -42.4250 -42.2764 -42.1877 -42.1850 -42.1799 -42.0977
   -42.0687 -41.9653 -41.9641 -41.7455 -41.7450 -41.5975 -41.5974  -0.8463
    -0.6336  -0.4919  -0.2829  -0.0825   0.0998   0.3602   0.7006   0.9759
     1.2937   1.7109   1.9093   2.0330   2.3389   2.6794   3.0176   3.1472
     3.3735   3.8882   4.0138   4.0992   4.4571   4.9435   5.0355   5.2940
     7.3625   7.7640   8.4309   9.6761  11.2376  12.8967

          k = 0.1667-0.3528 0.0000 (  4458 PWs)   bands (ev):

   -42.4118 -42.3773 -42.3341 -42.3075 -42.1718 -42.1315 -42.1062 -42.0694
   -42.0309 -41.8940 -41.8931 -41.6940 -41.6935 -41.6044 -41.6038  -0.5834
    -0.4726  -0.2111  -0.0769   0.0454   0.3162   0.4776   0.7823   0.9576
     1.2116   1.4504   1.6199   1.8932   2.0004   2.2296   2.3570   2.7747
     3.1039   3.2423   3.7034   3.9371   4.2102   4.6728   4.7754   4.9682
     5.4727   5.5647   6.2068   7.8171   9.7311  11.3964

          k = 0.1667-0.2245 0.0000 (  4433 PWs)   bands (ev):

   -42.4241 -42.3167 -42.2367 -42.2078 -42.1296 -42.0652 -42.0395 -42.0280
   -41.9838 -41.7859 -41.7847 -41.6308 -41.6306 -41.6134 -41.6115  -1.3337
    -0.7297  -0.2361   0.0381   0.1145   0.3478   0.5472   0.7625   0.9329
     1.3203   1.5168   1.6717   1.8061   1.9491   2.2412   2.5627   2.7202
     2.7437   3.0602   3.2687   3.4084   3.7355   3.7853   4.1520   4.1566
     4.3593   4.7812   4.9648   6.4370   8.1935   9.6110

          k = 0.1667-0.0962 0.0000 (  4427 PWs)   bands (ev):

   -42.4614 -42.3024 -42.1450 -42.1073 -42.0427 -42.0258 -42.0184 -42.0003
   -41.9437 -41.6875 -41.6870 -41.6216 -41.6182 -41.5920 -41.5919  -2.1161
    -1.3234  -0.7355  -0.3791  -0.2932   0.6546   0.9684   1.0166   1.2287
     1.5895   1.7987   1.9585   2.0008   2.0671   2.1867   2.2617   2.3833
     2.5397   2.7968   2.8558   3.1374   3.2306   3.4633   3.6510   4.0557
     4.2177   4.6481   4.9981   5.5112   7.0685   8.2075

          k = 0.2778 0.4811 0.0000 (  4485 PWs)   bands (ev):

   -42.4415 -42.4242 -42.3839 -42.3184 -42.2444 -42.2399 -42.1651 -42.1523
   -42.0793 -41.9445 -41.9430 -41.8165 -41.8156 -41.5950 -41.5947  -0.4387
    -0.4282  -0.1186   0.1400   0.3375   0.3970   0.4910   0.5520   0.9750
     1.2021   1.5412   1.6523   2.1174   2.2104   2.3534   2.4260   2.9337
     3.1434   3.5038   3.6416   4.0260   4.4683   4.8570   4.9783   5.1754
     8.6977   9.1744   9.9917  11.2046  12.6270  13.1306

          k = 0.2778 0.6094 0.0000 (  4491 PWs)   bands (ev):

   -42.4349 -42.4078 -42.3796 -42.3307 -42.2869 -42.2642 -42.1656 -42.1505
   -42.0906 -41.9365 -41.9357 -41.8484 -41.8474 -41.5935 -41.5933  -0.4585
    -0.2298  -0.0141   0.1148   0.2298   0.3764   0.4911   0.6337   0.9393
     1.3207   1.5389   1.6980   2.0640   2.1250   2.4223   2.4622   2.9163
     3.2232   3.5152   3.6641   4.2885   4.4957   4.7143   4.8322   4.9546
     9.9334  10.4795  11.0960  11.6047  12.2534  12.7516

          k = 0.2778-0.4170 0.0000 (  4462 PWs)   bands (ev):

   -42.4489 -42.4214 -42.3948 -42.2986 -42.2069 -42.1972 -42.1684 -42.1277
   -42.0652 -41.9457 -41.9441 -41.7712 -41.7702 -41.5971 -41.5966  -0.5800
    -0.4425  -0.2426  -0.0007   0.1770   0.3005   0.5014   0.8516   0.9459
     1.0180   1.5592   1.6853   2.0848   2.2491   2.3340   2.5179   2.8364
     3.1823   3.5016   3.7715   3.8482   4.4069   4.9548   5.0770   5.2851
     7.5031   7.8476   8.5943   9.9208  11.6231  13.2427

          k = 0.2778-0.2887 0.0000 (  4463 PWs)   bands (ev):

   -42.4292 -42.4020 -42.3586 -42.2985 -42.1760 -42.1212 -42.1090 -42.0573
   -42.0261 -41.9162 -41.9141 -41.6814 -41.6813 -41.6040 -41.6032  -0.8011
    -0.7186  -0.5013  -0.3506  -0.0870   0.0748   0.3716   0.7994   1.1342
     1.4819   1.5520   1.8284   2.0779   2.2320   2.5892   2.7991   2.9248
     3.2634   3.4816   3.8123   4.0503   4.3853   4.6057   4.7695   4.9973
     5.3466   5.5117   6.1207   7.7914   9.7700  11.5006

          k = 0.2778-0.1604 0.0000 (  4458 PWs)   bands (ev):

   -42.4162 -42.3501 -42.2812 -42.2736 -42.1527 -42.0745 -42.0491 -42.0428
   -41.9792 -41.8487 -41.8453 -41.6328 -41.6326 -41.6110 -41.6090  -1.1911
    -0.8224  -0.6114  -0.2538  -0.1451   0.2164   0.3693   0.9270   1.2400
     1.5099   1.7515   2.0191   2.0412   2.4521   2.5640   2.6554   2.8203
     3.0605   3.3756   3.4050   3.6917   3.7177   3.8820   4.0726   4.2378
     4.6593   4.9127   5.0521   6.7099   8.6512  10.2042

          k = 0.3889 0.6736 0.0000 (  4511 PWs)   bands (ev):

   -42.4711 -42.4250 -42.4190 -42.2896 -42.2560 -42.2240 -42.1827 -42.1345
   -42.0855 -41.9616 -41.9606 -41.8069 -41.8058 -41.5947 -41.5944  -0.7243
    -0.3641  -0.1943  -0.1551   0.1530   0.2660   0.3850   0.6928   0.8991
     1.1885   1.6490   1.8944   1.9706   2.2524   2.6485   2.8236   2.9496
     3.2867   3.7534   3.9623   4.4508   4.4770   4.7148   4.9024   5.0417
     9.4776   9.9200  10.3292  10.8276  11.2857  12.7600

          k = 0.3889-0.3528 0.0000 (  4485 PWs)   bands (ev):

   -42.5127 -42.4674 -42.4567 -42.2591 -42.2060 -42.1578 -42.1528 -42.0799
   -42.0605 -41.9892 -41.9836 -41.7142 -41.7139 -41.5985 -41.5980  -1.1176
    -0.9238  -0.7983  -0.6131  -0.3226  -0.0996   0.0009   0.6705   1.0599
     1.5019   1.7281   1.9363   2.3154   2.6284   2.9063   3.5091   3.6878
     3.9274   4.1918   4.4893   4.5486   4.6557   4.9573   5.0313   5.3029
     7.0339   7.6689   8.1606   9.1904  10.4233  12.5398

          k = 0.3889-0.2245 0.0000 (  4444 PWs)   bands (ev):

   -42.4888 -42.4546 -42.4264 -42.2777 -42.1977 -42.1160 -42.0893 -42.0797
   -42.0109 -41.9722 -41.9639 -41.6681 -41.6680 -41.6022 -41.6014  -1.1939
    -1.1020  -0.8517  -0.7932  -0.3979  -0.2257  -0.1043   0.7767   1.2878
     1.5346   1.7842   2.2061   2.4026   2.4312   3.3101   3.3706   3.9309
     4.2118   4.3009   4.5702   4.6999   4.7614   4.7835   4.9563   5.0656
     5.1934   5.5100   6.0764   7.9443  10.0220  12.0580

          k =-0.5000-0.8660 0.0000 (  4492 PWs)   bands (ev):

   -42.5453 -42.4968 -42.4892 -42.2469 -42.2268 -42.1331 -42.1107 -42.0942
   -42.0235 -42.0172 -41.9995 -41.6824 -41.6822 -41.5997 -41.5991  -1.4027
    -1.2015  -1.0412  -0.9479  -0.5626  -0.3650  -0.2957   0.6577   1.2093
     1.3761   1.6811   2.3596   2.4829   2.7707   3.3701   3.7732   4.2510
     4.3548   4.8737   5.0104   5.0403   5.1047   5.2591   5.5059   5.5230
     6.0926   7.5200   8.1569   8.5077   8.6994  12.2383

     the Fermi energy is     4.4732 ev

!    total energy              =    -855.84634616 Ry
     estimated scf accuracy    <       0.00000028 Ry
     smearing contrib. (-TS)   =      -0.02236197 Ry
     internal energy E=F+TS    =    -855.82398419 Ry

     The total energy is F=E-TS. E is the sum of the following terms:
     one-electron contribution =  -11787.63912475 Ry
     hartree contribution      =    5916.00974746 Ry
     xc contribution           =    -149.48906712 Ry
     ewald contribution        =    5165.29446022 Ry

     total magnetization       =    -0.00 Bohr mag/cell
     absolute magnetization    =     0.00 Bohr mag/cell

     convergence has been achieved in   9 iterations

     negative rho (up, down):  1.444E-01 1.444E-01

     Forces acting on atoms (cartesian axes, Ry/au):

     atom    1 type  1   force =     0.00000000    0.00000000    0.00612359
     atom    2 type  1   force =     0.00000000    0.00000000   -0.00140641
     atom    3 type  1   force =     0.00000000    0.00000000    0.00000179
     atom    4 type  1   force =     0.00000000    0.00000000    0.00141577
     atom    5 type  1   force =     0.00000000    0.00000000   -0.00613473

     Total force =     0.008895     Total SCF correction =     0.003347
     SCF correction compared to forces is large: reduce conv_thr to get better values
     Energy error            =      2.5E-04
     Gradient error          =      6.1E-03

     number of scf cycles    =   3
     number of bfgs steps    =   2

     energy   old            =    -855.8460996726 Ry
     energy   new            =    -855.8463461600 Ry

     CASE: energy  _new < energy  _old

     new trust radius        =       0.0194029256 bohr
     new conv_thr            =       0.0000002465 Ry


ATOMIC_POSITIONS (angstrom)
Rh            0.0000000000        0.0000000000        0.0233269509
Rh            2.7108568000        1.5651139000        2.2012459408
Rh            1.3554284000        0.7825569000        4.4268031967
Rh            0.0000000000        0.0000000000        6.6523754752
Rh            2.7108568000        1.5651139000        8.8303014363



     Writing output data file /home/STUDENTI/leonardo.razzai/WORK/relax_surf/5-L.save/
     NEW-OLD atomic charge density approx. for the potential

     negative rho (up, down):  1.444E-01 1.444E-01
     Generating pointlists ...
     new r_m :   0.4081 (alat units)  2.0906 (a.u.) for type    1

     total cpu time spent up to now is      351.9 secs

     Self-consistent Calculation

     iteration #  1     ecut=    35.00 Ry     beta= 0.40
     Davidson diagonalization with overlap
     ethr =  1.00E-06,  avg # of iterations =  6.0

     negative rho (up, down):  1.444E-01 1.444E-01

     total cpu time spent up to now is      370.8 secs

     total energy              =    -855.84624708 Ry
     estimated scf accuracy    <       0.00949750 Ry

     total magnetization       =    -0.00 Bohr mag/cell
     absolute magnetization    =     0.00 Bohr mag/cell

     iteration #  2     ecut=    35.00 Ry     beta= 0.40
     Davidson diagonalization with overlap
     ethr =  1.27E-05,  avg # of iterations =  1.0

     negative rho (up, down):  1.444E-01 1.444E-01

     total cpu time spent up to now is      379.5 secs

     total energy              =    -855.84644814 Ry
     estimated scf accuracy    <       0.00286037 Ry

     total magnetization       =    -0.00 Bohr mag/cell
     absolute magnetization    =     0.00 Bohr mag/cell

     iteration #  3     ecut=    35.00 Ry     beta= 0.40
     Davidson diagonalization with overlap
     ethr =  3.81E-06,  avg # of iterations =  1.0

     negative rho (up, down):  1.444E-01 1.444E-01

     total cpu time spent up to now is      388.2 secs

     total energy              =    -855.84650738 Ry
     estimated scf accuracy    <       0.00055566 Ry

     total magnetization       =    -0.00 Bohr mag/cell
     absolute magnetization    =     0.00 Bohr mag/cell

     iteration #  4     ecut=    35.00 Ry     beta= 0.40
     Davidson diagonalization with overlap
     ethr =  7.41E-07,  avg # of iterations =  1.0

     negative rho (up, down):  1.444E-01 1.444E-01

     total cpu time spent up to now is      397.1 secs

     total energy              =    -855.84649775 Ry
     estimated scf accuracy    <       0.00022245 Ry

     total magnetization       =    -0.00 Bohr mag/cell
     absolute magnetization    =     0.00 Bohr mag/cell

     iteration #  5     ecut=    35.00 Ry     beta= 0.40
     Davidson diagonalization with overlap
     ethr =  2.97E-07,  avg # of iterations =  1.0

     negative rho (up, down):  1.444E-01 1.444E-01

     total cpu time spent up to now is      405.9 secs

     total energy              =    -855.84650085 Ry
     estimated scf accuracy    <       0.00003314 Ry

     total magnetization       =    -0.00 Bohr mag/cell
     absolute magnetization    =     0.00 Bohr mag/cell

     iteration #  6     ecut=    35.00 Ry     beta= 0.40
     Davidson diagonalization with overlap
     ethr =  4.42E-08,  avg # of iterations =  1.1

     negative rho (up, down):  1.444E-01 1.444E-01

     total cpu time spent up to now is      414.7 secs

     total energy              =    -855.84650020 Ry
     estimated scf accuracy    <       0.00000581 Ry

     total magnetization       =    -0.00 Bohr mag/cell
     absolute magnetization    =     0.00 Bohr mag/cell

     iteration #  7     ecut=    35.00 Ry     beta= 0.40
     Davidson diagonalization with overlap
     ethr =  7.74E-09,  avg # of iterations =  1.6

     negative rho (up, down):  1.444E-01 1.444E-01

     total cpu time spent up to now is      423.9 secs

     total energy              =    -855.84650005 Ry
     estimated scf accuracy    <       0.00000264 Ry

     total magnetization       =    -0.00 Bohr mag/cell
     absolute magnetization    =     0.00 Bohr mag/cell

     iteration #  8     ecut=    35.00 Ry     beta= 0.40
     Davidson diagonalization with overlap
     ethr =  3.52E-09,  avg # of iterations =  1.4

     negative rho (up, down):  1.444E-01 1.444E-01

     total cpu time spent up to now is      432.9 secs

     total energy              =    -855.84650032 Ry
     estimated scf accuracy    <       0.00000213 Ry

     total magnetization       =    -0.00 Bohr mag/cell
     absolute magnetization    =     0.00 Bohr mag/cell

     iteration #  9     ecut=    35.00 Ry     beta= 0.40
     Davidson diagonalization with overlap
     ethr =  2.84E-09,  avg # of iterations =  1.3

     negative rho (up, down):  1.444E-01 1.444E-01

     total cpu time spent up to now is      441.8 secs

     total energy              =    -855.84650107 Ry
     estimated scf accuracy    <       0.00000145 Ry

     total magnetization       =    -0.00 Bohr mag/cell
     absolute magnetization    =     0.00 Bohr mag/cell

     iteration # 10     ecut=    35.00 Ry     beta= 0.40
     Davidson diagonalization with overlap
     ethr =  1.93E-09,  avg # of iterations =  1.0

     negative rho (up, down):  1.444E-01 1.444E-01

     total cpu time spent up to now is      450.5 secs

     total energy              =    -855.84650215 Ry
     estimated scf accuracy    <       0.00000046 Ry

     total magnetization       =    -0.00 Bohr mag/cell
     absolute magnetization    =     0.00 Bohr mag/cell

     iteration # 11     ecut=    35.00 Ry     beta= 0.40
     Davidson diagonalization with overlap
     ethr =  6.13E-10,  avg # of iterations =  1.4

     negative rho (up, down):  1.444E-01 1.444E-01
 
     Magnetic moment per site:
     atom:    1    charge:   13.1041    magn:    0.0000    constr:    0.0000
     atom:    2    charge:   13.1559    magn:    0.0000    constr:    0.0000
     atom:    3    charge:   13.1523    magn:   -0.0000    constr:    0.0000
     atom:    4    charge:   13.1559    magn:    0.0000    constr:    0.0000
     atom:    5    charge:   13.1040    magn:    0.0000    constr:    0.0000

     total cpu time spent up to now is      459.2 secs

     End of self-consistent calculation

 ------ SPIN UP ------------


          k = 0.0556 0.0962 0.0000 (  4451 PWs)   bands (ev):

   -42.4829 -42.3132 -42.0778 -42.0282 -42.0010 -41.9896 -41.9846 -41.9502
   -41.9180 -41.6390 -41.6341 -41.6111 -41.6098 -41.5793 -41.5793  -2.6763
    -1.8364  -1.1425  -0.8159  -0.7820   1.1360   1.1852   1.3353   1.5863
     1.6619   1.7433   1.7939   1.8391   1.9438   2.0291   2.1217   2.2659
     2.3680   2.5458   3.2703   3.3136   3.5891   3.6572   3.6970   3.9382
     4.2546   4.4578   4.9205   4.9326   6.0839   6.9347

          k = 0.0556 0.2245 0.0000 (  4420 PWs)   bands (ev):

   -42.4380 -42.3097 -42.1871 -42.1516 -42.0746 -42.0368 -42.0211 -42.0109
   -41.9480 -41.7373 -41.7366 -41.6262 -41.6233 -41.6123 -41.6120  -1.7815
    -1.0670  -0.5278  -0.1913  -0.0681   0.4658   0.7783   0.8905   1.0261
     1.5238   1.6894   1.8654   1.9352   2.0647   2.2555   2.4506   2.5577
     2.7270   2.8031   2.9848   3.1231   3.3674   3.4534   3.7999   4.0625
     4.3608   4.7215   4.9201   5.9260   7.5811   8.8487

          k = 0.0556 0.3528 0.0000 (  4467 PWs)   bands (ev):

   -42.4100 -42.3742 -42.3202 -42.2985 -42.1668 -42.0872 -42.0706 -42.0435
   -41.9866 -41.8905 -41.8868 -41.6561 -41.6560 -41.6171 -41.6154  -1.0184
    -0.7962  -0.6016  -0.3919  -0.1639   0.1093   0.2837   0.8855   1.2394
     1.5374   1.7471   1.8406   2.0730   2.3815   2.6150   2.8038   2.9646
     3.2134   3.5280   3.7470   3.8131   4.1159   4.2937   4.4470   4.6112
     4.6798   4.9979   5.3388   7.1444   9.1412  10.7926

          k = 0.0556 0.4811 0.0000 (  4463 PWs)   bands (ev):

   -42.5046 -42.4608 -42.4476 -42.2716 -42.2081 -42.1260 -42.1112 -42.0752
   -42.0188 -41.9885 -41.9797 -41.6889 -41.6889 -41.6107 -41.6099  -1.2159
    -1.0739  -0.8857  -0.7985  -0.4282  -0.2393  -0.1495   0.7079   1.2182
     1.5058   1.7438   2.1047   2.4271   2.5621   3.1702   3.5145   3.9448
     4.2050   4.3121   4.6020   4.7463   4.8016   4.9314   5.0682   5.2385
     5.8433   6.4894   6.9302   8.4154  10.2487  12.4379

          k = 0.0556-0.5453 0.0000 (  4486 PWs)   bands (ev):

   -42.5327 -42.4831 -42.4772 -42.2575 -42.2228 -42.1350 -42.1202 -42.0829
   -42.0288 -42.0072 -41.9964 -41.6967 -41.6963 -41.6094 -41.6090  -1.3252
    -1.1290  -0.9779  -0.8786  -0.5134  -0.2918  -0.2590   0.6564   1.1715
     1.4295   1.7004   2.1499   2.5554   2.6619   3.2468   3.7265   4.0891
     4.3295   4.6605   4.7983   4.9398   5.0068   5.1239   5.2274   5.3837
     6.5217   7.5798   8.0736   8.5995   9.4653  12.3217

          k = 0.0556-0.4170 0.0000 (  4465 PWs)   bands (ev):

   -42.4547 -42.4232 -42.3931 -42.2915 -42.1894 -42.1098 -42.0935 -42.0607
   -42.0045 -41.9494 -41.9437 -41.6752 -41.6750 -41.6133 -41.6122  -1.0316
    -0.9875  -0.7226  -0.6494  -0.2908  -0.1157   0.0408   0.8078   1.2632
     1.6488   1.7770   2.0362   2.0611   2.5217   2.8697   3.3105   3.5257
     3.6358   4.0474   4.1404   4.3097   4.5105   4.6767   4.7749   5.0195
     5.1827   5.4062   5.9992   7.8128   9.8775  11.7359

          k = 0.0556-0.2887 0.0000 (  4439 PWs)   bands (ev):

   -42.4135 -42.3262 -42.2603 -42.2350 -42.1296 -42.0610 -42.0450 -42.0273
   -41.9669 -41.8163 -41.8139 -41.6342 -41.6338 -41.6213 -41.6189  -1.2900
    -0.7880  -0.4908  -0.0954  -0.0364   0.3479   0.5033   0.7915   1.0270
     1.4128   1.7624   1.9299   1.9933   2.1686   2.3387   2.4440   2.7621
     2.8913   3.0654   3.2672   3.4742   3.6995   3.7964   4.0564   4.2108
     4.5013   4.8854   4.9992   6.5145   8.3616   9.8271

          k = 0.0556-0.1604 0.0000 (  4443 PWs)   bands (ev):

   -42.4636 -42.3096 -42.1205 -42.0804 -42.0192 -42.0178 -42.0028 -41.9859
   -41.9312 -41.6679 -41.6676 -41.6308 -41.6265 -41.5934 -41.5932  -2.2879
    -1.4796  -0.8294  -0.4924  -0.4601   0.8237   0.9772   1.1131   1.3745
     1.5087   1.7814   1.9317   1.9563   2.0712   2.1001   2.1761   2.2850
     2.5213   2.6660   3.0488   3.1989   3.2585   3.4696   3.7089   3.9286
     4.2964   4.5858   4.8988   5.3838   6.8112   7.8651

          k = 0.0556-0.0321 0.0000 (  4465 PWs)   bands (ev):

   -42.4933 -42.3166 -42.0619 -42.0001 -41.9894 -41.9787 -41.9728 -41.9235
   -41.9110 -41.6416 -41.6344 -41.5832 -41.5829 -41.5721 -41.5717  -2.8832
    -2.0341  -1.3204  -1.0058  -0.9605   1.3035   1.3560   1.4651   1.5953
     1.6567   1.6993   1.7057   1.7920   1.8681   2.0909   2.1218   2.1472
     2.2152   2.8343   3.3973   3.4015   3.6345   3.6569   4.0252   4.0619
     4.2383   4.5440   4.6430   4.9654   5.5123   6.2250

          k = 0.1667 0.2887 0.0000 (  4425 PWs)   bands (ev):

   -42.3987 -42.3373 -42.2885 -42.2721 -42.1550 -42.0950 -42.0665 -42.0388
   -42.0003 -41.8468 -41.8455 -41.6673 -41.6666 -41.6171 -41.6160  -0.8553
    -0.5021  -0.0638   0.0616   0.1342   0.2756   0.4264   0.5920   1.1371
     1.1713   1.4158   1.5774   1.6801   1.7463   2.3238   2.4505   2.6606
     2.8794   3.3017   3.5226   3.7393   4.0789   4.3553   4.3846   4.6865
     4.7318   4.8024   5.4294   7.0722   8.9373  10.4922

          k = 0.1667 0.4170 0.0000 (  4459 PWs)   bands (ev):

   -42.4400 -42.4039 -42.3874 -42.2968 -42.1821 -42.1622 -42.1462 -42.0757
   -42.0437 -41.9389 -41.9382 -41.7292 -41.7286 -41.6100 -41.6097  -0.6594
    -0.5807  -0.3725  -0.1581  -0.0405   0.1243   0.4778   0.7906   1.0141
     1.2014   1.5063   1.8307   2.0571   2.1521   2.4326   2.6689   2.8617
     3.2577   3.4711   3.8012   4.0142   4.3559   4.9377   4.9749   5.2056
     6.3750   6.6086   7.2746   8.7524  10.6195  12.3600

          k = 0.1667 0.5453 0.0000 (  4490 PWs)   bands (ev):

   -42.4954 -42.4468 -42.4419 -42.2647 -42.2021 -42.1988 -42.1899 -42.0938
   -42.0712 -41.9832 -41.9804 -41.7628 -41.7622 -41.6065 -41.6062  -0.9472
    -0.6660  -0.5541  -0.3822  -0.1572   0.0753   0.2565   0.6646   0.8554
     1.3898   1.7100   1.8870   2.1368   2.5387   2.5964   3.2492   3.4077
     3.4995   4.0165   4.2807   4.4473   4.6079   4.8471   4.9748   5.2199
     8.3003   8.8936   9.4433  10.1231  10.5917  12.5986

          k = 0.1667-0.4811 0.0000 (  4476 PWs)   bands (ev):

   -42.4753 -42.4288 -42.4261 -42.2776 -42.1914 -42.1850 -42.1778 -42.0876
   -42.0614 -41.9676 -41.9667 -41.7511 -41.7505 -41.6076 -41.6075  -0.8455
    -0.6324  -0.4913  -0.3035  -0.0983   0.0777   0.3482   0.6924   0.9755
     1.2811   1.7114   1.9046   2.0389   2.3315   2.6687   3.0094   3.1426
     3.3776   3.8968   4.0268   4.1112   4.4676   4.9529   5.0417   5.3027
     7.3674   7.7648   8.4362   9.6900  11.2490  12.9053

          k = 0.1667-0.3528 0.0000 (  4458 PWs)   bands (ev):

   -42.4052 -42.3701 -42.3346 -42.3102 -42.1726 -42.1308 -42.1056 -42.0585
   -42.0234 -41.8980 -41.8968 -41.6999 -41.6993 -41.6136 -41.6130  -0.5808
    -0.4715  -0.2187  -0.0830   0.0317   0.2951   0.4677   0.7658   0.9523
     1.2116   1.4466   1.6120   1.8802   1.9969   2.2338   2.3568   2.7745
     3.1048   3.2420   3.7134   3.9419   4.2204   4.6765   4.7815   4.9758
     5.4791   5.5644   6.2136   7.8347   9.7475  11.4123

          k = 0.1667-0.2245 0.0000 (  4433 PWs)   bands (ev):

   -42.4171 -42.3179 -42.2388 -42.2085 -42.1219 -42.0622 -42.0373 -42.0234
   -41.9733 -41.7912 -41.7899 -41.6369 -41.6367 -41.6217 -41.6196  -1.3313
    -0.7392  -0.2369   0.0319   0.1017   0.3442   0.5273   0.7584   0.9227
     1.3156   1.5140   1.6673   1.8025   1.9493   2.2467   2.5588   2.7209
     2.7348   3.0676   3.2624   3.4046   3.7332   3.7808   4.1598   4.1632
     4.3690   4.7906   4.9774   6.4503   8.2120   9.6281

          k = 0.1667-0.0962 0.0000 (  4427 PWs)   bands (ev):

   -42.4551 -42.3087 -42.1449 -42.1067 -42.0316 -42.0212 -42.0137 -42.0004
   -41.9332 -41.6935 -41.6931 -41.6293 -41.6256 -41.5980 -41.5979  -2.1138
    -1.3349  -0.7309  -0.3953  -0.3064   0.6525   0.9600   1.0266   1.2078
     1.5813   1.8088   1.9597   2.0003   2.0710   2.1898   2.2677   2.3732
     2.5144   2.7871   2.8537   3.1381   3.2335   3.4761   3.6485   4.0536
     4.2227   4.6609   5.0098   5.5158   7.0871   8.2249

          k = 0.2778 0.4811 0.0000 (  4485 PWs)   bands (ev):

   -42.4384 -42.4160 -42.3824 -42.3136 -42.2469 -42.2413 -42.1686 -42.1437
   -42.0695 -41.9481 -41.9463 -41.8215 -41.8204 -41.6053 -41.6050  -0.4336
    -0.4312  -0.1330   0.1305   0.3216   0.3860   0.4686   0.5436   0.9610
     1.1952   1.5283   1.6586   2.1155   2.2068   2.3445   2.4178   2.9368
     3.1494   3.5142   3.6603   4.0391   4.4775   4.8667   4.9885   5.1843
     8.7027   9.1756   9.9974  11.2156  12.6366  13.1346

          k = 0.2778 0.6094 0.0000 (  4491 PWs)   bands (ev):

   -42.4305 -42.4012 -42.3767 -42.3265 -42.2869 -42.2651 -42.1679 -42.1483
   -42.0789 -41.9405 -41.9396 -41.8528 -41.8517 -41.6039 -41.6037  -0.4579
    -0.2296  -0.0284   0.1112   0.2215   0.3514   0.4690   0.6240   0.9235
     1.3140   1.5287   1.7037   2.0582   2.1216   2.4137   2.4560   2.9177
     3.2299   3.5305   3.6837   4.3004   4.5060   4.7238   4.8421   4.9638
     9.9385  10.4820  11.0999  11.6124  12.2594  12.7573

          k = 0.2778-0.4170 0.0000 (  4462 PWs)   bands (ev):

   -42.4452 -42.4120 -42.3948 -42.2968 -42.2094 -42.1990 -42.1700 -42.1158
   -42.0574 -41.9489 -41.9471 -41.7767 -41.7755 -41.6072 -41.6066  -0.5791
    -0.4399  -0.2512  -0.0164   0.1631   0.2820   0.4863   0.8489   0.9302
     1.0094   1.5661   1.6713   2.0827   2.2496   2.3234   2.5132   2.8347
     3.1886   3.5063   3.7870   3.8635   4.4165   4.9643   5.0844   5.2938
     7.5085   7.8478   8.5995   9.9345  11.6362  13.2562

          k = 0.2778-0.2887 0.0000 (  4463 PWs)   bands (ev):

   -42.4238 -42.3944 -42.3588 -42.3012 -42.1774 -42.1184 -42.1072 -42.0509
   -42.0170 -41.9199 -41.9173 -41.6872 -41.6871 -41.6135 -41.6125  -0.7997
    -0.7160  -0.5043  -0.3622  -0.1063   0.0554   0.3627   0.7917   1.1248
     1.4862   1.5494   1.8303   2.0729   2.2226   2.5784   2.7955   2.9142
     3.2641   3.4899   3.8235   4.0543   4.3931   4.6117   4.7739   5.0061
     5.3511   5.5135   6.1280   7.8094   9.7863  11.5163

          k = 0.2778-0.1604 0.0000 (  4458 PWs)   bands (ev):

   -42.4088 -42.3462 -42.2856 -42.2747 -42.1485 -42.0695 -42.0432 -42.0431
   -41.9693 -41.8536 -41.8497 -41.6387 -41.6385 -41.6198 -41.6176  -1.1888
    -0.8247  -0.6199  -0.2553  -0.1632   0.2068   0.3545   0.9115   1.2468
     1.5063   1.7565   2.0180   2.0445   2.4486   2.5354   2.6484   2.8208
     3.0517   3.3690   3.4147   3.6920   3.7327   3.8733   4.0734   4.2426
     4.6762   4.9231   5.0650   6.7242   8.6697  10.2212

          k = 0.3889 0.6736 0.0000 (  4511 PWs)   bands (ev):

   -42.4667 -42.4199 -42.4151 -42.2871 -42.2548 -42.2267 -42.1850 -42.1288
   -42.0749 -41.9646 -41.9637 -41.8120 -41.8108 -41.6050 -41.6048  -0.7239
    -0.3623  -0.1927  -0.1779   0.1374   0.2459   0.3659   0.6896   0.8893
     1.1747   1.6423   1.8980   1.9688   2.2523   2.6433   2.8149   2.9448
     3.2947   3.7650   3.9746   4.4647   4.4870   4.7243   4.9108   5.0518
     9.4828   9.9232  10.3299  10.8378  11.2952  12.7644

          k = 0.3889-0.3528 0.0000 (  4485 PWs)   bands (ev):

   -42.5087 -42.4604 -42.4547 -42.2638 -42.2085 -42.1547 -42.1509 -42.0728
   -42.0523 -41.9907 -41.9851 -41.7199 -41.7196 -41.6088 -41.6082  -1.1171
    -0.9238  -0.7945  -0.6319  -0.3412  -0.1214  -0.0102   0.6611   1.0654
     1.5031   1.7218   1.9275   2.3232   2.6126   2.8979   3.5052   3.6844
     3.9291   4.2015   4.4990   4.5534   4.6671   4.9653   5.0362   5.3107
     7.0378   7.6706   8.1669   9.2052  10.4336  12.5440

          k = 0.3889-0.2245 0.0000 (  4444 PWs)   bands (ev):

   -42.4846 -42.4471 -42.4252 -42.2810 -42.2010 -42.1108 -42.0826 -42.0800
   -42.0013 -41.9750 -41.9655 -41.6740 -41.6739 -41.6122 -41.6111  -1.1944
    -1.0983  -0.8533  -0.8061  -0.4173  -0.2398  -0.1212   0.7697   1.2920
     1.5434   1.7828   2.2022   2.3994   2.4098   3.3027   3.3584   3.9361
     4.2167   4.2994   4.5715   4.7107   4.7650   4.7936   4.9583   5.0635
     5.2015   5.5146   6.0869   7.9638  10.0367  12.0715

          k =-0.5000-0.8660 0.0000 (  4492 PWs)   bands (ev):

   -42.5414 -42.4906 -42.4864 -42.2559 -42.2283 -42.1278 -42.1011 -42.0946
   -42.0193 -42.0140 -41.9999 -41.6883 -41.6880 -41.6100 -41.6094  -1.4026
    -1.2005  -1.0373  -0.9652  -0.5810  -0.3754  -0.3188   0.6487   1.2171
     1.3854   1.6795   2.3273   2.4783   2.7807   3.3589   3.7712   4.2524
     4.3684   4.8826   5.0184   5.0483   5.1038   5.2646   5.5013   5.5208
     6.0958   7.5230   8.1707   8.5153   8.7154  12.2352

 ------ SPIN DOWN ----------


          k = 0.0556 0.0962 0.0000 (  4451 PWs)   bands (ev):

   -42.4829 -42.3132 -42.0778 -42.0282 -42.0010 -41.9896 -41.9846 -41.9502
   -41.9180 -41.6390 -41.6341 -41.6111 -41.6098 -41.5793 -41.5793  -2.6763
    -1.8364  -1.1425  -0.8159  -0.7820   1.1360   1.1852   1.3353   1.5863
     1.6619   1.7433   1.7939   1.8391   1.9438   2.0291   2.1217   2.2659
     2.3680   2.5458   3.2703   3.3136   3.5891   3.6572   3.6970   3.9382
     4.2546   4.4578   4.9205   4.9326   6.0839   6.9347

          k = 0.0556 0.2245 0.0000 (  4420 PWs)   bands (ev):

   -42.4380 -42.3097 -42.1871 -42.1516 -42.0746 -42.0368 -42.0211 -42.0109
   -41.9480 -41.7373 -41.7366 -41.6262 -41.6233 -41.6123 -41.6119  -1.7815
    -1.0670  -0.5278  -0.1913  -0.0681   0.4658   0.7783   0.8905   1.0261
     1.5238   1.6894   1.8654   1.9352   2.0647   2.2555   2.4506   2.5577
     2.7270   2.8031   2.9848   3.1231   3.3674   3.4534   3.7999   4.0625
     4.3608   4.7215   4.9201   5.9260   7.5811   8.8487

          k = 0.0556 0.3528 0.0000 (  4467 PWs)   bands (ev):

   -42.4100 -42.3742 -42.3202 -42.2985 -42.1668 -42.0872 -42.0706 -42.0435
   -41.9866 -41.8905 -41.8868 -41.6561 -41.6560 -41.6171 -41.6154  -1.0184
    -0.7962  -0.6016  -0.3919  -0.1639   0.1093   0.2837   0.8855   1.2394
     1.5374   1.7471   1.8406   2.0730   2.3815   2.6150   2.8038   2.9646
     3.2134   3.5280   3.7470   3.8131   4.1159   4.2937   4.4470   4.6112
     4.6798   4.9979   5.3388   7.1444   9.1412  10.7926

          k = 0.0556 0.4811 0.0000 (  4463 PWs)   bands (ev):

   -42.5046 -42.4608 -42.4476 -42.2716 -42.2081 -42.1260 -42.1112 -42.0752
   -42.0188 -41.9885 -41.9797 -41.6889 -41.6889 -41.6106 -41.6099  -1.2159
    -1.0739  -0.8857  -0.7985  -0.4282  -0.2393  -0.1495   0.7079   1.2182
     1.5058   1.7438   2.1047   2.4271   2.5621   3.1702   3.5145   3.9448
     4.2050   4.3121   4.6020   4.7463   4.8016   4.9314   5.0682   5.2385
     5.8433   6.4894   6.9302   8.4154  10.2487  12.4379

          k = 0.0556-0.5453 0.0000 (  4486 PWs)   bands (ev):

   -42.5327 -42.4831 -42.4772 -42.2575 -42.2228 -42.1350 -42.1202 -42.0829
   -42.0288 -42.0072 -41.9964 -41.6967 -41.6963 -41.6094 -41.6090  -1.3252
    -1.1290  -0.9779  -0.8786  -0.5134  -0.2918  -0.2590   0.6564   1.1715
     1.4295   1.7004   2.1499   2.5554   2.6619   3.2468   3.7265   4.0891
     4.3295   4.6605   4.7983   4.9398   5.0068   5.1239   5.2274   5.3837
     6.5217   7.5798   8.0736   8.5995   9.4653  12.3260

          k = 0.0556-0.4170 0.0000 (  4465 PWs)   bands (ev):

   -42.4547 -42.4232 -42.3931 -42.2915 -42.1894 -42.1098 -42.0935 -42.0607
   -42.0045 -41.9494 -41.9437 -41.6752 -41.6750 -41.6133 -41.6122  -1.0316
    -0.9875  -0.7226  -0.6494  -0.2908  -0.1157   0.0408   0.8078   1.2632
     1.6488   1.7770   2.0362   2.0611   2.5217   2.8697   3.3105   3.5257
     3.6358   4.0474   4.1404   4.3097   4.5105   4.6767   4.7749   5.0195
     5.1827   5.4062   5.9992   7.8128   9.8775  11.7359

          k = 0.0556-0.2887 0.0000 (  4439 PWs)   bands (ev):

   -42.4135 -42.3262 -42.2603 -42.2350 -42.1296 -42.0610 -42.0450 -42.0273
   -41.9669 -41.8163 -41.8139 -41.6342 -41.6338 -41.6212 -41.6189  -1.2900
    -0.7880  -0.4908  -0.0954  -0.0364   0.3479   0.5033   0.7915   1.0270
     1.4128   1.7624   1.9299   1.9933   2.1686   2.3387   2.4440   2.7621
     2.8913   3.0654   3.2672   3.4742   3.6995   3.7964   4.0564   4.2108
     4.5013   4.8854   4.9992   6.5145   8.3616   9.8271

          k = 0.0556-0.1604 0.0000 (  4443 PWs)   bands (ev):

   -42.4636 -42.3096 -42.1205 -42.0804 -42.0192 -42.0178 -42.0028 -41.9859
   -41.9312 -41.6679 -41.6676 -41.6308 -41.6265 -41.5934 -41.5932  -2.2879
    -1.4796  -0.8294  -0.4924  -0.4601   0.8237   0.9772   1.1131   1.3745
     1.5087   1.7814   1.9317   1.9563   2.0712   2.1001   2.1761   2.2850
     2.5213   2.6660   3.0488   3.1989   3.2585   3.4696   3.7089   3.9286
     4.2964   4.5858   4.8988   5.3838   6.8112   7.8651

          k = 0.0556-0.0321 0.0000 (  4465 PWs)   bands (ev):

   -42.4933 -42.3166 -42.0619 -42.0001 -41.9894 -41.9787 -41.9728 -41.9235
   -41.9110 -41.6416 -41.6344 -41.5832 -41.5829 -41.5721 -41.5717  -2.8832
    -2.0341  -1.3204  -1.0058  -0.9605   1.3035   1.3560   1.4651   1.5953
     1.6567   1.6993   1.7057   1.7920   1.8681   2.0909   2.1218   2.1472
     2.2152   2.8343   3.3973   3.4015   3.6345   3.6569   4.0252   4.0619
     4.2383   4.5440   4.6430   4.9654   5.5123   6.2250

          k = 0.1667 0.2887 0.0000 (  4425 PWs)   bands (ev):

   -42.3987 -42.3373 -42.2885 -42.2721 -42.1550 -42.0950 -42.0665 -42.0388
   -42.0003 -41.8468 -41.8455 -41.6673 -41.6666 -41.6171 -41.6160  -0.8553
    -0.5021  -0.0638   0.0616   0.1342   0.2756   0.4264   0.5920   1.1371
     1.1713   1.4158   1.5774   1.6801   1.7463   2.3238   2.4505   2.6606
     2.8794   3.3017   3.5226   3.7393   4.0789   4.3553   4.3846   4.6865
     4.7318   4.8024   5.4295   7.0722   8.9373  10.4922

          k = 0.1667 0.4170 0.0000 (  4459 PWs)   bands (ev):

   -42.4400 -42.4039 -42.3874 -42.2968 -42.1821 -42.1622 -42.1462 -42.0757
   -42.0437 -41.9389 -41.9382 -41.7292 -41.7286 -41.6100 -41.6097  -0.6594
    -0.5807  -0.3725  -0.1581  -0.0405   0.1243   0.4778   0.7906   1.0141
     1.2014   1.5063   1.8307   2.0571   2.1521   2.4326   2.6689   2.8617
     3.2577   3.4711   3.8012   4.0142   4.3559   4.9377   4.9749   5.2056
     6.3750   6.6086   7.2746   8.7524  10.6195  12.3600

          k = 0.1667 0.5453 0.0000 (  4490 PWs)   bands (ev):

   -42.4954 -42.4468 -42.4419 -42.2647 -42.2021 -42.1988 -42.1899 -42.0938
   -42.0712 -41.9832 -41.9804 -41.7627 -41.7622 -41.6065 -41.6062  -0.9472
    -0.6660  -0.5541  -0.3822  -0.1572   0.0753   0.2565   0.6646   0.8554
     1.3898   1.7100   1.8870   2.1368   2.5387   2.5964   3.2492   3.4077
     3.4995   4.0165   4.2807   4.4474   4.6079   4.8471   4.9748   5.2199
     8.3003   8.8936   9.4433  10.1231  10.5917  12.5987

          k = 0.1667-0.4811 0.0000 (  4476 PWs)   bands (ev):

   -42.4753 -42.4288 -42.4261 -42.2776 -42.1914 -42.1850 -42.1778 -42.0876
   -42.0614 -41.9676 -41.9667 -41.7511 -41.7505 -41.6076 -41.6075  -0.8455
    -0.6324  -0.4913  -0.3035  -0.0983   0.0777   0.3482   0.6924   0.9755
     1.2811   1.7114   1.9046   2.0389   2.3315   2.6687   3.0094   3.1426
     3.3776   3.8968   4.0268   4.1112   4.4676   4.9529   5.0417   5.3027
     7.3674   7.7648   8.4362   9.6900  11.2490  12.9053

          k = 0.1667-0.3528 0.0000 (  4458 PWs)   bands (ev):

   -42.4052 -42.3701 -42.3346 -42.3102 -42.1726 -42.1308 -42.1056 -42.0585
   -42.0234 -41.8980 -41.8968 -41.6999 -41.6993 -41.6136 -41.6130  -0.5808
    -0.4715  -0.2187  -0.0830   0.0317   0.2951   0.4677   0.7658   0.9523
     1.2116   1.4466   1.6120   1.8802   1.9969   2.2338   2.3568   2.7745
     3.1048   3.2420   3.7134   3.9419   4.2204   4.6765   4.7815   4.9758
     5.4791   5.5644   6.2136   7.8347   9.7475  11.4123

          k = 0.1667-0.2245 0.0000 (  4433 PWs)   bands (ev):

   -42.4171 -42.3179 -42.2388 -42.2085 -42.1219 -42.0622 -42.0373 -42.0234
   -41.9733 -41.7912 -41.7899 -41.6369 -41.6367 -41.6217 -41.6196  -1.3313
    -0.7392  -0.2369   0.0319   0.1017   0.3442   0.5273   0.7584   0.9227
     1.3156   1.5140   1.6673   1.8025   1.9493   2.2467   2.5588   2.7209
     2.7348   3.0676   3.2624   3.4046   3.7332   3.7808   4.1598   4.1632
     4.3690   4.7906   4.9774   6.4503   8.2120   9.6281

          k = 0.1667-0.0962 0.0000 (  4427 PWs)   bands (ev):

   -42.4551 -42.3087 -42.1449 -42.1067 -42.0316 -42.0212 -42.0137 -42.0004
   -41.9332 -41.6935 -41.6931 -41.6293 -41.6256 -41.5980 -41.5979  -2.1138
    -1.3349  -0.7309  -0.3953  -0.3064   0.6525   0.9600   1.0266   1.2078
     1.5813   1.8088   1.9597   2.0003   2.0710   2.1898   2.2677   2.3732
     2.5144   2.7871   2.8537   3.1381   3.2335   3.4761   3.6485   4.0536
     4.2227   4.6609   5.0098   5.5158   7.0871   8.2249

          k = 0.2778 0.4811 0.0000 (  4485 PWs)   bands (ev):

   -42.4384 -42.4160 -42.3824 -42.3136 -42.2469 -42.2413 -42.1686 -42.1437
   -42.0695 -41.9481 -41.9463 -41.8215 -41.8204 -41.6053 -41.6049  -0.4336
    -0.4312  -0.1330   0.1305   0.3216   0.3860   0.4686   0.5436   0.9610
     1.1952   1.5283   1.6586   2.1155   2.2068   2.3445   2.4178   2.9368
     3.1494   3.5142   3.6603   4.0391   4.4775   4.8667   4.9885   5.1843
     8.7027   9.1756   9.9974  11.2156  12.6366  13.1346

          k = 0.2778 0.6094 0.0000 (  4491 PWs)   bands (ev):

   -42.4305 -42.4012 -42.3767 -42.3265 -42.2869 -42.2651 -42.1679 -42.1483
   -42.0789 -41.9405 -41.9396 -41.8528 -41.8517 -41.6039 -41.6037  -0.4579
    -0.2296  -0.0284   0.1112   0.2215   0.3514   0.4690   0.6240   0.9235
     1.3140   1.5287   1.7037   2.0582   2.1216   2.4137   2.4560   2.9177
     3.2299   3.5305   3.6837   4.3004   4.5060   4.7238   4.8421   4.9638
     9.9385  10.4820  11.0999  11.6124  12.2594  12.7573

          k = 0.2778-0.4170 0.0000 (  4462 PWs)   bands (ev):

   -42.4452 -42.4120 -42.3948 -42.2968 -42.2094 -42.1990 -42.1700 -42.1158
   -42.0574 -41.9489 -41.9471 -41.7767 -41.7755 -41.6072 -41.6066  -0.5791
    -0.4399  -0.2512  -0.0164   0.1631   0.2820   0.4863   0.8489   0.9302
     1.0094   1.5661   1.6713   2.0827   2.2496   2.3234   2.5132   2.8347
     3.1886   3.5063   3.7870   3.8635   4.4165   4.9643   5.0844   5.2938
     7.5085   7.8478   8.5995   9.9345  11.6362  13.2562

          k = 0.2778-0.2887 0.0000 (  4463 PWs)   bands (ev):

   -42.4238 -42.3944 -42.3588 -42.3012 -42.1774 -42.1184 -42.1072 -42.0509
   -42.0170 -41.9199 -41.9173 -41.6872 -41.6871 -41.6135 -41.6125  -0.7997
    -0.7160  -0.5043  -0.3622  -0.1063   0.0554   0.3627   0.7917   1.1248
     1.4862   1.5494   1.8303   2.0729   2.2226   2.5784   2.7955   2.9142
     3.2641   3.4899   3.8235   4.0543   4.3931   4.6117   4.7739   5.0061
     5.3511   5.5135   6.1280   7.8094   9.7863  11.5163

          k = 0.2778-0.1604 0.0000 (  4458 PWs)   bands (ev):

   -42.4088 -42.3462 -42.2856 -42.2747 -42.1485 -42.0695 -42.0432 -42.0431
   -41.9693 -41.8536 -41.8497 -41.6387 -41.6385 -41.6198 -41.6176  -1.1888
    -0.8247  -0.6199  -0.2553  -0.1632   0.2068   0.3545   0.9115   1.2468
     1.5063   1.7565   2.0180   2.0445   2.4486   2.5354   2.6484   2.8208
     3.0517   3.3690   3.4147   3.6920   3.7327   3.8733   4.0734   4.2426
     4.6762   4.9231   5.0650   6.7242   8.6697  10.2212

          k = 0.3889 0.6736 0.0000 (  4511 PWs)   bands (ev):

   -42.4667 -42.4199 -42.4151 -42.2871 -42.2548 -42.2267 -42.1850 -42.1288
   -42.0749 -41.9646 -41.9637 -41.8120 -41.8108 -41.6050 -41.6048  -0.7239
    -0.3623  -0.1927  -0.1779   0.1374   0.2459   0.3659   0.6896   0.8893
     1.1747   1.6423   1.8980   1.9688   2.2523   2.6433   2.8149   2.9448
     3.2947   3.7650   3.9746   4.4647   4.4871   4.7243   4.9108   5.0518
     9.4828   9.9232  10.3299  10.8378  11.2952  12.7645

          k = 0.3889-0.3528 0.0000 (  4485 PWs)   bands (ev):

   -42.5087 -42.4604 -42.4547 -42.2638 -42.2085 -42.1547 -42.1509 -42.0728
   -42.0523 -41.9907 -41.9851 -41.7199 -41.7196 -41.6088 -41.6082  -1.1171
    -0.9238  -0.7945  -0.6319  -0.3412  -0.1214  -0.0102   0.6611   1.0654
     1.5031   1.7218   1.9275   2.3232   2.6126   2.8979   3.5052   3.6844
     3.9291   4.2015   4.4990   4.5534   4.6671   4.9653   5.0362   5.3107
     7.0378   7.6706   8.1669   9.2052  10.4336  12.5440

          k = 0.3889-0.2245 0.0000 (  4444 PWs)   bands (ev):

   -42.4846 -42.4471 -42.4252 -42.2810 -42.2010 -42.1108 -42.0826 -42.0800
   -42.0013 -41.9750 -41.9655 -41.6740 -41.6739 -41.6122 -41.6111  -1.1944
    -1.0983  -0.8533  -0.8061  -0.4173  -0.2398  -0.1212   0.7697   1.2920
     1.5434   1.7828   2.2022   2.3994   2.4098   3.3027   3.3584   3.9361
     4.2167   4.2994   4.5715   4.7107   4.7650   4.7936   4.9583   5.0635
     5.2015   5.5146   6.0869   7.9638  10.0367  12.0715

          k =-0.5000-0.8660 0.0000 (  4492 PWs)   bands (ev):

   -42.5414 -42.4906 -42.4864 -42.2559 -42.2283 -42.1278 -42.1011 -42.0946
   -42.0193 -42.0140 -41.9999 -41.6883 -41.6880 -41.6100 -41.6094  -1.4026
    -1.2005  -1.0373  -0.9652  -0.5810  -0.3754  -0.3188   0.6487   1.2171
     1.3854   1.6795   2.3273   2.4783   2.7807   3.3589   3.7712   4.2524
     4.3684   4.8826   5.0184   5.0483   5.1038   5.2646   5.5013   5.5208
     6.0958   7.5231   8.1707   8.5153   8.7154  12.2350

     the Fermi energy is     4.4807 ev

!    total energy              =    -855.84650254 Ry
     estimated scf accuracy    <       0.00000016 Ry
     smearing contrib. (-TS)   =      -0.02226996 Ry
     internal energy E=F+TS    =    -855.82423258 Ry

     The total energy is F=E-TS. E is the sum of the following terms:
     one-electron contribution =  -11807.53025251 Ry
     hartree contribution      =    5925.92580373 Ry
     xc contribution           =    -149.49857966 Ry
     ewald contribution        =    5175.27879586 Ry

     total magnetization       =     0.00 Bohr mag/cell
     absolute magnetization    =     0.00 Bohr mag/cell

     convergence has been achieved in  11 iterations

     negative rho (up, down):  1.444E-01 1.444E-01

     Forces acting on atoms (cartesian axes, Ry/au):

     atom    1 type  1   force =     0.00000000    0.00000000    0.00234480
     atom    2 type  1   force =     0.00000000    0.00000000    0.00289144
     atom    3 type  1   force =     0.00000000    0.00000000    0.00001352
     atom    4 type  1   force =     0.00000000    0.00000000   -0.00287988
     atom    5 type  1   force =     0.00000000    0.00000000   -0.00236988

     Total force =     0.005270     Total SCF correction =     0.002956
     SCF correction compared to forces is large: reduce conv_thr to get better values
     Energy error            =      1.6E-04
     Gradient error          =      2.9E-03

     number of scf cycles    =   4
     number of bfgs steps    =   3

     energy   old            =    -855.8463461600 Ry
     energy   new            =    -855.8465025354 Ry

     CASE: energy  _new < energy  _old

     new trust radius        =       0.0082690407 bohr
     new conv_thr            =       0.0000001564 Ry


ATOMIC_POSITIONS (angstrom)
Rh            0.0000000000        0.0000000000        0.0276855951
Rh            2.7108568000        1.5651139000        2.2018679272
Rh            1.3554284000        0.7825569000        4.4268116127
Rh            0.0000000000        0.0000000000        6.6517622167
Rh            2.7108568000        1.5651139000        8.8259256484



     Writing output data file /home/STUDENTI/leonardo.razzai/WORK/relax_surf/5-L.save/
     NEW-OLD atomic charge density approx. for the potential

     negative rho (up, down):  1.444E-01 1.444E-01
     Generating pointlists ...

     total cpu time spent up to now is      461.9 secs

     Self-consistent Calculation

     iteration #  1     ecut=    35.00 Ry     beta= 0.40
     Davidson diagonalization with overlap
     ethr =  1.00E-06,  avg # of iterations =  5.0

     negative rho (up, down):  1.444E-01 1.444E-01

     total cpu time spent up to now is      477.8 secs

     total energy              =    -855.84616499 Ry
     estimated scf accuracy    <       0.01295410 Ry

     total magnetization       =     0.00 Bohr mag/cell
     absolute magnetization    =     0.00 Bohr mag/cell

     iteration #  2     ecut=    35.00 Ry     beta= 0.40
     Davidson diagonalization with overlap
     ethr =  1.73E-05,  avg # of iterations =  1.0

     negative rho (up, down):  1.444E-01 1.444E-01

     total cpu time spent up to now is      486.4 secs

     total energy              =    -855.84643473 Ry
     estimated scf accuracy    <       0.00485133 Ry

     total magnetization       =     0.00 Bohr mag/cell
     absolute magnetization    =     0.00 Bohr mag/cell

     iteration #  3     ecut=    35.00 Ry     beta= 0.40
     Davidson diagonalization with overlap
     ethr =  6.47E-06,  avg # of iterations =  1.0

     negative rho (up, down):  1.444E-01 1.444E-01

     total cpu time spent up to now is      495.5 secs

     total energy              =    -855.84654332 Ry
     estimated scf accuracy    <       0.00044616 Ry

     total magnetization       =     0.00 Bohr mag/cell
     absolute magnetization    =     0.00 Bohr mag/cell

     iteration #  4     ecut=    35.00 Ry     beta= 0.40
     Davidson diagonalization with overlap
     ethr =  5.95E-07,  avg # of iterations =  1.0

     negative rho (up, down):  1.444E-01 1.444E-01

     total cpu time spent up to now is      504.2 secs

     total energy              =    -855.84653480 Ry
     estimated scf accuracy    <       0.00024080 Ry

     total magnetization       =     0.00 Bohr mag/cell
     absolute magnetization    =     0.00 Bohr mag/cell

     iteration #  5     ecut=    35.00 Ry     beta= 0.40
     Davidson diagonalization with overlap
     ethr =  3.21E-07,  avg # of iterations =  1.0

     negative rho (up, down):  1.444E-01 1.444E-01

     total cpu time spent up to now is      513.1 secs

     total energy              =    -855.84653807 Ry
     estimated scf accuracy    <       0.00001683 Ry

     total magnetization       =     0.00 Bohr mag/cell
     absolute magnetization    =     0.00 Bohr mag/cell

     iteration #  6     ecut=    35.00 Ry     beta= 0.40
     Davidson diagonalization with overlap
     ethr =  2.24E-08,  avg # of iterations =  1.0

     negative rho (up, down):  1.444E-01 1.444E-01

     total cpu time spent up to now is      521.8 secs

     total energy              =    -855.84653793 Ry
     estimated scf accuracy    <       0.00000222 Ry

     total magnetization       =     0.00 Bohr mag/cell
     absolute magnetization    =     0.00 Bohr mag/cell

     iteration #  7     ecut=    35.00 Ry     beta= 0.40
     Davidson diagonalization with overlap
MPI startup(): shm:dapl fabric is unknown or has been removed from the product, please use ofi or shm:ofi instead.

     Program PWSCF v.6.7MaX starts on  5Apr2023 at 18:28:16 

     This program is part of the open-source Quantum ESPRESSO suite
     for quantum simulation of materials; please cite
         "P. Giannozzi et al., J. Phys.:Condens. Matter 21 395502 (2009);
         "P. Giannozzi et al., J. Phys.:Condens. Matter 29 465901 (2017);
          URL http://www.quantum-espresso.org", 
     in publications or presentations arising from this work. More details at
     http://www.quantum-espresso.org/quote

     Parallel version (MPI), running on     8 processors

     MPI processes distributed on     1 nodes
     R & G space division:  proc/nbgrp/npool/nimage =       8
     Reading input from n_layers5.pwi

     Current dimensions of program PWSCF are:
     Max number of different atomic species (ntypx) = 10
     Max number of k-points (npk) =  40000
     Max angular momentum in pseudopotentials (lmaxx) =  3


 %%%%%%%%%%%%%%%%%%%%%%%%%%%%%%%%%%%%%%%%%%%%%%%%%%%%%%%%%%%%%%%%%%%%%%%%%%%%%%
     Error in routine check_tempdir (1):
     temporary directory /home/STUDENTI/leonardo.razzai/WORK/relax_surf/ cannot be created or accessed
 %%%%%%%%%%%%%%%%%%%%%%%%%%%%%%%%%%%%%%%%%%%%%%%%%%%%%%%%%%%%%%%%%%%%%%%%%%%%%%

     stopping ...

 %%%%%%%%%%%%%%%%%%%%%%%%%%%%%%%%%%%%%%%%%%%%%%%%%%%%%%%%%%%%%%%%%%%%%%%%%%%%%%
     Error in routine check_tempdir (1):
     temporary directory /home/STUDENTI/leonardo.razzai/WORK/relax_surf/ cannot be created or accessed
 %%%%%%%%%%%%%%%%%%%%%%%%%%%%%%%%%%%%%%%%%%%%%%%%%%%%%%%%%%%%%%%%%%%%%%%%%%%%%%


 %%%%%%%%%%%%%%%%%%%%%%%%%%%%%%%%%%%%%%%%%%%%%%%%%%%%%%%%%%%%%%%%%%%%%%%%%%%%%%
     Error in routine check_tempdir (1):
     temporary directory /home/STUDENTI/leonardo.razzai/WORK/relax_surf/ cannot be created or accessed
 %%%%%%%%%%%%%%%%%%%%%%%%%%%%%%%%%%%%%%%%%%%%%%%%%%%%%%%%%%%%%%%%%%%%%%%%%%%%%%

     stopping ...

 %%%%%%%%%%%%%%%%%%%%%%%%%%%%%%%%%%%%%%%%%%%%%%%%%%%%%%%%%%%%%%%%%%%%%%%%%%%%%%
     Error in routine check_tempdir (1):
     temporary directory /home/STUDENTI/leonardo.razzai/WORK/relax_surf/ cannot be created or accessed
 %%%%%%%%%%%%%%%%%%%%%%%%%%%%%%%%%%%%%%%%%%%%%%%%%%%%%%%%%%%%%%%%%%%%%%%%%%%%%%

     stopping ...

 %%%%%%%%%%%%%%%%%%%%%%%%%%%%%%%%%%%%%%%%%%%%%%%%%%%%%%%%%%%%%%%%%%%%%%%%%%%%%%
     Error in routine check_tempdir (1):
     temporary directory /home/STUDENTI/leonardo.razzai/WORK/relax_surf/ cannot be created or accessed
 %%%%%%%%%%%%%%%%%%%%%%%%%%%%%%%%%%%%%%%%%%%%%%%%%%%%%%%%%%%%%%%%%%%%%%%%%%%%%%

     stopping ...

 %%%%%%%%%%%%%%%%%%%%%%%%%%%%%%%%%%%%%%%%%%%%%%%%%%%%%%%%%%%%%%%%%%%%%%%%%%%%%%
     Error in routine check_tempdir (1):
     temporary directory /home/STUDENTI/leonardo.razzai/WORK/relax_surf/ cannot be created or accessed
 %%%%%%%%%%%%%%%%%%%%%%%%%%%%%%%%%%%%%%%%%%%%%%%%%%%%%%%%%%%%%%%%%%%%%%%%%%%%%%

     stopping ...
     stopping ...

 %%%%%%%%%%%%%%%%%%%%%%%%%%%%%%%%%%%%%%%%%%%%%%%%%%%%%%%%%%%%%%%%%%%%%%%%%%%%%%
     Error in routine check_tempdir (1):
     temporary directory /home/STUDENTI/leonardo.razzai/WORK/relax_surf/ cannot be created or accessed
 %%%%%%%%%%%%%%%%%%%%%%%%%%%%%%%%%%%%%%%%%%%%%%%%%%%%%%%%%%%%%%%%%%%%%%%%%%%%%%

     stopping ...
 %%%%%%%%%%%%%%%%%%%%%%%%%%%%%%%%%%%%%%%%%%%%%%%%%%%%%%%%%%%%%%%%%%%%%%%%%%%%%%
     Error in routine check_tempdir (1):
     temporary directory /home/STUDENTI/leonardo.razzai/WORK/relax_surf/ cannot be created or accessed
 %%%%%%%%%%%%%%%%%%%%%%%%%%%%%%%%%%%%%%%%%%%%%%%%%%%%%%%%%%%%%%%%%%%%%%%%%%%%%%

     stopping ...
MPI startup(): shm:dapl fabric is unknown or has been removed from the product, please use ofi or shm:ofi instead.

     Program PWSCF v.6.7MaX starts on  5Apr2023 at 18:33:39 

     This program is part of the open-source Quantum ESPRESSO suite
     for quantum simulation of materials; please cite
         "P. Giannozzi et al., J. Phys.:Condens. Matter 21 395502 (2009);
         "P. Giannozzi et al., J. Phys.:Condens. Matter 29 465901 (2017);
          URL http://www.quantum-espresso.org", 
     in publications or presentations arising from this work. More details at
     http://www.quantum-espresso.org/quote

     Parallel version (MPI), running on     8 processors

     MPI processes distributed on     1 nodes
     R & G space division:  proc/nbgrp/npool/nimage =       8
     Reading input from n_layers5.pwi

     Current dimensions of program PWSCF are:
     Max number of different atomic species (ntypx) = 10
     Max number of k-points (npk) =  40000
     Max angular momentum in pseudopotentials (lmaxx) =  3

 %%%%%%%%%%%%%%%%%%%%%%%%%%%%%%%%%%%%%%%%%%%%%%%%%%%%%%%%%%%%%%%%%%%%%%%%%%%%%%
     Error in routine check_tempdir (1):
     temporary directory /home/STUDENTI/leonardo.razzai/WORK/surf_111/ cannot be created or accessed
 %%%%%%%%%%%%%%%%%%%%%%%%%%%%%%%%%%%%%%%%%%%%%%%%%%%%%%%%%%%%%%%%%%%%%%%%%%%%%%

     stopping ...

 %%%%%%%%%%%%%%%%%%%%%%%%%%%%%%%%%%%%%%%%%%%%%%%%%%%%%%%%%%%%%%%%%%%%%%%%%%%%%%
     Error in routine check_tempdir (1):
     temporary directory /home/STUDENTI/leonardo.razzai/WORK/surf_111/ cannot be created or accessed
 %%%%%%%%%%%%%%%%%%%%%%%%%%%%%%%%%%%%%%%%%%%%%%%%%%%%%%%%%%%%%%%%%%%%%%%%%%%%%%

     stopping ...

 %%%%%%%%%%%%%%%%%%%%%%%%%%%%%%%%%%%%%%%%%%%%%%%%%%%%%%%%%%%%%%%%%%%%%%%%%%%%%%
     Error in routine check_tempdir (1):
     temporary directory /home/STUDENTI/leonardo.razzai/WORK/surf_111/ cannot be created or accessed
 %%%%%%%%%%%%%%%%%%%%%%%%%%%%%%%%%%%%%%%%%%%%%%%%%%%%%%%%%%%%%%%%%%%%%%%%%%%%%%

     stopping ...

 %%%%%%%%%%%%%%%%%%%%%%%%%%%%%%%%%%%%%%%%%%%%%%%%%%%%%%%%%%%%%%%%%%%%%%%%%%%%%%
     Error in routine check_tempdir (1):
     temporary directory /home/STUDENTI/leonardo.razzai/WORK/surf_111/ cannot be created or accessed
 %%%%%%%%%%%%%%%%%%%%%%%%%%%%%%%%%%%%%%%%%%%%%%%%%%%%%%%%%%%%%%%%%%%%%%%%%%%%%%

     stopping ...

 %%%%%%%%%%%%%%%%%%%%%%%%%%%%%%%%%%%%%%%%%%%%%%%%%%%%%%%%%%%%%%%%%%%%%%%%%%%%%%
     Error in routine check_tempdir (1):
     temporary directory /home/STUDENTI/leonardo.razzai/WORK/surf_111/ cannot be created or accessed
 %%%%%%%%%%%%%%%%%%%%%%%%%%%%%%%%%%%%%%%%%%%%%%%%%%%%%%%%%%%%%%%%%%%%%%%%%%%%%%

     stopping ...

 %%%%%%%%%%%%%%%%%%%%%%%%%%%%%%%%%%%%%%%%%%%%%%%%%%%%%%%%%%%%%%%%%%%%%%%%%%%%%%
     Error in routine check_tempdir (1):
     temporary directory /home/STUDENTI/leonardo.razzai/WORK/surf_111/ cannot be created or accessed
 %%%%%%%%%%%%%%%%%%%%%%%%%%%%%%%%%%%%%%%%%%%%%%%%%%%%%%%%%%%%%%%%%%%%%%%%%%%%%%

     stopping ...

 %%%%%%%%%%%%%%%%%%%%%%%%%%%%%%%%%%%%%%%%%%%%%%%%%%%%%%%%%%%%%%%%%%%%%%%%%%%%%%
     Error in routine check_tempdir (1):
     temporary directory /home/STUDENTI/leonardo.razzai/WORK/surf_111/ cannot be created or accessed
 %%%%%%%%%%%%%%%%%%%%%%%%%%%%%%%%%%%%%%%%%%%%%%%%%%%%%%%%%%%%%%%%%%%%%%%%%%%%%%

     stopping ...

 %%%%%%%%%%%%%%%%%%%%%%%%%%%%%%%%%%%%%%%%%%%%%%%%%%%%%%%%%%%%%%%%%%%%%%%%%%%%%%
     Error in routine check_tempdir (1):
     temporary directory /home/STUDENTI/leonardo.razzai/WORK/surf_111/ cannot be created or accessed
 %%%%%%%%%%%%%%%%%%%%%%%%%%%%%%%%%%%%%%%%%%%%%%%%%%%%%%%%%%%%%%%%%%%%%%%%%%%%%%

     stopping ...
MPI startup(): shm:dapl fabric is unknown or has been removed from the product, please use ofi or shm:ofi instead.

     Program PWSCF v.6.7MaX starts on  5Apr2023 at 19:30:22 

     This program is part of the open-source Quantum ESPRESSO suite
     for quantum simulation of materials; please cite
         "P. Giannozzi et al., J. Phys.:Condens. Matter 21 395502 (2009);
         "P. Giannozzi et al., J. Phys.:Condens. Matter 29 465901 (2017);
          URL http://www.quantum-espresso.org", 
     in publications or presentations arising from this work. More details at
     http://www.quantum-espresso.org/quote

     Parallel version (MPI), running on     8 processors

     MPI processes distributed on     1 nodes
     R & G space division:  proc/nbgrp/npool/nimage =       8
     Reading input from n_layers5.pwi

     Current dimensions of program PWSCF are:
     Max number of different atomic species (ntypx) = 10
     Max number of k-points (npk) =  40000
     Max angular momentum in pseudopotentials (lmaxx) =  3

     File /home/STUDENTI/leonardo.razzai/Rh_work/surf_111/5-L.update deleted, as requested

     File /home/STUDENTI/leonardo.razzai/Rh_work/surf_111/5-L.bfgs deleted, as requested

     Subspace diagonalization in iterative solution of the eigenvalue problem:
     a serial algorithm will be used

 
     Parallelization info
     --------------------
     sticks:   dense  smooth     PW     G-vecs:    dense   smooth      PW
     Min          63      31     11                12632     4451     972
     Max          65      32     12                12645     4494     987
     Sum         511     253     91               101117    35839    7825
 


     bravais-lattice index     =            4
     lattice parameter (alat)  =       5.1228  a.u.
     unit-cell volume          =    1276.0194 (a.u.)^3
     number of atoms/cell      =            5
     number of atomic types    =            1
     number of electrons       =        75.00
     number of Kohn-Sham states=           46
     kinetic-energy cutoff     =      35.0000  Ry
     charge density cutoff     =     280.0000  Ry
     scf convergence threshold =      1.0E-06
     mixing beta               =       0.4000
     number of iterations used =            8  local-TF  mixing
     energy convergence thresh.=      1.0E-04
     force convergence thresh. =      1.0E-03
     Exchange-correlation=  SLA  PW   PBX  PBC
                           (   1   4   3   4   0   0   0)
     nstep                     =           50


     celldm(1)=   5.122776  celldm(2)=   0.000000  celldm(3)=  10.960000
     celldm(4)=   0.000000  celldm(5)=   0.000000  celldm(6)=   0.000000

     crystal axes: (cart. coord. in units of alat)
               a(1) = (   1.000000   0.000000   0.000000 )  
               a(2) = (  -0.500000   0.866025   0.000000 )  
               a(3) = (   0.000000   0.000000  10.960000 )  

     reciprocal axes: (cart. coord. in units 2 pi/alat)
               b(1) = (  1.000000  0.577350  0.000000 )  
               b(2) = (  0.000000  1.154701  0.000000 )  
               b(3) = (  0.000000  0.000000  0.091241 )  


     PseudoPot. # 1 for Rh read from file:
     /home/software/materia/pseudo/rh_pbe_v1.4.uspp.F.UPF
     MD5 check sum: 761627e959a2e3a1f56b0b5fe687810e
     Pseudo is Ultrasoft + core correction, Zval = 15.0
     Generated by new atomic code, or converted to UPF format
     Using radial grid of  969 points,  7 beta functions with: 
                l(1) =   0
                l(2) =   0
                l(3) =   1
                l(4) =   1
                l(5) =   2
                l(6) =   2
                l(7) =   2
     Q(r) pseudized with  8 coefficients,  rinner =    1.200   1.200   1.200
                                                       1.200   1.200

     atomic species   valence    mass     pseudopotential
        Rh            15.00   102.90500     Rh( 1.00)

     Starting magnetic structure 
     atomic species   magnetization
        Rh           0.010

      6 Sym. Ops. (no inversion) found



   Cartesian axes

     site n.     atom                  positions (alat units)
         1           Rh  tau(   1) = (   0.0000000   0.0000000   0.0000000  )
         2           Rh  tau(   2) = (   0.5000001  -0.2886752   0.8164967  )
         3           Rh  tau(   3) = (   0.5000001   0.2886752   1.6329934  )
         4           Rh  tau(   4) = (   0.0000000   0.0000000   2.4494902  )
         5           Rh  tau(   5) = (   0.5000001  -0.2886752   3.2659869  )

     number of k points=    25  Gaussian smearing, width (Ry)=  0.0200
                       cart. coord. in units 2pi/alat
        k(    1) = (   0.0555556   0.0962250   0.0000000), wk =   0.0246914
        k(    2) = (   0.0555556   0.2245251   0.0000000), wk =   0.0493827
        k(    3) = (   0.0555556   0.3528252   0.0000000), wk =   0.0493827
        k(    4) = (   0.0555556   0.4811252   0.0000000), wk =   0.0493827
        k(    5) = (   0.0555556  -0.5452753   0.0000000), wk =   0.0493827
        k(    6) = (   0.0555556  -0.4169752   0.0000000), wk =   0.0493827
        k(    7) = (   0.0555556  -0.2886751   0.0000000), wk =   0.0493827
        k(    8) = (   0.0555556  -0.1603751   0.0000000), wk =   0.0493827
        k(    9) = (   0.0555556  -0.0320750   0.0000000), wk =   0.0246914
        k(   10) = (   0.1666667   0.2886751   0.0000000), wk =   0.0246914
        k(   11) = (   0.1666667   0.4169752   0.0000000), wk =   0.0493827
        k(   12) = (   0.1666667   0.5452753   0.0000000), wk =   0.0493827
        k(   13) = (   0.1666667  -0.4811252   0.0000000), wk =   0.0493827
        k(   14) = (   0.1666667  -0.3528252   0.0000000), wk =   0.0493827
        k(   15) = (   0.1666667  -0.2245251   0.0000000), wk =   0.0493827
        k(   16) = (   0.1666667  -0.0962250   0.0000000), wk =   0.0246914
        k(   17) = (   0.2777778   0.4811252   0.0000000), wk =   0.0246914
        k(   18) = (   0.2777778   0.6094253   0.0000000), wk =   0.0493827
        k(   19) = (   0.2777778  -0.4169752   0.0000000), wk =   0.0493827
        k(   20) = (   0.2777778  -0.2886751   0.0000000), wk =   0.0493827
        k(   21) = (   0.2777778  -0.1603751   0.0000000), wk =   0.0246914
        k(   22) = (   0.3888889   0.6735753   0.0000000), wk =   0.0246914
        k(   23) = (   0.3888889  -0.3528252   0.0000000), wk =   0.0493827
        k(   24) = (   0.3888889  -0.2245251   0.0000000), wk =   0.0246914
        k(   25) = (  -0.5000000  -0.8660254   0.0000000), wk =   0.0123457

     Dense  grid:   101117 G-vectors     FFT dimensions: (  27,  27, 300)

     Smooth grid:    35839 G-vectors     FFT dimensions: (  20,  20, 216)

     Estimated max dynamical RAM per process >      93.60 MB

     Estimated total dynamical RAM >     748.81 MB
     Generating pointlists ...
     new r_m :   0.4125 (alat units)  2.1131 (a.u.) for type    1

     Initial potential from superposition of free atoms

     starting charge   72.49951, renormalised to   75.00000

     negative rho (up, down):  1.412E-01 1.385E-01
     Starting wfcs are   60 randomized atomic wfcs

     total cpu time spent up to now is        3.2 secs

     Self-consistent Calculation

     iteration #  1     ecut=    35.00 Ry     beta= 0.40
     Davidson diagonalization with overlap
     ethr =  1.00E-02,  avg # of iterations =  3.4

     negative rho (up, down):  1.438E-01 1.425E-01

     total cpu time spent up to now is       10.1 secs

     total energy              =    -855.99271213 Ry
     estimated scf accuracy    <       3.58110981 Ry

     total magnetization       =     0.28 Bohr mag/cell
     absolute magnetization    =     0.29 Bohr mag/cell

     iteration #  2     ecut=    35.00 Ry     beta= 0.40
     Davidson diagonalization with overlap
     ethr =  4.77E-03,  avg # of iterations =  1.0

     negative rho (up, down):  1.483E-01 1.485E-01

     total cpu time spent up to now is       15.3 secs

     total energy              =    -855.71720168 Ry
     estimated scf accuracy    <       0.96993925 Ry

     total magnetization       =     0.27 Bohr mag/cell
     absolute magnetization    =     0.28 Bohr mag/cell

     iteration #  3     ecut=    35.00 Ry     beta= 0.40
     Davidson diagonalization with overlap
     ethr =  1.29E-03,  avg # of iterations =  2.0

     negative rho (up, down):  1.498E-01 1.505E-01

     total cpu time spent up to now is       21.5 secs

     total energy              =    -855.83709842 Ry
     estimated scf accuracy    <       0.10257969 Ry

     total magnetization       =     0.22 Bohr mag/cell
     absolute magnetization    =     0.23 Bohr mag/cell

     iteration #  4     ecut=    35.00 Ry     beta= 0.40
     Davidson diagonalization with overlap
     ethr =  1.37E-04,  avg # of iterations =  5.0

     negative rho (up, down):  1.505E-01 1.512E-01

     total cpu time spent up to now is       27.9 secs

     total energy              =    -855.84578166 Ry
     estimated scf accuracy    <       0.02773857 Ry

     total magnetization       =     0.19 Bohr mag/cell
     absolute magnetization    =     0.20 Bohr mag/cell

     iteration #  5     ecut=    35.00 Ry     beta= 0.40
     Davidson diagonalization with overlap
     ethr =  3.70E-05,  avg # of iterations =  2.2

     negative rho (up, down):  1.512E-01 1.519E-01

     total cpu time spent up to now is       33.4 secs

     total energy              =    -855.84662209 Ry
     estimated scf accuracy    <       0.00347970 Ry

     total magnetization       =     0.16 Bohr mag/cell
     absolute magnetization    =     0.17 Bohr mag/cell

     iteration #  6     ecut=    35.00 Ry     beta= 0.40
     Davidson diagonalization with overlap
     c_bands:  1 eigenvalues not converged
     ethr =  4.64E-06,  avg # of iterations =  9.1

     negative rho (up, down):  1.510E-01 1.516E-01

     total cpu time spent up to now is       40.4 secs

     total energy              =    -855.84643508 Ry
     estimated scf accuracy    <       0.00156937 Ry

     total magnetization       =     0.13 Bohr mag/cell
     absolute magnetization    =     0.14 Bohr mag/cell

     iteration #  7     ecut=    35.00 Ry     beta= 0.40
     Davidson diagonalization with overlap
     ethr =  2.09E-06,  avg # of iterations =  8.5

     negative rho (up, down):  1.498E-01 1.502E-01

     total cpu time spent up to now is       48.6 secs

     total energy              =    -855.84696278 Ry
     estimated scf accuracy    <       0.00230746 Ry

     total magnetization       =     0.08 Bohr mag/cell
     absolute magnetization    =     0.09 Bohr mag/cell

     iteration #  8     ecut=    35.00 Ry     beta= 0.40
     Davidson diagonalization with overlap
     ethr =  2.09E-06,  avg # of iterations =  4.6

     negative rho (up, down):  1.482E-01 1.481E-01

     total cpu time spent up to now is       54.8 secs

     total energy              =    -855.84651235 Ry
     estimated scf accuracy    <       0.00269589 Ry

     total magnetization       =     0.05 Bohr mag/cell
     absolute magnetization    =     0.06 Bohr mag/cell

     iteration #  9     ecut=    35.00 Ry     beta= 0.40
     Davidson diagonalization with overlap
     ethr =  2.09E-06,  avg # of iterations =  5.7

     negative rho (up, down):  1.471E-01 1.466E-01

     total cpu time spent up to now is       61.0 secs

     total energy              =    -855.84551248 Ry
     estimated scf accuracy    <       0.00167130 Ry

     total magnetization       =    -0.01 Bohr mag/cell
     absolute magnetization    =     0.03 Bohr mag/cell

     iteration # 10     ecut=    35.00 Ry     beta= 0.40
     Davidson diagonalization with overlap
     c_bands:  1 eigenvalues not converged
     c_bands:  1 eigenvalues not converged
     ethr =  2.09E-06,  avg # of iterations =  6.0

     negative rho (up, down):  1.457E-01 1.452E-01

     total cpu time spent up to now is       68.5 secs

     total energy              =    -855.84563379 Ry
     estimated scf accuracy    <       0.00063772 Ry

     total magnetization       =    -0.06 Bohr mag/cell
     absolute magnetization    =     0.06 Bohr mag/cell

     iteration # 11     ecut=    35.00 Ry     beta= 0.40
     Davidson diagonalization with overlap
     c_bands:  1 eigenvalues not converged
     c_bands:  1 eigenvalues not converged
     ethr =  8.50E-07,  avg # of iterations =  8.4

     negative rho (up, down):  1.454E-01 1.448E-01

     total cpu time spent up to now is       76.7 secs

     total energy              =    -855.84574878 Ry
     estimated scf accuracy    <       0.00015148 Ry

     total magnetization       =    -0.09 Bohr mag/cell
     absolute magnetization    =     0.10 Bohr mag/cell

     iteration # 12     ecut=    35.00 Ry     beta= 0.40
     Davidson diagonalization with overlap
     ethr =  2.02E-07,  avg # of iterations =  1.3

     negative rho (up, down):  1.439E-01 1.435E-01

     total cpu time spent up to now is       82.0 secs

     total energy              =    -855.84571869 Ry
     estimated scf accuracy    <       0.00003194 Ry

     total magnetization       =    -0.09 Bohr mag/cell
     absolute magnetization    =     0.10 Bohr mag/cell

     iteration # 13     ecut=    35.00 Ry     beta= 0.40
     Davidson diagonalization with overlap
     ethr =  4.26E-08,  avg # of iterations =  4.9

     negative rho (up, down):  1.437E-01 1.434E-01

     total cpu time spent up to now is       88.7 secs

     total energy              =    -855.84572524 Ry
     estimated scf accuracy    <       0.00001058 Ry

     total magnetization       =    -0.05 Bohr mag/cell
     absolute magnetization    =     0.06 Bohr mag/cell

     iteration # 14     ecut=    35.00 Ry     beta= 0.40
     Davidson diagonalization with overlap
     ethr =  1.41E-08,  avg # of iterations =  1.9

     negative rho (up, down):  1.436E-01 1.433E-01

     total cpu time spent up to now is       94.7 secs

     total energy              =    -855.84572647 Ry
     estimated scf accuracy    <       0.00000178 Ry

     total magnetization       =    -0.04 Bohr mag/cell
     absolute magnetization    =     0.05 Bohr mag/cell

     iteration # 15     ecut=    35.00 Ry     beta= 0.40
     Davidson diagonalization with overlap
     ethr =  2.38E-09,  avg # of iterations =  1.2

     negative rho (up, down):  1.434E-01 1.432E-01
 
     Magnetic moment per site:
     atom:    1    charge:   13.1750    magn:   -0.0145    constr:    0.0000
     atom:    2    charge:   13.2375    magn:   -0.0054    constr:    0.0000
     atom:    3    charge:   13.2465    magn:    0.0031    constr:    0.0000
     atom:    4    charge:   13.2378    magn:   -0.0054    constr:    0.0000
     atom:    5    charge:   13.1744    magn:   -0.0145    constr:    0.0000

     total cpu time spent up to now is       99.9 secs

     End of self-consistent calculation

 ------ SPIN UP ------------


          k = 0.0556 0.0962 0.0000 (  4451 PWs)   bands (ev):

   -42.4939 -42.2811 -42.0717 -42.0285 -42.0035 -41.9813 -41.9790 -41.9584
   -41.9332 -41.5979 -41.5944 -41.5774 -41.5763 -41.5452 -41.5451  -2.6756
    -1.7944  -1.1570  -0.7685  -0.7263   1.1667   1.1681   1.3234   1.6269
     1.6981   1.7466   1.7893   1.8185   1.9797   2.0519   2.1525   2.3283
     2.4123   2.5566   3.2670   3.3216   3.6138   3.6645   3.7310   3.9359
     4.2688   4.4702   4.9111   4.9360   6.0598   6.9112

          k = 0.0556 0.2245 0.0000 (  4420 PWs)   bands (ev):

   -42.4503 -42.2892 -42.1722 -42.1380 -42.0903 -42.0397 -42.0221 -41.9989
   -41.9620 -41.7041 -41.7036 -41.5846 -41.5825 -41.5783 -41.5779  -1.7813
    -1.0285  -0.5292  -0.1416  -0.0274   0.4804   0.8251   0.8753   1.0888
     1.5537   1.6965   1.8875   1.9347   2.0665   2.2672   2.4546   2.6115
     2.7731   2.8165   2.9952   3.1622   3.3772   3.4570   3.8080   4.0709
     4.3641   4.7050   4.9118   5.9209   7.5510   8.8240

          k = 0.0556 0.3528 0.0000 (  4467 PWs)   bands (ev):

   -42.4222 -42.3833 -42.3056 -42.2769 -42.1561 -42.0918 -42.0653 -42.0391
   -41.9990 -41.8609 -41.8586 -41.6224 -41.6223 -41.5726 -41.5714  -1.0181
    -0.7961  -0.5668  -0.3768  -0.1033   0.1635   0.3233   0.9268   1.2483
     1.5473   1.7628   1.8411   2.0879   2.4238   2.6724   2.8378   2.9869
     3.2430   3.5206   3.7366   3.8333   4.1238   4.3180   4.4518   4.6038
     4.6774   4.9841   5.3283   7.1192   9.1155  10.7703

          k = 0.0556 0.4811 0.0000 (  4463 PWs)   bands (ev):

   -42.5076 -42.4744 -42.4356 -42.2529 -42.1864 -42.1308 -42.1077 -42.0710
   -42.0289 -41.9659 -41.9589 -41.6556 -41.6554 -41.5636 -41.5633  -1.2133
    -1.0731  -0.8889  -0.7445  -0.3656  -0.1851  -0.0935   0.7421   1.2200
     1.4989   1.7553   2.1518   2.4354   2.6107   3.2121   3.5470   3.9554
     4.2156   4.3051   4.5982   4.7550   4.7944   4.9227   5.0846   5.2406
     5.8491   6.4976   6.9259   8.3853  10.2346  12.4301

          k = 0.0556-0.5453 0.0000 (  4486 PWs)   bands (ev):

   -42.5355 -42.4963 -42.4655 -42.2291 -42.2064 -42.1396 -42.1194 -42.0792
   -42.0363 -41.9881 -41.9774 -41.6633 -41.6630 -41.5619 -41.5617  -1.3228
    -1.1251  -0.9844  -0.8232  -0.4524  -0.2459  -0.1911   0.6948   1.1654
     1.4238   1.7113   2.2113   2.6070   2.6534   3.2876   3.7507   4.0998
     4.3221   4.6622   4.7890   4.9389   5.0156   5.1211   5.2417   5.3956
     6.5263   7.5894   8.0682   8.5717   9.4535  12.3412

          k = 0.0556-0.4170 0.0000 (  4465 PWs)   bands (ev):

   -42.4582 -42.4384 -42.3801 -42.2751 -42.1699 -42.1147 -42.0880 -42.0567
   -42.0162 -41.9230 -41.9194 -41.6417 -41.6414 -41.5673 -41.5667  -1.0207
    -0.9989  -0.7125  -0.6071  -0.2266  -0.0596   0.0879   0.8379   1.2770
     1.6422   1.7926   2.0477   2.0746   2.5972   2.9068   3.3469   3.5544
     3.6482   4.0459   4.1264   4.3133   4.5290   4.6506   4.7912   5.0165
     5.1841   5.4139   5.9936   7.7823   9.8568  11.7162

          k = 0.0556-0.2887 0.0000 (  4439 PWs)   bands (ev):

   -42.4272 -42.3226 -42.2382 -42.2199 -42.1338 -42.0647 -42.0427 -42.0197
   -41.9800 -41.7844 -41.7828 -41.6003 -41.6000 -41.5783 -41.5765  -1.2902
    -0.7615  -0.4760  -0.0711   0.0112   0.3674   0.5587   0.8331   1.0486
     1.4267   1.7682   1.9460   2.0109   2.1872   2.3730   2.4591   2.8216
     2.9074   3.0605   3.2968   3.4719   3.7129   3.8303   4.0628   4.2128
     4.4900   4.8625   4.9939   6.4989   8.3326   9.8034

          k = 0.0556-0.1604 0.0000 (  4443 PWs)   bands (ev):

   -42.4751 -42.2808 -42.1095 -42.0746 -42.0313 -42.0200 -42.0009 -41.9777
   -41.9461 -41.6334 -41.6331 -41.5906 -41.5874 -41.5594 -41.5592  -2.2874
    -1.4382  -0.8410  -0.4419  -0.4082   0.8465   0.9812   1.0992   1.4362
     1.5571   1.7682   1.9443   1.9647   2.0683   2.1149   2.1826   2.3122
     2.5890   2.7055   3.0675   3.2012   3.2771   3.4649   3.7310   3.9368
     4.3092   4.5821   4.8891   5.3864   6.7827   7.8405

          k = 0.0556-0.0321 0.0000 (  4465 PWs)   bands (ev):

   -42.5041 -42.2832 -42.0588 -42.0026 -41.9932 -41.9665 -41.9593 -41.9389
   -41.9259 -41.6007 -41.5953 -41.5492 -41.5489 -41.5380 -41.5375  -2.8825
    -1.9920  -1.3360  -0.9580  -0.9056   1.3183   1.3435   1.4558   1.6009
     1.6852   1.6918   1.7031   1.8277   1.8635   2.1302   2.1644   2.2120
     2.2610   2.8509   3.3935   3.3962   3.6580   3.6863   4.0651   4.0731
     4.2460   4.5469   4.6395   4.9573   5.4930   6.2027

          k = 0.1667 0.2887 0.0000 (  4425 PWs)   bands (ev):

   -42.4136 -42.3403 -42.2682 -42.2576 -42.1496 -42.0892 -42.0536 -42.0528
   -42.0104 -41.8163 -41.8154 -41.6335 -41.6329 -41.5736 -41.5726  -0.8566
    -0.4821  -0.0189   0.0576   0.1207   0.3341   0.5023   0.6381   1.1557
     1.2058   1.4401   1.6258   1.7256   1.7342   2.3210   2.4697   2.6777
     2.8949   3.3192   3.5262   3.7661   4.0807   4.3679   4.3750   4.7017
     4.7281   4.7988   5.4195   7.0480   8.9115  10.4699

          k = 0.1667 0.4170 0.0000 (  4459 PWs)   bands (ev):

   -42.4430 -42.4229 -42.3717 -42.2859 -42.1611 -42.1503 -42.1418 -42.0904
   -42.0490 -41.9127 -41.9123 -41.6960 -41.6956 -41.5639 -41.5638  -0.6597
    -0.5810  -0.3648  -0.1049   0.0098   0.1887   0.5213   0.8216   1.0614
     1.2231   1.4927   1.8737   2.0818   2.1665   2.4729   2.6889   2.9030
     3.2577   3.4778   3.7790   4.0039   4.3481   4.9307   4.9824   5.2002
     6.3735   6.6235   7.2774   8.7281  10.6014  12.3418

          k = 0.1667 0.5453 0.0000 (  4490 PWs)   bands (ev):

   -42.4989 -42.4594 -42.4307 -42.2522 -42.2049 -42.1760 -42.1727 -42.1032
   -42.0808 -41.9598 -41.9569 -41.7301 -41.7298 -41.5590 -41.5587  -0.9454
    -0.6624  -0.5579  -0.3137  -0.1040   0.1480   0.3015   0.7073   0.8505
     1.4312   1.7481   1.8991   2.1159   2.5758   2.6402   3.2826   3.4292
     3.5060   4.0108   4.2710   4.4379   4.5949   4.8420   4.9713   5.2111
     8.3010   8.9032   9.4460  10.1065  10.5841  12.6091

          k = 0.1667-0.4811 0.0000 (  4476 PWs)   bands (ev):

   -42.4782 -42.4472 -42.4101 -42.2677 -42.1806 -42.1685 -42.1661 -42.1005
   -42.0676 -41.9437 -41.9421 -41.7183 -41.7179 -41.5606 -41.5605  -0.8444
    -0.6307  -0.4902  -0.2404  -0.0459   0.1469   0.3931   0.7264   0.9853
     1.3242   1.7210   1.9289   2.0390   2.3649   2.7117   3.0457   3.1697
     3.3824   3.8905   4.0103   4.0969   4.4597   4.9457   5.0418   5.2961
     7.3671   7.7772   8.4381   9.6708  11.2373  12.8985

          k = 0.1667-0.3528 0.0000 (  4458 PWs)   bands (ev):

   -42.4155 -42.3836 -42.3197 -42.2932 -42.1570 -42.1215 -42.0976 -42.0737
   -42.0299 -41.8694 -41.8689 -41.6664 -41.6659 -41.5688 -41.5682  -0.5830
    -0.4705  -0.1969  -0.0564   0.0766   0.3611   0.5022   0.8205   0.9808
     1.2243   1.4640   1.6441   1.9286   2.0216   2.2394   2.3717   2.7915
     3.1154   3.2603   3.7020   3.9464   4.2122   4.6817   4.7806   4.9739
     5.4760   5.5809   6.2132   7.8076   9.7253  11.3918

          k = 0.1667-0.2245 0.0000 (  4433 PWs)   bands (ev):

   -42.4307 -42.3080 -42.2205 -42.1935 -42.1299 -42.0607 -42.0352 -42.0193
   -41.9871 -41.7592 -41.7582 -41.6028 -41.6026 -41.5794 -41.5778  -1.3315
    -0.7057  -0.2312   0.0568   0.1407   0.3630   0.5898   0.7792   0.9631
     1.3402   1.5370   1.6927   1.8265   1.9560   2.2489   2.5812   2.7350
     2.7714   3.0571   3.2913   3.4318   3.7544   3.8080   4.1555   4.1640
     4.3623   4.7835   4.9640   6.4343   8.1835   9.6043

          k = 0.1667-0.0962 0.0000 (  4427 PWs)   bands (ev):

   -42.4668 -42.2823 -42.1331 -42.0967 -42.0491 -42.0259 -42.0130 -41.9867
   -41.9470 -41.6596 -41.6591 -41.5885 -41.5857 -41.5641 -41.5639  -2.1134
    -1.2945  -0.7383  -0.3427  -0.2605   0.6662   0.9843   1.0145   1.2746
     1.6168   1.7996   1.9720   2.0030   2.0772   2.1864   2.2693   2.4108
     2.5925   2.8283   2.8748   3.1547   3.2398   3.4589   3.6714   4.0756
     4.2264   4.6465   4.9985   5.5212   7.0573   8.2001

          k = 0.2778 0.4811 0.0000 (  4485 PWs)   bands (ev):

   -42.4371 -42.4325 -42.3720 -42.3193 -42.2305 -42.2248 -42.1546 -42.1459
   -42.0824 -41.9208 -41.9196 -41.7902 -41.7895 -41.5577 -41.5576  -0.4486
    -0.4155  -0.0914   0.1581   0.3697   0.4261   0.5386   0.5780   1.0093
     1.2280   1.5737   1.6547   2.1369   2.2315   2.3834   2.4544   2.9456
     3.1497   3.5027   3.6295   4.0225   4.4738   4.8593   4.9783   5.1775
     8.7016   9.1872   9.9982  11.2035  12.6280  13.1381

          k = 0.2778 0.6094 0.0000 (  4491 PWs)   bands (ev):

   -42.4345 -42.4122 -42.3715 -42.3285 -42.2756 -42.2513 -42.1511 -42.1389
   -42.0976 -41.9121 -41.9114 -41.8229 -41.8222 -41.5561 -41.5559  -0.4579
    -0.2267   0.0078   0.1228   0.2570   0.4293   0.5357   0.6614   0.9764
     1.3461   1.5666   1.7019   2.0895   2.1463   2.4517   2.4879   2.9306
     3.2277   3.5071   3.6507   4.2877   4.4998   4.7159   4.8330   4.9564
     9.9374  10.4898  11.1034  11.6063  12.2599  12.7554

          k = 0.2778-0.4170 0.0000 (  4462 PWs)   bands (ev):

   -42.4464 -42.4304 -42.3807 -42.2947 -42.1902 -42.1820 -42.1561 -42.1328
   -42.0653 -41.9226 -41.9211 -41.7442 -41.7433 -41.5603 -41.5598  -0.5791
    -0.4422  -0.2253   0.0317   0.2090   0.3410   0.5367   0.8644   0.9828
     1.0465   1.5581   1.7205   2.1038   2.2637   2.3663   2.5409   2.8561
     3.1877   3.5100   3.7645   3.8407   4.4113   4.9572   5.0813   5.2871
     7.5067   7.8621   8.6018   9.9164  11.6213  13.2404

          k = 0.2778-0.2887 0.0000 (  4463 PWs)   bands (ev):

   -42.4303 -42.4091 -42.3447 -42.2845 -42.1604 -42.1182 -42.0997 -42.0542
   -42.0274 -41.8921 -41.8907 -41.6538 -41.6536 -41.5682 -41.5675  -0.7985
    -0.7185  -0.4948  -0.3200  -0.0444   0.1168   0.3997   0.8244   1.1609
     1.4830   1.5650   1.8396   2.0979   2.2612   2.6211   2.8183   2.9576
     3.2767   3.4846   3.8109   4.0599   4.3898   4.6104   4.7782   5.0013
     5.3534   5.5244   6.1263   7.7812   9.7643  11.4959

          k = 0.2778-0.1604 0.0000 (  4458 PWs)   bands (ev):

   -42.4227 -42.3504 -42.2629 -42.2578 -42.1458 -42.0750 -42.0467 -42.0291
   -41.9819 -41.8225 -41.8198 -41.6050 -41.6048 -41.5761 -41.5745  -1.1891
    -0.8127  -0.5908  -0.2441  -0.1049   0.2428   0.4060   0.9622   1.2407
     1.5280   1.7606   2.0208   2.0519   2.4725   2.6180   2.6819   2.8349
     3.0853   3.3984   3.4065   3.7038   3.7111   3.9118   4.0889   4.2467
     4.6507   4.9141   5.0509   6.7055   8.6415  10.1978

          k = 0.3889 0.6736 0.0000 (  4511 PWs)   bands (ev):

   -42.4708 -42.4322 -42.4049 -42.2872 -42.2473 -42.2072 -42.1674 -42.1294
   -42.0898 -41.9388 -41.9378 -41.7805 -41.7796 -41.5574 -41.5570  -0.7224
    -0.3625  -0.1942  -0.1118   0.1877   0.3077   0.4285   0.7081   0.9291
     1.2222   1.6706   1.9012   1.9899   2.2677   2.6735   2.8530   2.9725
     3.2892   3.7512   3.9592   4.4469   4.4802   4.7170   4.9066   5.0415
     9.4819   9.9276  10.3418  10.8261  11.2874  12.7693

          k = 0.3889-0.3528 0.0000 (  4485 PWs)   bands (ev):

   -42.5117 -42.4745 -42.4421 -42.2439 -42.1924 -42.1534 -42.1416 -42.0773
   -42.0610 -41.9689 -41.9637 -41.6868 -41.6866 -41.5615 -41.5611  -1.1154
    -0.9185  -0.8008  -0.5734  -0.2806  -0.0524   0.0337   0.6990   1.0611
     1.5123   1.7477   1.9651   2.3118   2.6685   2.9351   3.5296   3.7081
     3.9397   4.1939   4.4899   4.5558   4.6564   4.9612   5.0394   5.3069
     7.0404   7.6808   8.1658   9.1830  10.4235  12.5490

          k = 0.3889-0.2245 0.0000 (  4444 PWs)   bands (ev):

   -42.4877 -42.4610 -42.4131 -42.2639 -42.1793 -42.1168 -42.0873 -42.0658
   -42.0132 -41.9498 -41.9435 -41.6405 -41.6403 -41.5656 -41.5651  -1.1899
    -1.1021  -0.8484  -0.7593  -0.3538  -0.1910  -0.0628   0.8019   1.2970
     1.5371   1.7869   2.2264   2.4017   2.4927   3.3373   3.4052   3.9391
     4.2179   4.3177   4.5777   4.6963   4.7710   4.7837   4.9695   5.0871
     5.2004   5.5181   6.0759   7.9308  10.0186  12.0550

          k =-0.5000-0.8660 0.0000 (  4492 PWs)   bands (ev):

   -42.5440 -42.5044 -42.4740 -42.2198 -42.2167 -42.1339 -42.1118 -42.0803
   -42.0257 -41.9963 -41.9818 -41.6548 -41.6546 -41.5624 -41.5620  -1.3999
    -1.1976  -1.0434  -0.9107  -0.5204  -0.3335  -0.2462   0.6865   1.2133
     1.3778   1.6841   2.4223   2.5039   2.7665   3.4035   3.7941   4.2649
     4.3508   4.8757   5.0151   5.0362   5.1192   5.2640   5.5312   5.5453
     6.1001   7.5297   8.1498   8.5116   8.6888  12.2599

 ------ SPIN DOWN ----------


          k = 0.0556 0.0962 0.0000 (  4451 PWs)   bands (ev):

   -42.4952 -42.2875 -42.0749 -42.0310 -42.0057 -41.9864 -41.9830 -41.9618
   -41.9344 -41.6161 -41.6121 -41.5910 -41.5900 -41.5587 -41.5585  -2.6757
    -1.7949  -1.1572  -0.7723  -0.7307   1.1634   1.1641   1.3216   1.6216
     1.6921   1.7424   1.7839   1.8141   1.9741   2.0447   2.1442   2.3188
     2.4040   2.5497   3.2624   3.3167   3.6058   3.6551   3.7227   3.9262
     4.2614   4.4591   4.9031   4.9287   6.0525   6.9071

          k = 0.0556 0.2245 0.0000 (  4420 PWs)   bands (ev):

   -42.4515 -42.2938 -42.1778 -42.1441 -42.0900 -42.0418 -42.0245 -42.0050
   -41.9632 -41.7174 -41.7169 -41.6030 -41.6006 -41.5918 -41.5915  -1.7816
    -1.0293  -0.5301  -0.1453  -0.0308   0.4767   0.8212   0.8722   1.0824
     1.5493   1.6883   1.8798   1.9298   2.0635   2.2610   2.4508   2.6035
     2.7661   2.8097   2.9869   3.1546   3.3684   3.4489   3.8006   4.0630
     4.3541   4.6943   4.9049   5.9147   7.5448   8.8203

          k = 0.0556 0.3528 0.0000 (  4467 PWs)   bands (ev):

   -42.4241 -42.3839 -42.3118 -42.2826 -42.1595 -42.0938 -42.0689 -42.0438
   -42.0003 -41.8738 -41.8712 -41.6358 -41.6357 -41.5914 -41.5901  -1.0193
    -0.7975  -0.5688  -0.3800  -0.1082   0.1588   0.3175   0.9214   1.2436
     1.5432   1.7563   1.8375   2.0816   2.4164   2.6646   2.8310   2.9807
     3.2362   3.5138   3.7290   3.8264   4.1192   4.3119   4.4413   4.5944
     4.6692   4.9769   5.3215   7.1137   9.1104  10.7668

          k = 0.0556 0.4811 0.0000 (  4463 PWs)   bands (ev):

   -42.5103 -42.4750 -42.4419 -42.2572 -42.1916 -42.1329 -42.1116 -42.0760
   -42.0305 -41.9776 -41.9698 -41.6689 -41.6688 -41.5826 -41.5823  -1.2150
    -1.0750  -0.8903  -0.7487  -0.3712  -0.1907  -0.1001   0.7367   1.2131
     1.4952   1.7512   2.1438   2.4303   2.6026   3.2034   3.5392   3.9480
     4.2051   4.2995   4.5891   4.7494   4.7872   4.9190   5.0743   5.2331
     5.8435   6.4941   6.9223   8.3814  10.2315  12.4251

          k = 0.0556-0.5453 0.0000 (  4486 PWs)   bands (ev):

   -42.5381 -42.4969 -42.4719 -42.2346 -42.2109 -42.1418 -42.1232 -42.0844
   -42.0382 -41.9993 -41.9877 -41.6767 -41.6763 -41.5809 -41.5807  -1.3244
    -1.1273  -0.9855  -0.8274  -0.4580  -0.2515  -0.1981   0.6894   1.1584
     1.4198   1.7072   2.2034   2.6000   2.6472   3.2792   3.7399   4.0931
     4.3106   4.6577   4.7831   4.9299   5.0094   5.1169   5.2323   5.3860
     6.5225   7.5869   8.0660   8.5687   9.4517  12.3373

          k = 0.0556-0.4170 0.0000 (  4465 PWs)   bands (ev):

   -42.4614 -42.4384 -42.3862 -42.2795 -42.1746 -42.1167 -42.0919 -42.0614
   -42.0176 -41.9353 -41.9313 -41.6551 -41.6548 -41.5862 -41.5856  -1.0226
    -1.0002  -0.7142  -0.6111  -0.2320  -0.0648   0.0816   0.8324   1.2711
     1.6383   1.7880   2.0427   2.0671   2.5891   2.8989   3.3411   3.5491
     3.6396   4.0379   4.1164   4.3070   4.5240   4.6436   4.7824   5.0099
     5.1761   5.4083   5.9883   7.7774   9.8523  11.7126

          k = 0.0556-0.2887 0.0000 (  4439 PWs)   bands (ev):

   -42.4284 -42.3248 -42.2448 -42.2263 -42.1351 -42.0668 -42.0454 -42.0251
   -41.9813 -41.7976 -41.7958 -41.6137 -41.6134 -41.5969 -41.5950  -1.2909
    -0.7626  -0.4774  -0.0740   0.0065   0.3646   0.5528   0.8289   1.0435
     1.4213   1.7620   1.9411   2.0068   2.1810   2.3652   2.4511   2.8133
     2.9022   3.0540   3.2913   3.4643   3.7071   3.8218   4.0531   4.2055
     4.4792   4.8533   4.9874   6.4929   8.3269   9.7998

          k = 0.0556-0.1604 0.0000 (  4443 PWs)   bands (ev):

   -42.4763 -42.2868 -42.1142 -42.0784 -42.0323 -42.0222 -42.0042 -41.9835
   -41.9473 -41.6470 -41.6466 -41.6088 -41.6053 -41.5728 -41.5726  -2.2875
    -1.4388  -0.8414  -0.4457  -0.4123   0.8426   0.9772   1.0974   1.4302
     1.5514   1.7593   1.9395   1.9604   2.0660   2.1083   2.1760   2.3064
     2.5801   2.6981   3.0594   3.1947   3.2670   3.4576   3.7233   3.9284
     4.3007   4.5707   4.8815   5.3801   6.7759   7.8366

          k = 0.0556-0.0321 0.0000 (  4465 PWs)   bands (ev):

   -42.5055 -42.2897 -42.0612 -42.0048 -41.9951 -41.9725 -41.9657 -41.9401
   -41.9272 -41.6191 -41.6132 -41.5626 -41.5623 -41.5514 -41.5510  -2.8826
    -1.9925  -1.3361  -0.9619  -0.9099   1.3153   1.3398   1.4538   1.5979
     1.6787   1.6909   1.6987   1.8222   1.8533   2.1219   2.1551   2.2023
     2.2523   2.8439   3.3897   3.3927   3.6508   3.6784   4.0572   4.0626
     4.2349   4.5431   4.6264   4.9495   5.4855   6.1986

          k = 0.1667 0.2887 0.0000 (  4425 PWs)   bands (ev):

   -42.4148 -42.3414 -42.2743 -42.2639 -42.1524 -42.0931 -42.0588 -42.0534
   -42.0120 -41.8293 -41.8284 -41.6469 -41.6463 -41.5922 -41.5912  -0.8575
    -0.4828  -0.0224   0.0561   0.1193   0.3308   0.4965   0.6323   1.1529
     1.2003   1.4330   1.6167   1.7176   1.7299   2.3166   2.4621   2.6693
     2.8865   3.3141   3.5191   3.7572   4.0729   4.3628   4.3648   4.6920
     4.7210   4.7927   5.4125   7.0422   8.9061  10.4665

          k = 0.1667 0.4170 0.0000 (  4459 PWs)   bands (ev):

   -42.4463 -42.4223 -42.3781 -42.2896 -42.1661 -42.1550 -42.1457 -42.0917
   -42.0511 -41.9249 -41.9246 -41.7093 -41.7089 -41.5828 -41.5827  -0.6615
    -0.5826  -0.3666  -0.1088   0.0057   0.1830   0.5168   0.8156   1.0563
     1.2182   1.4888   1.8682   2.0737   2.1601   2.4659   2.6821   2.8953
     3.2517   3.4716   3.7687   3.9939   4.3373   4.9243   4.9736   5.1947
     6.3699   6.6172   7.2721   8.7231  10.5969  12.3383

          k = 0.1667 0.5453 0.0000 (  4490 PWs)   bands (ev):

   -42.5014 -42.4600 -42.4371 -42.2556 -42.2073 -42.1819 -42.1789 -42.1046
   -42.0828 -41.9715 -41.9684 -41.7434 -41.7430 -41.5780 -41.5777  -0.9473
    -0.6646  -0.5591  -0.3182  -0.1095   0.1418   0.2967   0.7014   0.8464
     1.4260   1.7406   1.8917   2.1119   2.5690   2.6336   3.2750   3.4220
     3.4992   4.0010   4.2653   4.4287   4.5808   4.8356   4.9641   5.2059
     8.2984   8.8997   9.4427  10.1030  10.5820  12.6015

          k = 0.1667-0.4811 0.0000 (  4476 PWs)   bands (ev):

   -42.4810 -42.4475 -42.4165 -42.2710 -42.1832 -42.1744 -42.1721 -42.1018
   -42.0698 -41.9555 -41.9540 -41.7316 -41.7311 -41.5796 -41.5795  -0.8463
    -0.6327  -0.4917  -0.2446  -0.0511   0.1412   0.3883   0.7205   0.9808
     1.3193   1.7153   1.9219   2.0336   2.3582   2.7049   3.0387   3.1629
     3.3752   3.8820   4.0019   4.0886   4.4476   4.9381   5.0341   5.2906
     7.3641   7.7722   8.4337   9.6664  11.2341  12.8950

          k = 0.1667-0.3528 0.0000 (  4458 PWs)   bands (ev):

   -42.4179 -42.3833 -42.3261 -42.2982 -42.1613 -42.1261 -42.1014 -42.0750
   -42.0318 -41.8821 -41.8815 -41.6797 -41.6792 -41.5876 -41.5870  -0.5849
    -0.4712  -0.1989  -0.0593   0.0731   0.3551   0.4990   0.8157   0.9754
     1.2189   1.4590   1.6388   1.9208   2.0144   2.2334   2.3642   2.7842
     3.1076   3.2545   3.6939   3.9353   4.2022   4.6749   4.7734   4.9677
     5.4714   5.5731   6.2072   7.8021   9.7203  11.3885

          k = 0.1667-0.2245 0.0000 (  4433 PWs)   bands (ev):

   -42.4318 -42.3110 -42.2267 -42.1999 -42.1307 -42.0637 -42.0375 -42.0243
   -41.9884 -41.7724 -41.7713 -41.6163 -41.6160 -41.5979 -41.5961  -1.3319
    -0.7064  -0.2325   0.0543   0.1375   0.3597   0.5849   0.7744   0.9581
     1.3359   1.5293   1.6842   1.8202   1.9516   2.2439   2.5734   2.7270
     2.7630   3.0528   3.2853   3.4237   3.7480   3.8009   4.1469   4.1552
     4.3505   4.7767   4.9559   6.4282   8.1776   9.6007

          k = 0.1667-0.0962 0.0000 (  4427 PWs)   bands (ev):

   -42.4680 -42.2878 -42.1381 -42.1018 -42.0489 -42.0278 -42.0159 -41.9931
   -41.9484 -41.6731 -41.6726 -41.6068 -41.6038 -41.5775 -41.5773  -2.1135
    -1.2951  -0.7389  -0.3466  -0.2643   0.6626   0.9804   1.0119   1.2681
     1.6114   1.7909   1.9666   2.0001   2.0709   2.1845   2.2627   2.4051
     2.5843   2.8208   2.8661   3.1444   3.2328   3.4503   3.6637   4.0685
     4.2179   4.6341   4.9911   5.5152   7.0508   8.1963

          k = 0.2778 0.4811 0.0000 (  4485 PWs)   bands (ev):

   -42.4414 -42.4320 -42.3776 -42.3212 -42.2356 -42.2312 -42.1552 -42.1510
   -42.0835 -41.9332 -41.9319 -41.8033 -41.8026 -41.5768 -41.5766  -0.4491
    -0.4192  -0.0945   0.1552   0.3661   0.4223   0.5328   0.5730   1.0044
     1.2229   1.5675   1.6504   2.1277   2.2229   2.3753   2.4466   2.9412
     3.1455   3.4961   3.6195   4.0130   4.4590   4.8508   4.9719   5.1725
     8.6993   9.1823   9.9939  11.1991  12.6248  13.1363

          k = 0.2778 0.6094 0.0000 (  4491 PWs)   bands (ev):

   -42.4370 -42.4134 -42.3761 -42.3312 -42.2807 -42.2567 -42.1549 -42.1426
   -42.0980 -41.9247 -41.9239 -41.8358 -41.8350 -41.5752 -41.5750  -0.4598
    -0.2291   0.0049   0.1205   0.2535   0.4238   0.5307   0.6566   0.9713
     1.3413   1.5608   1.6978   2.0798   2.1372   2.4428   2.4795   2.9271
     3.2241   3.4994   3.6423   4.2764   4.4828   4.7104   4.8271   4.9513
     9.9355  10.4859  11.1005  11.6031  12.2565  12.7534

          k = 0.2778-0.4170 0.0000 (  4462 PWs)   bands (ev):

   -42.4498 -42.4301 -42.3869 -42.2973 -42.1965 -42.1881 -42.1590 -42.1337
   -42.0670 -41.9349 -41.9333 -41.7574 -41.7565 -41.5793 -41.5788  -0.5809
    -0.4441  -0.2279   0.0279   0.2052   0.3353   0.5327   0.8601   0.9773
     1.0412   1.5539   1.7143   2.0951   2.2568   2.3588   2.5338   2.8496
     3.1829   3.5031   3.7540   3.8318   4.3983   4.9486   5.0741   5.2821
     7.5040   7.8564   8.5970   9.9117  11.6172  13.2368

          k = 0.2778-0.2887 0.0000 (  4463 PWs)   bands (ev):

   -42.4333 -42.4088 -42.3510 -42.2892 -42.1646 -42.1208 -42.1044 -42.0572
   -42.0289 -41.9047 -41.9030 -41.6671 -41.6670 -41.5870 -41.5863  -0.8001
    -0.7199  -0.4964  -0.3238  -0.0489   0.1112   0.3945   0.8187   1.1558
     1.4791   1.5598   1.8351   2.0906   2.2540   2.6141   2.8117   2.9504
     3.2692   3.4789   3.8013   4.0497   4.3813   4.6042   4.7707   4.9948
     5.3474   5.5177   6.1204   7.7760   9.7595  11.4924

          k = 0.2778-0.1604 0.0000 (  4458 PWs)   bands (ev):

   -42.4240 -42.3518 -42.2694 -42.2641 -42.1481 -42.0769 -42.0484 -42.0356
   -41.9833 -41.8356 -41.8327 -41.6184 -41.6182 -41.5947 -41.5931  -1.1900
    -0.8141  -0.5926  -0.2470  -0.1099   0.2389   0.3999   0.9572   1.2363
     1.5234   1.7548   2.0179   2.0453   2.4643   2.6106   2.6747   2.8279
     3.0801   3.3930   3.3996   3.7008   3.7026   3.9029   4.0783   4.2392
     4.6396   4.9061   5.0440   6.6997   8.6360  10.1943

          k = 0.3889 0.6736 0.0000 (  4511 PWs)   bands (ev):

   -42.4732 -42.4329 -42.4111 -42.2892 -42.2520 -42.2134 -42.1717 -42.1317
   -42.0909 -41.9509 -41.9499 -41.7936 -41.7927 -41.5764 -41.5761  -0.7244
    -0.3644  -0.1956  -0.1164   0.1830   0.3025   0.4236   0.7038   0.9235
     1.2168   1.6640   1.8962   1.9812   2.2605   2.6686   2.8446   2.9652
     3.2832   3.7429   3.9530   4.4347   4.4659   4.7115   4.8987   5.0374
     9.4799   9.9248  10.3387  10.8222  11.2847  12.7628

          k = 0.3889-0.3528 0.0000 (  4485 PWs)   bands (ev):

   -42.5143 -42.4751 -42.4485 -42.2483 -42.1963 -42.1568 -42.1471 -42.0805
   -42.0628 -41.9803 -41.9747 -41.7001 -41.6999 -41.5805 -41.5801  -1.1171
    -0.9208  -0.8019  -0.5776  -0.2861  -0.0588   0.0281   0.6934   1.0557
     1.5086   1.7412   1.9573   2.3074   2.6611   2.9272   3.5228   3.7002
     3.9329   4.1827   4.4814   4.5509   4.6461   4.9543   5.0318   5.3004
     7.0369   7.6771   8.1624   9.1793  10.4213  12.5424

          k = 0.3889-0.2245 0.0000 (  4444 PWs)   bands (ev):

   -42.4905 -42.4615 -42.4192 -42.2682 -42.1844 -42.1187 -42.0897 -42.0722
   -42.0145 -41.9619 -41.9548 -41.6539 -41.6537 -41.5846 -41.5839  -1.1916
    -1.1037  -0.8501  -0.7634  -0.3595  -0.1962  -0.0694   0.7965   1.2902
     1.5325   1.7840   2.2189   2.3958   2.4844   3.3277   3.3980   3.9318
     4.2087   4.3125   4.5743   4.6901   4.7659   4.7747   4.9617   5.0757
     5.1916   5.5156   6.0721   7.9265  10.0146  12.0510

          k =-0.5000-0.8660 0.0000 (  4492 PWs)   bands (ev):

   -42.5466 -42.5050 -42.4805 -42.2273 -42.2197 -42.1359 -42.1143 -42.0867
   -42.0271 -42.0080 -41.9918 -41.6682 -41.6679 -41.5814 -41.5810  -1.4015
    -1.1997  -1.0445  -0.9150  -0.5261  -0.3392  -0.2532   0.6811   1.2051
     1.3739   1.6813   2.4138   2.4969   2.7601   3.3962   3.7806   4.2594
     4.3388   4.8697   5.0059   5.0347   5.1129   5.2611   5.5191   5.5336
     6.0973   7.5283   8.1472   8.5095   8.6871  12.2505

     the Fermi energy is     4.4736 ev

!    total energy              =    -855.84572721 Ry
     estimated scf accuracy    <       0.00000099 Ry
     smearing contrib. (-TS)   =      -0.02249704 Ry
     internal energy E=F+TS    =    -855.82323017 Ry

     The total energy is F=E-TS. E is the sum of the following terms:
     one-electron contribution =  -11767.00284758 Ry
     hartree contribution      =    5905.69229879 Ry
     xc contribution           =    -149.47863348 Ry
     ewald contribution        =    5154.96595210 Ry

     total magnetization       =    -0.04 Bohr mag/cell
     absolute magnetization    =     0.05 Bohr mag/cell

     convergence has been achieved in  15 iterations

     negative rho (up, down):  1.434E-01 1.432E-01

     Forces acting on atoms (cartesian axes, Ry/au):

     atom    1 type  1   force =     0.00000000    0.00000000    0.01176235
     atom    2 type  1   force =     0.00000000    0.00000000   -0.00886510
     atom    3 type  1   force =     0.00000000    0.00000000   -0.00000965
     atom    4 type  1   force =     0.00000000    0.00000000    0.00886369
     atom    5 type  1   force =     0.00000000    0.00000000   -0.01175129

     Total force =     0.020823     Total SCF correction =     0.002101
     SCF correction compared to forces is large: reduce conv_thr to get better values

     BFGS Geometry Optimization
     Energy error            =      0.0E+00
     Gradient error          =      1.2E-02

     number of scf cycles    =   1
     number of bfgs steps    =   0

     energy   new            =    -855.8457272087 Ry

     new trust radius        =       0.0117623506 bohr
     new conv_thr            =       0.0000010000 Ry


ATOMIC_POSITIONS (angstrom)
Rh            0.0000000000        0.0000000000        0.0062243679
Rh            1.3554284000       -0.7825569000        2.2087140892
Rh            1.3554284000        0.7825569000        4.4268054956
Rh            0.0000000000        0.0000000000        6.6449063623
Rh            1.3554284000       -0.7825569000        8.8474026850



     Writing output data file /home/STUDENTI/leonardo.razzai/Rh_work/surf_111/5-L.save/
     NEW-OLD atomic charge density approx. for the potential

     negative rho (up, down):  1.441E-01 1.440E-01
     Generating pointlists ...

     total cpu time spent up to now is      101.5 secs

     Self-consistent Calculation

     iteration #  1     ecut=    35.00 Ry     beta= 0.40
     Davidson diagonalization with overlap
     ethr =  1.00E-06,  avg # of iterations =  6.0

     negative rho (up, down):  1.441E-01 1.440E-01

     total cpu time spent up to now is      112.1 secs

     total energy              =    -855.84607118 Ry
     estimated scf accuracy    <       0.00082369 Ry

     total magnetization       =    -0.03 Bohr mag/cell
     absolute magnetization    =     0.04 Bohr mag/cell

     iteration #  2     ecut=    35.00 Ry     beta= 0.40
     Davidson diagonalization with overlap
     ethr =  1.10E-06,  avg # of iterations =  1.0

     negative rho (up, down):  1.441E-01 1.440E-01

     total cpu time spent up to now is      117.5 secs

     total energy              =    -855.84610101 Ry
     estimated scf accuracy    <       0.00011457 Ry

     total magnetization       =    -0.03 Bohr mag/cell
     absolute magnetization    =     0.03 Bohr mag/cell

     iteration #  3     ecut=    35.00 Ry     beta= 0.40
     Davidson diagonalization with overlap
     ethr =  1.53E-07,  avg # of iterations =  1.0

     negative rho (up, down):  1.441E-01 1.440E-01

     total cpu time spent up to now is      122.7 secs

     total energy              =    -855.84609923 Ry
     estimated scf accuracy    <       0.00008135 Ry

     total magnetization       =    -0.02 Bohr mag/cell
     absolute magnetization    =     0.03 Bohr mag/cell

     iteration #  4     ecut=    35.00 Ry     beta= 0.40
     Davidson diagonalization with overlap
     ethr =  1.08E-07,  avg # of iterations =  1.0

     negative rho (up, down):  1.441E-01 1.440E-01

     total cpu time spent up to now is      128.1 secs

     total energy              =    -855.84609664 Ry
     estimated scf accuracy    <       0.00002770 Ry

     total magnetization       =    -0.02 Bohr mag/cell
     absolute magnetization    =     0.03 Bohr mag/cell

     iteration #  5     ecut=    35.00 Ry     beta= 0.40
     Davidson diagonalization with overlap
     ethr =  3.69E-08,  avg # of iterations =  1.4

     negative rho (up, down):  1.441E-01 1.440E-01

     total cpu time spent up to now is      133.5 secs

     total energy              =    -855.84609869 Ry
     estimated scf accuracy    <       0.00000241 Ry

     total magnetization       =    -0.02 Bohr mag/cell
     absolute magnetization    =     0.02 Bohr mag/cell

     iteration #  6     ecut=    35.00 Ry     beta= 0.40
     Davidson diagonalization with overlap
     ethr =  3.21E-09,  avg # of iterations =  1.6

     negative rho (up, down):  1.441E-01 1.440E-01

     total cpu time spent up to now is      139.0 secs

     total energy              =    -855.84609869 Ry
     estimated scf accuracy    <       0.00000170 Ry

     total magnetization       =    -0.02 Bohr mag/cell
     absolute magnetization    =     0.02 Bohr mag/cell

     iteration #  7     ecut=    35.00 Ry     beta= 0.40
     Davidson diagonalization with overlap
     ethr =  2.27E-09,  avg # of iterations =  1.2

     negative rho (up, down):  1.441E-01 1.440E-01

     total cpu time spent up to now is      144.3 secs

     total energy              =    -855.84609884 Ry
     estimated scf accuracy    <       0.00000115 Ry

     total magnetization       =    -0.01 Bohr mag/cell
     absolute magnetization    =     0.02 Bohr mag/cell

     iteration #  8     ecut=    35.00 Ry     beta= 0.40
     Davidson diagonalization with overlap
     ethr =  1.53E-09,  avg # of iterations =  1.1

     negative rho (up, down):  1.441E-01 1.441E-01

     total cpu time spent up to now is      149.7 secs

     total energy              =    -855.84609869 Ry
     estimated scf accuracy    <       0.00000103 Ry

     total magnetization       =    -0.01 Bohr mag/cell
     absolute magnetization    =     0.01 Bohr mag/cell

     iteration #  9     ecut=    35.00 Ry     beta= 0.40
     Davidson diagonalization with overlap
     ethr =  1.37E-09,  avg # of iterations =  1.9

     negative rho (up, down):  1.441E-01 1.441E-01
 
     Magnetic moment per site:
     atom:    1    charge:   13.1784    magn:   -0.0008    constr:    0.0000
     atom:    2    charge:   13.2395    magn:   -0.0003    constr:    0.0000
     atom:    3    charge:   13.2440    magn:    0.0002    constr:    0.0000
     atom:    4    charge:   13.2398    magn:   -0.0003    constr:    0.0000
     atom:    5    charge:   13.1777    magn:   -0.0008    constr:    0.0000

     total cpu time spent up to now is      155.3 secs

     End of self-consistent calculation

 ------ SPIN UP ------------


          k = 0.0556 0.0962 0.0000 (  4451 PWs)   bands (ev):

   -42.4938 -42.2976 -42.0797 -42.0327 -42.0070 -41.9906 -41.9861 -41.9638
   -41.9348 -41.6217 -41.6176 -41.5976 -41.5965 -41.5655 -41.5654  -2.6796
    -1.8128  -1.1559  -0.7894  -0.7495   1.1512   1.1686   1.3226   1.6079
     1.6810   1.7421   1.7836   1.8194   1.9623   2.0366   2.1346   2.3013
     2.3904   2.5447   3.2619   3.3132   3.5979   3.6539   3.7119   3.9278
     4.2563   4.4572   4.9051   4.9265   6.0586   6.9098

          k = 0.0556 0.2245 0.0000 (  4420 PWs)   bands (ev):

   -42.4498 -42.3008 -42.1835 -42.1490 -42.0905 -42.0432 -42.0275 -42.0098
   -41.9639 -41.7240 -41.7235 -41.6086 -41.6062 -41.5986 -41.5982  -1.7851
    -1.0455  -0.5320  -0.1624  -0.0457   0.4709   0.8054   0.8753   1.0624
     1.5380   1.6858   1.8733   1.9271   2.0630   2.2559   2.4488   2.5882
     2.7518   2.8045   2.9836   3.1420   3.3662   3.4477   3.7972   4.0600
     4.3541   4.7010   4.9055   5.9141   7.5516   8.8227

          k = 0.0556 0.3528 0.0000 (  4467 PWs)   bands (ev):

   -42.4223 -42.3839 -42.3171 -42.2899 -42.1661 -42.0945 -42.0727 -42.0478
   -42.0013 -41.8797 -41.8769 -41.6426 -41.6425 -41.5976 -41.5962  -1.0216
    -0.7997  -0.5813  -0.3866  -0.1285   0.1408   0.3038   0.9077   1.2390
     1.5390   1.7503   1.8358   2.0774   2.4041   2.6471   2.8200   2.9724
     3.2268   3.5151   3.7327   3.8192   4.1146   4.3031   4.4415   4.5976
     4.6695   4.9794   5.3230   7.1185   9.1145  10.7680

          k = 0.0556 0.4811 0.0000 (  4463 PWs)   bands (ev):

   -42.5110 -42.4738 -42.4472 -42.2635 -42.1997 -42.1336 -42.1150 -42.0797
   -42.0318 -41.9823 -41.9745 -41.6756 -41.6755 -41.5894 -41.5890  -1.2170
    -1.0771  -0.8910  -0.7670  -0.3918  -0.2084  -0.1186   0.7245   1.2121
     1.4937   1.7484   2.1302   2.4287   2.5865   3.1909   3.5293   3.9442
     4.2040   4.3001   4.5912   4.7455   4.7881   4.9187   5.0706   5.2314
     5.8402   6.4880   6.9200   8.3869  10.2308  12.4244

          k = 0.0556-0.5453 0.0000 (  4486 PWs)   bands (ev):

   -42.5389 -42.4956 -42.4775 -42.2431 -42.2174 -42.1426 -42.1259 -42.0880
   -42.0396 -42.0037 -41.9922 -41.6834 -41.6830 -41.5877 -41.5876  -1.3264
    -1.1301  -0.9855  -0.8459  -0.4781  -0.2669  -0.2198   0.6758   1.1601
     1.4180   1.7046   2.1857   2.5846   2.6487   3.2668   3.7346   4.0888
     4.3151   4.6554   4.7843   4.9312   5.0050   5.1149   5.2288   5.3831
     6.5184   7.5796   8.0630   8.5733   9.4501  12.3270

          k = 0.0556-0.4170 0.0000 (  4465 PWs)   bands (ev):

   -42.4618 -42.4370 -42.3914 -42.2855 -42.1827 -42.1174 -42.0956 -42.0652
   -42.0187 -41.9406 -41.9364 -41.6618 -41.6615 -41.5928 -41.5920  -1.0275
    -0.9987  -0.7177  -0.6270  -0.2533  -0.0832   0.0658   0.8216   1.2656
     1.6371   1.7838   2.0414   2.0609   2.5667   2.8876   3.3284   3.5386
     3.6361   4.0389   4.1222   4.3045   4.5164   4.6510   4.7778   5.0091
     5.1753   5.4040   5.9873   7.7835   9.8543  11.7134

          k = 0.0556-0.2887 0.0000 (  4439 PWs)   bands (ev):

   -42.4263 -42.3276 -42.2521 -42.2316 -42.1386 -42.0678 -42.0488 -42.0295
   -41.9822 -41.8040 -41.8021 -41.6205 -41.6202 -41.6028 -41.6008  -1.2938
    -0.7741  -0.4842  -0.0830  -0.0096   0.3559   0.5355   0.8148   1.0355
     1.4152   1.7585   1.9340   2.0023   2.1740   2.3550   2.4469   2.7964
     2.8959   3.0544   3.2809   3.4648   3.7012   3.8115   4.0520   4.2041
     4.4844   4.8605   4.9868   6.4952   8.3327   9.8016

          k = 0.0556-0.1604 0.0000 (  4443 PWs)   bands (ev):

   -42.4748 -42.2959 -42.1193 -42.0815 -42.0328 -42.0240 -42.0074 -41.9878
   -41.9478 -41.6538 -41.6535 -41.6141 -41.6106 -41.5796 -41.5794  -2.2913
    -1.4563  -0.8406  -0.4635  -0.4303   0.8345   0.9751   1.0989   1.4105
     1.5351   1.7637   1.9351   1.9571   2.0652   2.1025   2.1733   2.2965
     2.5602   2.6852   3.0542   3.1931   3.2622   3.4592   3.7157   3.9258
     4.2968   4.5740   4.8832   5.3773   6.7829   7.8393

          k = 0.0556-0.0321 0.0000 (  4465 PWs)   bands (ev):

   -42.5041 -42.3002 -42.0657 -42.0059 -41.9960 -41.9773 -41.9706 -41.9405
   -41.9276 -41.6245 -41.6184 -41.5694 -41.5691 -41.5583 -41.5578  -2.8865
    -2.0104  -1.3347  -0.9790  -0.9286   1.3092   1.3400   1.4541   1.5954
     1.6699   1.6929   1.6968   1.8103   1.8558   2.1096   2.1426   2.1842
     2.2385   2.8372   3.3889   3.3925   3.6431   3.6693   4.0445   4.0609
     4.2341   4.5383   4.6308   4.9509   5.4905   6.2011

          k = 0.1667 0.2887 0.0000 (  4425 PWs)   bands (ev):

   -42.4124 -42.3428 -42.2810 -42.2692 -42.1579 -42.0964 -42.0640 -42.0535
   -42.0137 -41.8354 -41.8344 -41.6536 -41.6530 -41.5983 -41.5972  -0.8598
    -0.4922  -0.0381   0.0556   0.1215   0.3113   0.4725   0.6167   1.1435
     1.1878   1.4252   1.6036   1.7039   1.7325   2.3145   2.4563   2.6636
     2.8832   3.3076   3.5172   3.7499   4.0719   4.3571   4.3692   4.6883
     4.7215   4.7916   5.4139   7.0469   8.9105  10.4676

          k = 0.1667 0.4170 0.0000 (  4459 PWs)   bands (ev):

   -42.4468 -42.4204 -42.3836 -42.2942 -42.1744 -42.1599 -42.1486 -42.0923
   -42.0535 -41.9302 -41.9299 -41.7160 -41.7155 -41.5894 -41.5892  -0.6626
    -0.5843  -0.3698  -0.1267  -0.0122   0.1624   0.5014   0.8049   1.0406
     1.2110   1.4917   1.8541   2.0666   2.1539   2.4527   2.6750   2.8823
     3.2503   3.4678   3.7772   3.9985   4.3410   4.9253   4.9716   5.1941
     6.3676   6.6113   7.2688   8.7274  10.5982  12.3384

          k = 0.1667 0.5453 0.0000 (  4490 PWs)   bands (ev):

   -42.5020 -42.4587 -42.4426 -42.2602 -42.2086 -42.1887 -42.1866 -42.1063
   -42.0842 -41.9764 -41.9734 -41.7499 -41.7495 -41.5849 -41.5846  -0.9488
    -0.6671  -0.5596  -0.3404  -0.1269   0.1188   0.2806   0.6873   0.8471
     1.4123   1.7294   1.8869   2.1171   2.5572   2.6185   3.2645   3.4156
     3.4957   4.0040   4.2664   4.4323   4.5888   4.8353   4.9642   5.2061
     8.2947   8.8935   9.4382  10.1045  10.5794  12.5977

          k = 0.1667-0.4811 0.0000 (  4476 PWs)   bands (ev):

   -42.4817 -42.4458 -42.4220 -42.2751 -42.1861 -42.1810 -42.1788 -42.1028
   -42.0718 -41.9605 -41.9591 -41.7381 -41.7377 -41.5864 -41.5863  -0.8477
    -0.6348  -0.4933  -0.2655  -0.0685   0.1190   0.3723   0.7092   0.9770
     1.3049   1.7120   1.9147   2.0314   2.3472   2.6907   3.0268   3.1536
     3.3732   3.8844   4.0068   4.0930   4.4523   4.9396   5.0336   5.2904
     7.3610   7.7662   8.4301   9.6689  11.2330  12.8933

          k = 0.1667-0.3528 0.0000 (  4458 PWs)   bands (ev):

   -42.4165 -42.3826 -42.3314 -42.3043 -42.1687 -42.1303 -42.1052 -42.0754
   -42.0341 -41.8878 -41.8871 -41.6864 -41.6859 -41.5939 -41.5933  -0.5858
    -0.4738  -0.2061  -0.0705   0.0574   0.3343   0.4864   0.7972   0.9646
     1.2137   1.4537   1.6278   1.9060   2.0061   2.2297   2.3596   2.7781
     3.1051   3.2464   3.6979   3.9362   4.2056   4.6725   4.7734   4.9660
     5.4703   5.5678   6.2052   7.8075   9.7231  11.3889

          k = 0.1667-0.2245 0.0000 (  4433 PWs)   bands (ev):

   -42.4297 -42.3153 -42.2331 -42.2052 -42.1331 -42.0661 -42.0403 -42.0284
   -41.9892 -41.7788 -41.7777 -41.6231 -41.6228 -41.6037 -41.6019  -1.3351
    -0.7208  -0.2360   0.0441   0.1246   0.3518   0.5644   0.7670   0.9436
     1.3263   1.5219   1.6773   1.8117   1.9492   2.2404   2.5674   2.7225
     2.7527   3.0553   3.2756   3.4148   3.7402   3.7917   4.1486   4.1550
     4.3550   4.7775   4.9589   6.4307   8.1834   9.6026

          k = 0.1667-0.0962 0.0000 (  4427 PWs)   bands (ev):

   -42.4665 -42.2964 -42.1431 -42.1060 -42.0490 -42.0285 -42.0196 -41.9980
   -41.9490 -41.6798 -41.6793 -41.6122 -41.6091 -41.5843 -41.5841  -2.1173
    -1.3122  -0.7392  -0.3648  -0.2808   0.6571   0.9746   1.0108   1.2470
     1.5986   1.7939   1.9607   1.9997   2.0673   2.1841   2.2606   2.3928
     2.5612   2.8074   2.8602   3.1403   3.2306   3.4561   3.6561   4.0607
     4.2168   4.6413   4.9931   5.5113   7.0579   8.1989

          k = 0.2778 0.4811 0.0000 (  4485 PWs)   bands (ev):

   -42.4428 -42.4303 -42.3825 -42.3216 -42.2413 -42.2368 -42.1599 -42.1567
   -42.0844 -41.9387 -41.9373 -41.8096 -41.8088 -41.5837 -41.5835  -0.4455
    -0.4247  -0.1077   0.1466   0.3504   0.4075   0.5103   0.5606   0.9879
     1.2105   1.5530   1.6496   2.1219   2.2159   2.3633   2.4352   2.9351
     3.1422   3.4986   3.6301   4.0189   4.4644   4.8529   4.9735   5.1719
     8.6961   9.1764   9.9906  11.1996  12.6232  13.1305

          k = 0.2778 0.6094 0.0000 (  4491 PWs)   bands (ev):

   -42.4375 -42.4126 -42.3796 -42.3329 -42.2853 -42.2619 -42.1619 -42.1491
   -42.0974 -41.9304 -41.9296 -41.8418 -41.8410 -41.5822 -41.5819  -0.4603
    -0.2307  -0.0050   0.1165   0.2389   0.3982   0.5095   0.6432   0.9535
     1.3289   1.5485   1.6959   2.0713   2.1304   2.4318   2.4699   2.9190
     3.2213   3.5062   3.6523   4.2824   4.4908   4.7104   4.8279   4.9509
     9.9319  10.4805  11.0958  11.6015  12.2523  12.7497

          k = 0.2778-0.4170 0.0000 (  4462 PWs)   bands (ev):

   -42.4508 -42.4282 -42.3923 -42.2995 -42.2030 -42.1940 -42.1653 -42.1342
   -42.0689 -41.9402 -41.9386 -41.7639 -41.7630 -41.5860 -41.5855  -0.5818
    -0.4449  -0.2365   0.0121   0.1892   0.3165   0.5151   0.8544   0.9600
     1.0277   1.5550   1.6983   2.0892   2.2516   2.3451   2.5245   2.8413
     3.1806   3.5010   3.7625   3.8393   4.4029   4.9508   5.0743   5.2816
     7.5012   7.8503   8.5936   9.9140  11.6175  13.2365

          k = 0.2778-0.2887 0.0000 (  4463 PWs)   bands (ev):

   -42.4328 -42.4077 -42.3562 -42.2953 -42.1724 -42.1225 -42.1085 -42.0597
   -42.0304 -41.9102 -41.9085 -41.6738 -41.6737 -41.5934 -41.5926  -0.8023
    -0.7209  -0.5002  -0.3394  -0.0699   0.0915   0.3812   0.8076   1.1434
     1.4791   1.5548   1.8296   2.0835   2.2418   2.6003   2.8042   2.9362
     3.2653   3.4785   3.8064   4.0498   4.3823   4.6036   4.7690   4.9942
     5.3456   5.5132   6.1187   7.7815   9.7622  11.4931

          k = 0.2778-0.1604 0.0000 (  4458 PWs)   bands (ev):

   -42.4218 -42.3528 -42.2762 -42.2704 -42.1531 -42.0775 -42.0514 -42.0405
   -41.9842 -41.8418 -41.8387 -41.6252 -41.6250 -41.6008 -41.5990  -1.1927
    -0.8202  -0.6041  -0.2521  -0.1292   0.2257   0.3832   0.9405   1.2365
     1.5149   1.7512   2.0179   2.0417   2.4573   2.5868   2.6638   2.8228
     3.0689   3.3828   3.4008   3.6940   3.7092   3.8916   4.0751   4.2373
     4.6494   4.9082   5.0463   6.7028   8.6413  10.1959

          k = 0.3889 0.6736 0.0000 (  4511 PWs)   bands (ev):

   -42.4737 -42.4314 -42.4164 -42.2911 -42.2554 -42.2200 -42.1789 -42.1359
   -42.0912 -41.9562 -41.9552 -41.7999 -41.7989 -41.5834 -41.5830  -0.7256
    -0.3659  -0.1965  -0.1369   0.1664   0.2828   0.4023   0.6965   0.9095
     1.2010   1.6557   1.8936   1.9750   2.2553   2.6563   2.8332   2.9562
     3.2834   3.7473   3.9561   4.4430   4.4722   4.7112   4.8993   5.0372
     9.4762   9.9200  10.3315  10.8227  11.2823  12.7596

          k = 0.3889-0.3528 0.0000 (  4485 PWs)   bands (ev):

   -42.5151 -42.4737 -42.4540 -42.2548 -42.2026 -42.1591 -42.1518 -42.0827
   -42.0644 -41.9850 -41.9795 -41.7067 -41.7065 -41.5873 -41.5869  -1.1188
    -0.9239  -0.8018  -0.5971  -0.3060  -0.0806   0.0126   0.6803   1.0567
     1.5032   1.7339   1.9457   2.3101   2.6434   2.9156   3.5147   3.6930
     3.9288   4.1872   4.4846   4.5479   4.6504   4.9544   5.0304   5.3000
     7.0333   7.6707   8.1590   9.1824  10.4193  12.5396

          k = 0.3889-0.2245 0.0000 (  4444 PWs)   bands (ev):

   -42.4912 -42.4602 -42.4244 -42.2743 -42.1928 -42.1191 -42.0921 -42.0773
   -42.0156 -41.9670 -41.9596 -41.6606 -41.6604 -41.5912 -41.5905  -1.1942
    -1.1048  -0.8521  -0.7805  -0.3804  -0.2126  -0.0884   0.7848   1.2875
     1.5313   1.7835   2.2114   2.3982   2.4572   3.3184   3.3830   3.9300
     4.2100   4.3049   4.5705   4.6938   4.7617   4.7784   4.9578   5.0705
     5.1913   5.5100   6.0718   7.9331  10.0155  12.0516

          k =-0.5000-0.8660 0.0000 (  4492 PWs)   bands (ev):

   -42.5475 -42.5035 -42.4861 -42.2381 -42.2247 -42.1363 -42.1153 -42.0918
   -42.0282 -42.0126 -41.9962 -41.6749 -41.6746 -41.5883 -41.5879  -1.4036
    -1.2023  -1.0446  -0.9332  -0.5461  -0.3539  -0.2757   0.6676   1.2062
     1.3725   1.6805   2.3861   2.4887   2.7644   3.3818   3.7774   4.2532
     4.3471   4.8701   5.0074   5.0353   5.1075   5.2576   5.5126   5.5281
     6.0926   7.5210   8.1494   8.5055   8.6903  12.2438

 ------ SPIN DOWN ----------


          k = 0.0556 0.0962 0.0000 (  4451 PWs)   bands (ev):

   -42.4939 -42.2979 -42.0798 -42.0328 -42.0071 -41.9908 -41.9863 -41.9639
   -41.9348 -41.6227 -41.6186 -41.5984 -41.5973 -41.5663 -41.5662  -2.6796
    -1.8128  -1.1559  -0.7896  -0.7497   1.1511   1.1684   1.3226   1.6076
     1.6807   1.7419   1.7833   1.8192   1.9620   2.0362   2.1342   2.3008
     2.3899   2.5444   3.2616   3.3129   3.5975   3.6534   3.7115   3.9273
     4.2559   4.4566   4.9046   4.9261   6.0583   6.9096

          k = 0.0556 0.2245 0.0000 (  4420 PWs)   bands (ev):

   -42.4498 -42.3010 -42.1838 -42.1493 -42.0904 -42.0434 -42.0276 -42.0101
   -41.9639 -41.7248 -41.7242 -41.6096 -41.6072 -41.5993 -41.5990  -1.7851
    -1.0456  -0.5321  -0.1626  -0.0459   0.4707   0.8053   0.8751   1.0620
     1.5377   1.6854   1.8729   1.9269   2.0629   2.2555   2.4486   2.5878
     2.7514   2.8041   2.9831   3.1416   3.3657   3.4473   3.7968   4.0596
     4.3536   4.7004   4.9051   5.9138   7.5513   8.8225

          k = 0.0556 0.3528 0.0000 (  4467 PWs)   bands (ev):

   -42.4224 -42.3840 -42.3174 -42.2902 -42.1662 -42.0947 -42.0728 -42.0480
   -42.0013 -41.8804 -41.8776 -41.6433 -41.6432 -41.5986 -41.5972  -1.0217
    -0.7997  -0.5814  -0.3867  -0.1288   0.1406   0.3035   0.9074   1.2388
     1.5387   1.7500   1.8356   2.0770   2.4038   2.6467   2.8196   2.9721
     3.2264   3.5147   3.7323   3.8188   4.1144   4.3028   4.4410   4.5971
     4.6691   4.9790   5.3226   7.1183   9.1143  10.7678

          k = 0.0556 0.4811 0.0000 (  4463 PWs)   bands (ev):

   -42.5112 -42.4738 -42.4475 -42.2638 -42.2000 -42.1338 -42.1152 -42.0799
   -42.0318 -41.9830 -41.9751 -41.6764 -41.6762 -41.5904 -41.5900  -1.2171
    -1.0772  -0.8910  -0.7672  -0.3921  -0.2087  -0.1190   0.7242   1.2117
     1.4935   1.7481   2.1298   2.4285   2.5860   3.1905   3.5288   3.9438
     4.2034   4.2997   4.5907   4.7452   4.7877   4.9185   5.0701   5.2310
     5.8400   6.4878   6.9198   8.3868  10.2306  12.4242

          k = 0.0556-0.5453 0.0000 (  4486 PWs)   bands (ev):

   -42.5390 -42.4955 -42.4778 -42.2435 -42.2176 -42.1427 -42.1261 -42.0882
   -42.0397 -42.0043 -41.9927 -41.6841 -41.6838 -41.5888 -41.5886  -1.3265
    -1.1302  -0.9855  -0.8461  -0.4784  -0.2672  -0.2202   0.6755   1.1597
     1.4178   1.7043   2.1853   2.5842   2.6483   3.2663   3.7340   4.0885
     4.3145   4.6552   4.7840   4.9307   5.0046   5.1147   5.2282   5.3825
     6.5182   7.5795   8.0629   8.5731   9.4500  12.3311

          k = 0.0556-0.4170 0.0000 (  4465 PWs)   bands (ev):

   -42.4620 -42.4370 -42.3917 -42.2858 -42.1829 -42.1175 -42.0958 -42.0654
   -42.0187 -41.9413 -41.9370 -41.6626 -41.6623 -41.5938 -41.5930  -1.0275
    -0.9988  -0.7178  -0.6271  -0.2536  -0.0835   0.0654   0.8213   1.2653
     1.6369   1.7836   2.0411   2.0606   2.5663   2.8872   3.3281   3.5383
     3.6357   4.0384   4.1216   4.3041   4.5162   4.6506   4.7774   5.0087
     5.1749   5.4037   5.9871   7.7833   9.8541  11.7132

          k = 0.0556-0.2887 0.0000 (  4439 PWs)   bands (ev):

   -42.4263 -42.3278 -42.2524 -42.2319 -42.1386 -42.0679 -42.0490 -42.0298
   -41.9822 -41.8047 -41.8028 -41.6212 -41.6209 -41.6038 -41.6018  -1.2939
    -0.7741  -0.4843  -0.0831  -0.0099   0.3557   0.5352   0.8146   1.0353
     1.4149   1.7582   1.9337   2.0021   2.1737   2.3546   2.4465   2.7960
     2.8957   3.0541   3.2806   3.4645   3.7009   3.8111   4.0515   4.2037
     4.4838   4.8600   4.9865   6.4949   8.3324   9.8014

          k = 0.0556-0.1604 0.0000 (  4443 PWs)   bands (ev):

   -42.4749 -42.2962 -42.1195 -42.0818 -42.0328 -42.0241 -42.0075 -41.9881
   -41.9478 -41.6546 -41.6542 -41.6151 -41.6115 -41.5804 -41.5802  -2.2913
    -1.4563  -0.8407  -0.4637  -0.4305   0.8343   0.9749   1.0988   1.4102
     1.5348   1.7632   1.9348   1.9569   2.0651   2.1022   2.1729   2.2962
     2.5597   2.6848   3.0537   3.1928   3.2617   3.4588   3.7153   3.9254
     4.2963   4.5734   4.8828   5.3770   6.7825   7.8391

          k = 0.0556-0.0321 0.0000 (  4465 PWs)   bands (ev):

   -42.5042 -42.3005 -42.0658 -42.0060 -41.9962 -41.9776 -41.9709 -41.9404
   -41.9276 -41.6255 -41.6194 -41.5702 -41.5699 -41.5590 -41.5586  -2.8865
    -2.0104  -1.3347  -0.9792  -0.9288   1.3091   1.3398   1.4540   1.5953
     1.6696   1.6929   1.6965   1.8100   1.8553   2.1091   2.1421   2.1836
     2.2381   2.8368   3.3887   3.3923   3.6427   3.6689   4.0441   4.0603
     4.2335   4.5382   4.6300   4.9505   5.4901   6.2009

          k = 0.1667 0.2887 0.0000 (  4425 PWs)   bands (ev):

   -42.4125 -42.3428 -42.2814 -42.2695 -42.1580 -42.0967 -42.0643 -42.0535
   -42.0137 -41.8361 -41.8351 -41.6544 -41.6538 -41.5993 -41.5982  -0.8598
    -0.4922  -0.0382   0.0555   0.1214   0.3111   0.4722   0.6164   1.1434
     1.1875   1.4248   1.6032   1.7035   1.7323   2.3143   2.4559   2.6631
     2.8828   3.3073   3.5169   3.7495   4.0715   4.3569   4.3686   4.6878
     4.7211   4.7913   5.4135   7.0466   8.9103  10.4674

          k = 0.1667 0.4170 0.0000 (  4459 PWs)   bands (ev):

   -42.4470 -42.4204 -42.3839 -42.2944 -42.1747 -42.1601 -42.1488 -42.0923
   -42.0535 -41.9309 -41.9305 -41.7167 -41.7163 -41.5904 -41.5902  -0.6627
    -0.5844  -0.3699  -0.1269  -0.0124   0.1621   0.5011   0.8046   1.0404
     1.2107   1.4915   1.8538   2.0662   2.1535   2.4524   2.6747   2.8818
     3.2500   3.4675   3.7766   3.9979   4.3405   4.9250   4.9711   5.1938
     6.3675   6.6110   7.2685   8.7272  10.5980  12.3382

          k = 0.1667 0.5453 0.0000 (  4490 PWs)   bands (ev):

   -42.5022 -42.4586 -42.4430 -42.2604 -42.2088 -42.1890 -42.1869 -42.1063
   -42.0843 -41.9770 -41.9740 -41.7507 -41.7503 -41.5860 -41.5857  -0.9489
    -0.6673  -0.5596  -0.3406  -0.1271   0.1185   0.2803   0.6870   0.8468
     1.4121   1.7290   1.8865   2.1169   2.5568   2.6182   3.2641   3.4152
     3.4953   4.0035   4.2661   4.4318   4.5881   4.8350   4.9638   5.2058
     8.2946   8.8933   9.4381  10.1043  10.5793  12.5975

          k = 0.1667-0.4811 0.0000 (  4476 PWs)   bands (ev):

   -42.4818 -42.4458 -42.4223 -42.2753 -42.1863 -42.1813 -42.1791 -42.1028
   -42.0719 -41.9611 -41.9597 -41.7389 -41.7384 -41.5874 -41.5873  -0.8478
    -0.6349  -0.4933  -0.2657  -0.0688   0.1187   0.3720   0.7088   0.9767
     1.3047   1.7116   1.9144   2.0311   2.3468   2.6903   3.0264   3.1533
     3.3728   3.8840   4.0064   4.0925   4.4517   4.9392   5.0332   5.2902
     7.3609   7.7659   8.4299   9.6687  11.2329  12.8931

          k = 0.1667-0.3528 0.0000 (  4458 PWs)   bands (ev):

   -42.4166 -42.3825 -42.3318 -42.3045 -42.1688 -42.1305 -42.1054 -42.0754
   -42.0341 -41.8885 -41.8878 -41.6872 -41.6867 -41.5949 -41.5943  -0.5859
    -0.4738  -0.2062  -0.0706   0.0572   0.3340   0.4863   0.7969   0.9644
     1.2135   1.4534   1.6276   1.9056   2.0057   2.2294   2.3592   2.7777
     3.1047   3.2461   3.6975   3.9356   4.2051   4.6722   4.7730   4.9657
     5.4700   5.5673   6.2049   7.8072   9.7229  11.3887

          k = 0.1667-0.2245 0.0000 (  4433 PWs)   bands (ev):

   -42.4298 -42.3155 -42.2334 -42.2055 -42.1331 -42.0663 -42.0404 -42.0286
   -41.9892 -41.7795 -41.7784 -41.6238 -41.6236 -41.6047 -41.6029  -1.3352
    -0.7208  -0.2360   0.0440   0.1245   0.3517   0.5641   0.7667   0.9433
     1.3260   1.5215   1.6768   1.8113   1.9490   2.2402   2.5670   2.7221
     2.7523   3.0550   3.2753   3.4143   3.7398   3.7913   4.1482   4.1545
     4.3543   4.7771   4.9585   6.4304   8.1831   9.6024

          k = 0.1667-0.0962 0.0000 (  4427 PWs)   bands (ev):

   -42.4665 -42.2967 -42.1434 -42.1062 -42.0489 -42.0286 -42.0197 -41.9983
   -41.9490 -41.6806 -41.6801 -41.6132 -41.6101 -41.5851 -41.5849  -2.1173
    -1.3123  -0.7393  -0.3650  -0.2810   0.6569   0.9744   1.0107   1.2467
     1.5983   1.7934   1.9604   1.9995   2.0670   2.1840   2.2602   2.3925
     2.5607   2.8070   2.8597   3.1398   3.2303   3.4556   3.6557   4.0603
     4.2164   4.6407   4.9927   5.5110   7.0576   8.1987

          k = 0.2778 0.4811 0.0000 (  4485 PWs)   bands (ev):

   -42.4431 -42.4303 -42.3827 -42.3217 -42.2416 -42.2372 -42.1601 -42.1566
   -42.0844 -41.9394 -41.9380 -41.8103 -41.8095 -41.5847 -41.5845  -0.4455
    -0.4248  -0.1079   0.1464   0.3502   0.4073   0.5100   0.5603   0.9876
     1.2102   1.5527   1.6494   2.1214   2.2154   2.3629   2.4348   2.9349
     3.1420   3.4983   3.6296   4.0184   4.4637   4.8524   4.9732   5.1716
     8.6959   9.1761   9.9904  11.1994  12.6231  13.1305

          k = 0.2778 0.6094 0.0000 (  4491 PWs)   bands (ev):

   -42.4377 -42.4126 -42.3798 -42.3330 -42.2855 -42.2622 -42.1622 -42.1492
   -42.0974 -41.9311 -41.9303 -41.8425 -41.8417 -41.5832 -41.5830  -0.4604
    -0.2308  -0.0052   0.1164   0.2387   0.3980   0.5092   0.6430   0.9532
     1.3286   1.5482   1.6957   2.0708   2.1299   2.4313   2.4694   2.9189
     3.2212   3.5058   3.6518   4.2818   4.4899   4.7101   4.8276   4.9507
     9.9318  10.4803  11.0956  11.6014  12.2522  12.7497

          k = 0.2778-0.4170 0.0000 (  4462 PWs)   bands (ev):

   -42.4510 -42.4282 -42.3926 -42.2997 -42.2033 -42.1943 -42.1655 -42.1342
   -42.0689 -41.9409 -41.9393 -41.7647 -41.7637 -41.5871 -41.5866  -0.5819
    -0.4449  -0.2366   0.0119   0.1890   0.3162   0.5149   0.8541   0.9597
     1.0274   1.5548   1.6980   2.0887   2.2513   2.3447   2.5241   2.8410
     3.1804   3.5007   3.7619   3.8388   4.4022   4.9503   5.0739   5.2813
     7.5011   7.8500   8.5933   9.9138  11.6173  13.2364

          k = 0.2778-0.2887 0.0000 (  4463 PWs)   bands (ev):

   -42.4329 -42.4076 -42.3565 -42.2956 -42.1726 -42.1227 -42.1087 -42.0598
   -42.0304 -41.9110 -41.9092 -41.6746 -41.6744 -41.5944 -41.5936  -0.8024
    -0.7210  -0.5003  -0.3396  -0.0702   0.0912   0.3809   0.8073   1.1431
     1.4789   1.5545   1.8294   2.0831   2.2415   2.5999   2.8038   2.9358
     3.2649   3.4782   3.8059   4.0492   4.3819   4.6032   4.7686   4.9939
     5.3452   5.5129   6.1184   7.7813   9.7619  11.4929

          k = 0.2778-0.1604 0.0000 (  4458 PWs)   bands (ev):

   -42.4219 -42.3529 -42.2766 -42.2708 -42.1532 -42.0776 -42.0515 -42.0409
   -41.9842 -41.8425 -41.8394 -41.6259 -41.6257 -41.6018 -41.6000  -1.1927
    -0.8203  -0.6042  -0.2522  -0.1295   0.2255   0.3829   0.9403   1.2363
     1.5146   1.7509   2.0178   2.0414   2.4569   2.5864   2.6634   2.8224
     3.0686   3.3825   3.4005   3.6938   3.7088   3.8911   4.0745   4.2369
     4.6487   4.9078   5.0459   6.7026   8.6410  10.1957

          k = 0.3889 0.6736 0.0000 (  4511 PWs)   bands (ev):

   -42.4739 -42.4314 -42.4167 -42.2912 -42.2557 -42.2203 -42.1792 -42.1360
   -42.0912 -41.9569 -41.9559 -41.8007 -41.7996 -41.5844 -41.5841  -0.7257
    -0.3659  -0.1965  -0.1372   0.1662   0.2826   0.4020   0.6963   0.9092
     1.2007   1.6553   1.8934   1.9746   2.2549   2.6561   2.8327   2.9558
     3.2831   3.7469   3.9557   4.4423   4.4715   4.7109   4.8989   5.0370
     9.4761   9.9198  10.3313  10.8225  11.2821  12.7595

          k = 0.3889-0.3528 0.0000 (  4485 PWs)   bands (ev):

   -42.5152 -42.4737 -42.4544 -42.2551 -42.2028 -42.1593 -42.1521 -42.0828
   -42.0644 -41.9856 -41.9801 -41.7075 -41.7072 -41.5884 -41.5879  -1.1189
    -0.9240  -0.8019  -0.5973  -0.3063  -0.0809   0.0123   0.6800   1.0564
     1.5030   1.7335   1.9453   2.3099   2.6431   2.9152   3.5143   3.6926
     3.9285   4.1866   4.4841   4.5476   4.6498   4.9540   5.0300   5.2997
     7.0331   7.6705   8.1589   9.1823  10.4192  12.5393

          k = 0.3889-0.2245 0.0000 (  4444 PWs)   bands (ev):

   -42.4913 -42.4602 -42.4247 -42.2745 -42.1931 -42.1192 -42.0922 -42.0776
   -42.0156 -41.9677 -41.9602 -41.6613 -41.6612 -41.5923 -41.5916  -1.1942
    -1.1048  -0.8522  -0.7807  -0.3807  -0.2129  -0.0887   0.7845   1.2872
     1.5311   1.7833   2.2111   2.3979   2.4568   3.3179   3.3826   3.9296
     4.2095   4.3046   4.5704   4.6934   4.7615   4.7779   4.9574   5.0698
     5.1908   5.5099   6.0717   7.9329  10.0153  12.0514

          k =-0.5000-0.8660 0.0000 (  4492 PWs)   bands (ev):

   -42.5476 -42.5035 -42.4865 -42.2385 -42.2249 -42.1364 -42.1154 -42.0921
   -42.0282 -42.0133 -41.9968 -41.6756 -41.6754 -41.5894 -41.5889  -1.4037
    -1.2024  -1.0447  -0.9334  -0.5464  -0.3542  -0.2761   0.6673   1.2057
     1.3723   1.6803   2.3856   2.4884   2.7641   3.3814   3.7767   4.2529
     4.3465   4.8697   5.0069   5.0352   5.1071   5.2575   5.5119   5.5275
     6.0925   7.5209   8.1493   8.5054   8.6903  12.2432

     the Fermi energy is     4.4702 ev

!    total energy              =    -855.84609971 Ry
     estimated scf accuracy    <       0.00000037 Ry
     smearing contrib. (-TS)   =      -0.02243056 Ry
     internal energy E=F+TS    =    -855.82366914 Ry

     The total energy is F=E-TS. E is the sum of the following terms:
     one-electron contribution =  -11776.11974713 Ry
     hartree contribution      =    5910.25762146 Ry
     xc contribution           =    -149.48320699 Ry
     ewald contribution        =    5159.52166352 Ry

     total magnetization       =    -0.00 Bohr mag/cell
     absolute magnetization    =     0.00 Bohr mag/cell

     convergence has been achieved in   9 iterations

     negative rho (up, down):  1.441E-01 1.441E-01

     Forces acting on atoms (cartesian axes, Ry/au):

     atom    1 type  1   force =     0.00000000    0.00000000    0.00900598
     atom    2 type  1   force =     0.00000000    0.00000000   -0.00503611
     atom    3 type  1   force =     0.00000000    0.00000000   -0.00000252
     atom    4 type  1   force =     0.00000000    0.00000000    0.00502707
     atom    5 type  1   force =     0.00000000    0.00000000   -0.00899441

     Total force =     0.014582     Total SCF correction =     0.003854
     SCF correction compared to forces is large: reduce conv_thr to get better values
     Energy error            =      3.7E-04
     Gradient error          =      9.0E-03

     number of scf cycles    =   2
     number of bfgs steps    =   1

     energy   old            =    -855.8457272087 Ry
     energy   new            =    -855.8460997073 Ry

     CASE: energy  _new < energy  _old

     new trust radius        =       0.0129385856 bohr
     new conv_thr            =       0.0000003725 Ry


ATOMIC_POSITIONS (angstrom)
Rh            0.0000000000        0.0000000000        0.0130711725
Rh            1.3554284000       -0.7825569000        2.2048358811
Rh            1.3554284000        0.7825569000        4.4268034427
Rh            0.0000000000        0.0000000000        6.6487779198
Rh            1.3554284000       -0.7825569000        8.8405645838



     Writing output data file /home/STUDENTI/leonardo.razzai/Rh_work/surf_111/5-L.save/
     NEW-OLD atomic charge density approx. for the potential

     negative rho (up, down):  1.444E-01 1.444E-01
     Generating pointlists ...

     total cpu time spent up to now is      157.0 secs

     Self-consistent Calculation

     iteration #  1     ecut=    35.00 Ry     beta= 0.40
     Davidson diagonalization with overlap
     ethr =  1.00E-06,  avg # of iterations =  6.0

     negative rho (up, down):  1.444E-01 1.444E-01

     total cpu time spent up to now is      167.6 secs

     total energy              =    -855.84631606 Ry
     estimated scf accuracy    <       0.00184143 Ry

     total magnetization       =    -0.00 Bohr mag/cell
     absolute magnetization    =     0.00 Bohr mag/cell

     iteration #  2     ecut=    35.00 Ry     beta= 0.40
     Davidson diagonalization with overlap
     ethr =  2.46E-06,  avg # of iterations =  1.0

     negative rho (up, down):  1.444E-01 1.444E-01

     total cpu time spent up to now is      172.9 secs

     total energy              =    -855.84634613 Ry
     estimated scf accuracy    <       0.00106378 Ry

     total magnetization       =    -0.00 Bohr mag/cell
     absolute magnetization    =     0.00 Bohr mag/cell

     iteration #  3     ecut=    35.00 Ry     beta= 0.40
     Davidson diagonalization with overlap
     ethr =  1.42E-06,  avg # of iterations =  1.0

     negative rho (up, down):  1.444E-01 1.444E-01

     total cpu time spent up to now is      178.2 secs

     total energy              =    -855.84634813 Ry
     estimated scf accuracy    <       0.00015535 Ry

     total magnetization       =    -0.00 Bohr mag/cell
     absolute magnetization    =     0.00 Bohr mag/cell

     iteration #  4     ecut=    35.00 Ry     beta= 0.40
     Davidson diagonalization with overlap
     ethr =  2.07E-07,  avg # of iterations =  1.0

     negative rho (up, down):  1.444E-01 1.444E-01

     total cpu time spent up to now is      183.5 secs

     total energy              =    -855.84634359 Ry
     estimated scf accuracy    <       0.00005325 Ry

     total magnetization       =    -0.00 Bohr mag/cell
     absolute magnetization    =     0.00 Bohr mag/cell

     iteration #  5     ecut=    35.00 Ry     beta= 0.40
     Davidson diagonalization with overlap
     ethr =  7.10E-08,  avg # of iterations =  1.0

     negative rho (up, down):  1.444E-01 1.444E-01

     total cpu time spent up to now is      188.8 secs

     total energy              =    -855.84634563 Ry
     estimated scf accuracy    <       0.00000417 Ry

     total magnetization       =    -0.00 Bohr mag/cell
     absolute magnetization    =     0.00 Bohr mag/cell

     iteration #  6     ecut=    35.00 Ry     beta= 0.40
     Davidson diagonalization with overlap
     ethr =  5.55E-09,  avg # of iterations =  1.6

     negative rho (up, down):  1.444E-01 1.444E-01

     total cpu time spent up to now is      194.3 secs

     total energy              =    -855.84634545 Ry
     estimated scf accuracy    <       0.00000183 Ry

     total magnetization       =    -0.00 Bohr mag/cell
     absolute magnetization    =     0.00 Bohr mag/cell

     iteration #  7     ecut=    35.00 Ry     beta= 0.40
     Davidson diagonalization with overlap
     ethr =  2.44E-09,  avg # of iterations =  1.2

     negative rho (up, down):  1.444E-01 1.444E-01

     total cpu time spent up to now is      199.7 secs

     total energy              =    -855.84634544 Ry
     estimated scf accuracy    <       0.00000119 Ry

     total magnetization       =    -0.00 Bohr mag/cell
     absolute magnetization    =     0.00 Bohr mag/cell

     iteration #  8     ecut=    35.00 Ry     beta= 0.40
     Davidson diagonalization with overlap
     ethr =  1.59E-09,  avg # of iterations =  1.2

     negative rho (up, down):  1.444E-01 1.444E-01

     total cpu time spent up to now is      205.1 secs

     total energy              =    -855.84634553 Ry
     estimated scf accuracy    <       0.00000089 Ry

     total magnetization       =    -0.00 Bohr mag/cell
     absolute magnetization    =     0.00 Bohr mag/cell

     iteration #  9     ecut=    35.00 Ry     beta= 0.40
     Davidson diagonalization with overlap
     ethr =  1.18E-09,  avg # of iterations =  1.4

     negative rho (up, down):  1.444E-01 1.444E-01
 
     Magnetic moment per site:
     atom:    1    charge:   13.1816    magn:   -0.0000    constr:    0.0000
     atom:    2    charge:   13.2416    magn:   -0.0000    constr:    0.0000
     atom:    3    charge:   13.2422    magn:    0.0000    constr:    0.0000
     atom:    4    charge:   13.2417    magn:   -0.0000    constr:    0.0000
     atom:    5    charge:   13.1814    magn:   -0.0000    constr:    0.0000

     total cpu time spent up to now is      210.3 secs

     End of self-consistent calculation

 ------ SPIN UP ------------


          k = 0.0556 0.0962 0.0000 (  4451 PWs)   bands (ev):

   -42.4890 -42.3053 -42.0800 -42.0312 -42.0050 -41.9914 -41.9863 -41.9599
   -41.9290 -41.6311 -41.6267 -41.6052 -41.6041 -41.5732 -41.5732  -2.6785
    -1.8244  -1.1502  -0.8024  -0.7648   1.1433   1.1757   1.3276   1.5973
     1.6720   1.7431   1.7865   1.8275   1.9533   2.0314   2.1272   2.2847
     2.3788   2.5431   3.2645   3.3124   3.5923   3.6539   3.7034   3.9307
     4.2538   4.4556   4.9096   4.9272   6.0677   6.9181

          k = 0.0556 0.2245 0.0000 (  4420 PWs)   bands (ev):

   -42.4446 -42.3052 -42.1862 -42.1513 -42.0848 -42.0411 -42.0258 -42.0116
   -41.9585 -41.7315 -41.7309 -41.6181 -41.6155 -41.6063 -41.6059  -1.7839
    -1.0560  -0.5301  -0.1759  -0.0566   0.4682   0.7929   0.8816   1.0452
     1.5304   1.6856   1.8685   1.9287   2.0643   2.2539   2.4493   2.5740
     2.7397   2.8023   2.9823   3.1320   3.3653   3.4486   3.7965   4.0592
     4.3552   4.7082   4.9096   5.9171   7.5622   8.8312

          k = 0.0556 0.3528 0.0000 (  4467 PWs)   bands (ev):

   -42.4171 -42.3799 -42.3196 -42.2945 -42.1679 -42.0919 -42.0727 -42.0475
   -41.9964 -41.8861 -41.8830 -41.6501 -41.6501 -41.6080 -41.6065  -1.0202
    -0.7982  -0.5904  -0.3894  -0.1453   0.1262   0.2934   0.8969   1.2379
     1.5377   1.7473   1.8373   2.0748   2.3934   2.6316   2.8114   2.9673
     3.2197   3.5190   3.7378   3.8147   4.1137   4.2974   4.4423   4.6019
     4.6721   4.9852   5.3278   7.1275   9.1235  10.7760

          k = 0.0556 0.4811 0.0000 (  4463 PWs)   bands (ev):

   -42.5087 -42.4680 -42.4493 -42.2675 -42.2046 -42.1309 -42.1144 -42.0794
   -42.0275 -41.9868 -41.9785 -41.6831 -41.6831 -41.6005 -41.6000  -1.2161
    -1.0757  -0.8883  -0.7817  -0.4090  -0.2230  -0.1339   0.7157   1.2134
     1.4971   1.7469   2.1181   2.4283   2.5735   3.1803   3.5213   3.9428
     4.2030   4.3038   4.5944   4.7445   4.7920   4.9227   5.0678   5.2325
     5.8401   6.4868   6.9225   8.3973  10.2360  12.4283

          k = 0.0556-0.5453 0.0000 (  4486 PWs)   bands (ev):

   -42.5366 -42.4892 -42.4803 -42.2500 -42.2206 -42.1399 -42.1245 -42.0876
   -42.0360 -42.0074 -41.9957 -41.6909 -41.6906 -41.5990 -41.5988  -1.3255
    -1.1296  -0.9819  -0.8610  -0.4949  -0.2790  -0.2386   0.6657   1.1638
     1.4210   1.7033   2.1693   2.5707   2.6533   3.2563   3.7296   4.0873
     4.3197   4.6565   4.7887   4.9336   5.0039   5.1171   5.2265   5.3815
     6.5185   7.5778   8.0656   8.5829   9.4546  12.3231

          k = 0.0556-0.4170 0.0000 (  4465 PWs)   bands (ev):

   -42.4592 -42.4311 -42.3935 -42.2887 -42.1870 -42.1146 -42.0957 -42.0648
   -42.0140 -41.9462 -41.9414 -41.6694 -41.6691 -41.6036 -41.6027  -1.0292
    -0.9936  -0.7190  -0.6383  -0.2711  -0.0985   0.0532   0.8142   1.2631
     1.6404   1.7811   2.0397   2.0590   2.5459   2.8784   3.3190   3.5314
     3.6344   4.0413   4.1286   4.3050   4.5124   4.6606   4.7749   5.0117
     5.1767   5.4032   5.9905   7.7941   9.8617  11.7207

          k = 0.0556-0.2887 0.0000 (  4439 PWs)   bands (ev):

   -42.4206 -42.3272 -42.2568 -42.2343 -42.1362 -42.0654 -42.0480 -42.0302
   -41.9771 -41.8111 -41.8090 -41.6282 -41.6279 -41.6127 -41.6106  -1.2924
    -0.7808  -0.4872  -0.0887  -0.0223   0.3514   0.5205   0.8040   1.0308
     1.4126   1.7584   1.9306   1.9990   2.1701   2.3466   2.4443   2.7804
     2.8928   3.0577   3.2737   3.4675   3.6987   3.8032   4.0521   4.2052
     4.4900   4.8694   4.9899   6.5014   8.3428   9.8100

          k = 0.0556-0.1604 0.0000 (  4443 PWs)   bands (ev):

   -42.4698 -42.3027 -42.1210 -42.0818 -42.0278 -42.0221 -42.0064 -41.9887
   -41.9421 -41.6617 -41.6613 -41.6233 -41.6194 -41.5874 -41.5872  -2.2902
    -1.4678  -0.8357  -0.4773  -0.4446   0.8292   0.9757   1.1046   1.3936
     1.5221   1.7697   1.9326   1.9567   2.0676   2.0998   2.1732   2.2899
     2.5418   2.6750   3.0504   3.1942   3.2587   3.4626   3.7108   3.9254
     4.2949   4.5774   4.8878   5.3781   6.7931   7.8479

          k = 0.0556-0.0321 0.0000 (  4465 PWs)   bands (ev):

   -42.4993 -42.3083 -42.0653 -42.0039 -41.9936 -41.9792 -41.9728 -41.9346
   -41.9220 -41.6338 -41.6272 -41.5771 -41.5769 -41.5660 -41.5656  -2.8855
    -2.0221  -1.3286  -0.9921  -0.9436   1.3055   1.3460   1.4583   1.5954
     1.6632   1.6973   1.6986   1.8013   1.8594   2.0995   2.1317   2.1668
     2.2267   2.8338   3.3916   3.3956   3.6378   3.6623   4.0343   4.0597
     4.2340   4.5387   4.6343   4.9550   5.4981   6.2091

          k = 0.1667 0.2887 0.0000 (  4425 PWs)   bands (ev):

   -42.4065 -42.3405 -42.2853 -42.2717 -42.1582 -42.0967 -42.0664 -42.0480
   -42.0095 -41.8421 -41.8410 -41.6613 -41.6607 -41.6084 -41.6073  -0.8579
    -0.4969  -0.0501   0.0584   0.1272   0.2953   0.4513   0.6045   1.1392
     1.1790   1.4197   1.5911   1.6921   1.7379   2.3167   2.4524   2.6602
     2.8807   3.3039   3.5180   3.7439   4.0732   4.3548   4.3742   4.6858
     4.7244   4.7942   5.4185   7.0556   8.9196  10.4756

          k = 0.1667 0.4170 0.0000 (  4459 PWs)   bands (ev):

   -42.4443 -42.4135 -42.3865 -42.2957 -42.1791 -42.1620 -42.1483 -42.0866
   -42.0506 -41.9357 -41.9353 -41.7235 -41.7230 -41.6002 -41.6000  -0.6608
    -0.5826  -0.3705  -0.1412  -0.0259   0.1448   0.4898   0.7972   1.0281
     1.2064   1.4975   1.8429   2.0611   2.1511   2.4423   2.6707   2.8716
     3.2520   3.4673   3.7861   4.0037   4.3456   4.9291   4.9713   5.1972
     6.3695   6.6085   7.2694   8.7361  10.6049  12.3453

          k = 0.1667 0.5453 0.0000 (  4490 PWs)   bands (ev):

   -42.4996 -42.4522 -42.4455 -42.2623 -42.2064 -42.1941 -42.1896 -42.1023
   -42.0800 -41.9811 -41.9781 -41.7572 -41.7568 -41.5962 -41.5959  -0.9476
    -0.6666  -0.5568  -0.3594  -0.1411   0.0986   0.2684   0.6760   0.8504
     1.4016   1.7198   1.8849   2.1251   2.5478   2.6069   3.2563   3.4109
     3.4954   4.0079   4.2709   4.4372   4.5954   4.8384   4.9670   5.2103
     8.2958   8.8919   9.4387  10.1108  10.5827  12.5964

          k = 0.1667-0.4811 0.0000 (  4476 PWs)   bands (ev):

   -42.4794 -42.4391 -42.4250 -42.2764 -42.1877 -42.1850 -42.1800 -42.0978
   -42.0687 -41.9653 -41.9641 -41.7455 -41.7450 -41.5975 -41.5974  -0.8463
    -0.6337  -0.4919  -0.2830  -0.0826   0.0998   0.3602   0.7006   0.9758
     1.2937   1.7109   1.9093   2.0330   2.3389   2.6794   3.0176   3.1472
     3.3735   3.8882   4.0138   4.0992   4.4571   4.9435   5.0355   5.2939
     7.3625   7.7639   8.4309   9.6761  11.2376  12.8967

          k = 0.1667-0.3528 0.0000 (  4458 PWs)   bands (ev):

   -42.4119 -42.3773 -42.3341 -42.3075 -42.1718 -42.1315 -42.1062 -42.0694
   -42.0309 -41.8940 -41.8931 -41.6940 -41.6935 -41.6044 -41.6038  -0.5835
    -0.4726  -0.2112  -0.0769   0.0454   0.3162   0.4776   0.7823   0.9576
     1.2116   1.4504   1.6199   1.8932   2.0004   2.2296   2.3570   2.7747
     3.1039   3.2423   3.7034   3.9371   4.2102   4.6728   4.7754   4.9682
     5.4727   5.5647   6.2068   7.8170   9.7311  11.3964

          k = 0.1667-0.2245 0.0000 (  4433 PWs)   bands (ev):

   -42.4242 -42.3167 -42.2367 -42.2078 -42.1297 -42.0652 -42.0395 -42.0280
   -41.9839 -41.7859 -41.7847 -41.6308 -41.6306 -41.6134 -41.6115  -1.3338
    -0.7298  -0.2362   0.0381   0.1145   0.3478   0.5472   0.7625   0.9329
     1.3203   1.5168   1.6716   1.8061   1.9491   2.2412   2.5626   2.7202
     2.7437   3.0602   3.2687   3.4084   3.7354   3.7852   4.1520   4.1566
     4.3593   4.7812   4.9648   6.4370   8.1935   9.6109

          k = 0.1667-0.0962 0.0000 (  4427 PWs)   bands (ev):

   -42.4614 -42.3024 -42.1450 -42.1073 -42.0427 -42.0258 -42.0184 -42.0003
   -41.9437 -41.6875 -41.6870 -41.6216 -41.6182 -41.5920 -41.5919  -2.1161
    -1.3234  -0.7356  -0.3792  -0.2933   0.6546   0.9684   1.0166   1.2287
     1.5894   1.7987   1.9585   2.0008   2.0671   2.1866   2.2617   2.3833
     2.5396   2.7967   2.8558   3.1374   3.2306   3.4633   3.6510   4.0557
     4.2177   4.6481   4.9981   5.5112   7.0685   8.2075

          k = 0.2778 0.4811 0.0000 (  4485 PWs)   bands (ev):

   -42.4416 -42.4242 -42.3839 -42.3184 -42.2445 -42.2399 -42.1651 -42.1523
   -42.0793 -41.9445 -41.9430 -41.8165 -41.8156 -41.5949 -41.5947  -0.4387
    -0.4282  -0.1186   0.1399   0.3375   0.3970   0.4909   0.5520   0.9750
     1.2021   1.5411   1.6523   2.1174   2.2104   2.3534   2.4260   2.9337
     3.1434   3.5038   3.6416   4.0260   4.4683   4.8570   4.9783   5.1754
     8.6976   9.1744   9.9917  11.2046  12.6270  13.1306

          k = 0.2778 0.6094 0.0000 (  4491 PWs)   bands (ev):

   -42.4349 -42.4078 -42.3796 -42.3307 -42.2870 -42.2642 -42.1656 -42.1505
   -42.0907 -41.9365 -41.9357 -41.8484 -41.8474 -41.5935 -41.5933  -0.4585
    -0.2298  -0.0141   0.1148   0.2297   0.3763   0.4911   0.6337   0.9392
     1.3206   1.5389   1.6980   2.0639   2.1249   2.4223   2.4621   2.9163
     3.2232   3.5152   3.6641   4.2885   4.4957   4.7143   4.8322   4.9546
     9.9334  10.4795  11.0960  11.6047  12.2534  12.7515

          k = 0.2778-0.4170 0.0000 (  4462 PWs)   bands (ev):

   -42.4489 -42.4214 -42.3948 -42.2986 -42.2069 -42.1972 -42.1684 -42.1277
   -42.0652 -41.9457 -41.9441 -41.7712 -41.7702 -41.5971 -41.5966  -0.5800
    -0.4425  -0.2426  -0.0008   0.1769   0.3005   0.5014   0.8516   0.9459
     1.0179   1.5592   1.6853   2.0848   2.2491   2.3339   2.5179   2.8364
     3.1823   3.5016   3.7715   3.8482   4.4069   4.9548   5.0770   5.2850
     7.5031   7.8476   8.5943   9.9208  11.6231  13.2427

          k = 0.2778-0.2887 0.0000 (  4463 PWs)   bands (ev):

   -42.4292 -42.4020 -42.3586 -42.2986 -42.1760 -42.1213 -42.1090 -42.0573
   -42.0261 -41.9162 -41.9141 -41.6814 -41.6813 -41.6040 -41.6032  -0.8011
    -0.7186  -0.5014  -0.3506  -0.0871   0.0748   0.3716   0.7994   1.1342
     1.4819   1.5520   1.8283   2.0779   2.2320   2.5891   2.7990   2.9248
     3.2633   3.4816   3.8123   4.0503   4.3853   4.6057   4.7695   4.9973
     5.3465   5.5116   6.1207   7.7914   9.7700  11.5006

          k = 0.2778-0.1604 0.0000 (  4458 PWs)   bands (ev):

   -42.4162 -42.3502 -42.2812 -42.2736 -42.1527 -42.0745 -42.0491 -42.0429
   -41.9793 -41.8487 -41.8453 -41.6328 -41.6326 -41.6110 -41.6090  -1.1911
    -0.8224  -0.6115  -0.2538  -0.1452   0.2164   0.3693   0.9270   1.2400
     1.5099   1.7515   2.0191   2.0412   2.4521   2.5640   2.6554   2.8203
     3.0605   3.3756   3.4050   3.6917   3.7177   3.8820   4.0726   4.2378
     4.6593   4.9127   5.0521   6.7099   8.6512  10.2042

          k = 0.3889 0.6736 0.0000 (  4511 PWs)   bands (ev):

   -42.4711 -42.4250 -42.4190 -42.2896 -42.2560 -42.2240 -42.1827 -42.1345
   -42.0855 -41.9616 -41.9606 -41.8069 -41.8058 -41.5947 -41.5944  -0.7243
    -0.3641  -0.1944  -0.1552   0.1530   0.2659   0.3849   0.6927   0.8991
     1.1884   1.6490   1.8944   1.9706   2.2524   2.6485   2.8236   2.9496
     3.2867   3.7534   3.9623   4.4508   4.4770   4.7148   4.9024   5.0417
     9.4776   9.9200  10.3292  10.8276  11.2857  12.7598

          k = 0.3889-0.3528 0.0000 (  4485 PWs)   bands (ev):

   -42.5127 -42.4674 -42.4567 -42.2591 -42.2060 -42.1579 -42.1529 -42.0799
   -42.0605 -41.9892 -41.9836 -41.7142 -41.7140 -41.5985 -41.5980  -1.1177
    -0.9238  -0.7984  -0.6131  -0.3226  -0.0997   0.0009   0.6705   1.0599
     1.5019   1.7280   1.9363   2.3153   2.6284   2.9063   3.5091   3.6878
     3.9274   4.1918   4.4893   4.5486   4.6557   4.9573   5.0313   5.3029
     7.0339   7.6689   8.1606   9.1904  10.4233  12.5399

          k = 0.3889-0.2245 0.0000 (  4444 PWs)   bands (ev):

   -42.4888 -42.4546 -42.4264 -42.2777 -42.1977 -42.1160 -42.0894 -42.0797
   -42.0109 -41.9722 -41.9639 -41.6681 -41.6681 -41.6022 -41.6014  -1.1939
    -1.1020  -0.8517  -0.7932  -0.3979  -0.2257  -0.1044   0.7767   1.2877
     1.5346   1.7842   2.2060   2.4026   2.4312   3.3101   3.3706   3.9309
     4.2118   4.3009   4.5702   4.6999   4.7614   4.7835   4.9563   5.0656
     5.1934   5.5100   6.0764   7.9443  10.0220  12.0580

          k =-0.5000-0.8660 0.0000 (  4492 PWs)   bands (ev):

   -42.5453 -42.4969 -42.4893 -42.2469 -42.2268 -42.1331 -42.1107 -42.0942
   -42.0235 -42.0172 -41.9995 -41.6824 -41.6822 -41.5996 -41.5991  -1.4028
    -1.2016  -1.0412  -0.9480  -0.5627  -0.3650  -0.2957   0.6577   1.2093
     1.3761   1.6811   2.3596   2.4829   2.7707   3.3701   3.7732   4.2509
     4.3548   4.8737   5.0104   5.0402   5.1047   5.2591   5.5059   5.5230
     6.0926   7.5199   8.1569   8.5077   8.6994  12.2384

 ------ SPIN DOWN ----------


          k = 0.0556 0.0962 0.0000 (  4451 PWs)   bands (ev):

   -42.4890 -42.3053 -42.0801 -42.0313 -42.0050 -41.9914 -41.9863 -41.9599
   -41.9290 -41.6311 -41.6267 -41.6053 -41.6041 -41.5733 -41.5732  -2.6785
    -1.8244  -1.1502  -0.8025  -0.7648   1.1433   1.1757   1.3276   1.5973
     1.6720   1.7431   1.7865   1.8274   1.9533   2.0314   2.1272   2.2846
     2.3788   2.5431   3.2645   3.3123   3.5923   3.6539   3.7034   3.9306
     4.2538   4.4556   4.9096   4.9272   6.0677   6.9181

          k = 0.0556 0.2245 0.0000 (  4420 PWs)   bands (ev):

   -42.4446 -42.3052 -42.1862 -42.1513 -42.0848 -42.0411 -42.0258 -42.0116
   -41.9585 -41.7315 -41.7309 -41.6182 -41.6156 -41.6063 -41.6060  -1.7839
    -1.0560  -0.5301  -0.1759  -0.0566   0.4682   0.7929   0.8816   1.0452
     1.5304   1.6856   1.8685   1.9287   2.0643   2.2539   2.4493   2.5740
     2.7397   2.8023   2.9823   3.1320   3.3653   3.4486   3.7964   4.0592
     4.3552   4.7082   4.9096   5.9171   7.5622   8.8312

          k = 0.0556 0.3528 0.0000 (  4467 PWs)   bands (ev):

   -42.4171 -42.3799 -42.3196 -42.2946 -42.1679 -42.0919 -42.0727 -42.0475
   -41.9964 -41.8862 -41.8830 -41.6502 -41.6501 -41.6080 -41.6065  -1.0202
    -0.7982  -0.5904  -0.3894  -0.1453   0.1262   0.2934   0.8969   1.2379
     1.5377   1.7473   1.8373   2.0748   2.3934   2.6316   2.8114   2.9673
     3.2196   3.5190   3.7378   3.8147   4.1137   4.2973   4.4423   4.6019
     4.6721   4.9852   5.3278   7.1275   9.1235  10.7760

          k = 0.0556 0.4811 0.0000 (  4463 PWs)   bands (ev):

   -42.5087 -42.4680 -42.4493 -42.2675 -42.2046 -42.1309 -42.1144 -42.0794
   -42.0275 -41.9868 -41.9785 -41.6832 -41.6831 -41.6005 -41.6000  -1.2161
    -1.0757  -0.8883  -0.7817  -0.4090  -0.2230  -0.1339   0.7157   1.2134
     1.4971   1.7469   2.1181   2.4283   2.5735   3.1803   3.5213   3.9428
     4.2030   4.3038   4.5944   4.7445   4.7920   4.9227   5.0678   5.2325
     5.8401   6.4867   6.9225   8.3973  10.2360  12.4283

          k = 0.0556-0.5453 0.0000 (  4486 PWs)   bands (ev):

   -42.5367 -42.4892 -42.4803 -42.2501 -42.2206 -42.1399 -42.1245 -42.0876
   -42.0360 -42.0074 -41.9957 -41.6909 -41.6906 -41.5990 -41.5988  -1.3255
    -1.1296  -0.9819  -0.8610  -0.4949  -0.2790  -0.2386   0.6657   1.1638
     1.4210   1.7033   2.1693   2.5707   2.6533   3.2563   3.7296   4.0873
     4.3197   4.6565   4.7887   4.9336   5.0039   5.1171   5.2265   5.3815
     6.5185   7.5778   8.0656   8.5829   9.4546  12.3275

          k = 0.0556-0.4170 0.0000 (  4465 PWs)   bands (ev):

   -42.4592 -42.4311 -42.3936 -42.2887 -42.1870 -42.1146 -42.0957 -42.0648
   -42.0140 -41.9462 -41.9414 -41.6694 -41.6692 -41.6036 -41.6027  -1.0292
    -0.9936  -0.7190  -0.6383  -0.2711  -0.0985   0.0532   0.8142   1.2631
     1.6404   1.7811   2.0397   2.0590   2.5459   2.8784   3.3190   3.5314
     3.6343   4.0413   4.1286   4.3050   4.5124   4.6606   4.7749   5.0116
     5.1767   5.4032   5.9905   7.7940   9.8617  11.7207

          k = 0.0556-0.2887 0.0000 (  4439 PWs)   bands (ev):

   -42.4206 -42.3272 -42.2569 -42.2343 -42.1362 -42.0654 -42.0480 -42.0302
   -41.9771 -41.8111 -41.8090 -41.6282 -41.6279 -41.6128 -41.6106  -1.2924
    -0.7808  -0.4872  -0.0887  -0.0223   0.3514   0.5205   0.8040   1.0308
     1.4125   1.7584   1.9306   1.9989   2.1700   2.3466   2.4443   2.7804
     2.8928   3.0576   3.2736   3.4674   3.6987   3.8032   4.0521   4.2052
     4.4900   4.8694   4.9899   6.5013   8.3428   9.8100

          k = 0.0556-0.1604 0.0000 (  4443 PWs)   bands (ev):

   -42.4698 -42.3027 -42.1210 -42.0818 -42.0278 -42.0221 -42.0064 -41.9887
   -41.9421 -41.6617 -41.6613 -41.6233 -41.6195 -41.5874 -41.5872  -2.2902
    -1.4678  -0.8357  -0.4773  -0.4446   0.8292   0.9757   1.1046   1.3935
     1.5221   1.7697   1.9326   1.9567   2.0676   2.0997   2.1732   2.2899
     2.5418   2.6750   3.0504   3.1942   3.2586   3.4626   3.7108   3.9253
     4.2948   4.5774   4.8878   5.3780   6.7931   7.8479

          k = 0.0556-0.0321 0.0000 (  4465 PWs)   bands (ev):

   -42.4993 -42.3083 -42.0653 -42.0039 -41.9936 -41.9792 -41.9728 -41.9346
   -41.9220 -41.6339 -41.6273 -41.5772 -41.5769 -41.5660 -41.5656  -2.8855
    -2.0221  -1.3286  -0.9921  -0.9436   1.3055   1.3460   1.4583   1.5954
     1.6632   1.6973   1.6986   1.8013   1.8594   2.0995   2.1317   2.1668
     2.2266   2.8338   3.3916   3.3956   3.6378   3.6623   4.0343   4.0597
     4.2339   4.5387   4.6343   4.9550   5.4981   6.2091

          k = 0.1667 0.2887 0.0000 (  4425 PWs)   bands (ev):

   -42.4065 -42.3405 -42.2853 -42.2717 -42.1582 -42.0967 -42.0664 -42.0480
   -42.0095 -41.8422 -41.8410 -41.6613 -41.6607 -41.6084 -41.6073  -0.8579
    -0.4969  -0.0501   0.0584   0.1272   0.2953   0.4513   0.6045   1.1391
     1.1790   1.4196   1.5911   1.6921   1.7379   2.3167   2.4524   2.6602
     2.8807   3.3038   3.5180   3.7439   4.0732   4.3548   4.3742   4.6858
     4.7244   4.7942   5.4185   7.0556   8.9196  10.4756

          k = 0.1667 0.4170 0.0000 (  4459 PWs)   bands (ev):

   -42.4443 -42.4135 -42.3865 -42.2957 -42.1791 -42.1620 -42.1483 -42.0866
   -42.0506 -41.9358 -41.9353 -41.7235 -41.7230 -41.6003 -41.6001  -0.6608
    -0.5826  -0.3705  -0.1412  -0.0259   0.1448   0.4898   0.7972   1.0280
     1.2064   1.4975   1.8429   2.0611   2.1511   2.4423   2.6707   2.8716
     3.2520   3.4673   3.7861   4.0037   4.3456   4.9291   4.9713   5.1972
     6.3695   6.6085   7.2694   8.7361  10.6049  12.3453

          k = 0.1667 0.5453 0.0000 (  4490 PWs)   bands (ev):

   -42.4996 -42.4522 -42.4456 -42.2623 -42.2064 -42.1941 -42.1896 -42.1023
   -42.0800 -41.9811 -41.9781 -41.7573 -41.7568 -41.5962 -41.5959  -0.9476
    -0.6666  -0.5568  -0.3594  -0.1411   0.0986   0.2684   0.6760   0.8504
     1.4016   1.7198   1.8849   2.1251   2.5478   2.6069   3.2563   3.4109
     3.4954   4.0079   4.2709   4.4372   4.5954   4.8384   4.9670   5.2102
     8.2958   8.8919   9.4386  10.1108  10.5827  12.5965

          k = 0.1667-0.4811 0.0000 (  4476 PWs)   bands (ev):

   -42.4794 -42.4391 -42.4250 -42.2764 -42.1877 -42.1850 -42.1800 -42.0978
   -42.0687 -41.9654 -41.9641 -41.7455 -41.7450 -41.5975 -41.5974  -0.8463
    -0.6337  -0.4919  -0.2830  -0.0826   0.0998   0.3602   0.7006   0.9758
     1.2937   1.7109   1.9093   2.0330   2.3388   2.6794   3.0176   3.1471
     3.3735   3.8882   4.0137   4.0992   4.4570   4.9435   5.0355   5.2939
     7.3625   7.7639   8.4309   9.6761  11.2376  12.8967

          k = 0.1667-0.3528 0.0000 (  4458 PWs)   bands (ev):

   -42.4119 -42.3773 -42.3341 -42.3076 -42.1718 -42.1315 -42.1063 -42.0694
   -42.0309 -41.8940 -41.8931 -41.6940 -41.6935 -41.6044 -41.6038  -0.5835
    -0.4726  -0.2112  -0.0769   0.0454   0.3162   0.4776   0.7823   0.9576
     1.2116   1.4504   1.6199   1.8932   2.0004   2.2296   2.3569   2.7747
     3.1039   3.2423   3.7034   3.9371   4.2102   4.6727   4.7754   4.9682
     5.4727   5.5646   6.2068   7.8170   9.7311  11.3964

          k = 0.1667-0.2245 0.0000 (  4433 PWs)   bands (ev):

   -42.4242 -42.3167 -42.2367 -42.2078 -42.1297 -42.0652 -42.0396 -42.0280
   -41.9839 -41.7859 -41.7848 -41.6308 -41.6306 -41.6135 -41.6115  -1.3338
    -0.7298  -0.2362   0.0381   0.1145   0.3478   0.5472   0.7625   0.9329
     1.3203   1.5168   1.6716   1.8061   1.9491   2.2412   2.5626   2.7201
     2.7437   3.0602   3.2687   3.4084   3.7354   3.7852   4.1519   4.1566
     4.3593   4.7812   4.9648   6.4370   8.1934   9.6109

          k = 0.1667-0.0962 0.0000 (  4427 PWs)   bands (ev):

   -42.4614 -42.3025 -42.1450 -42.1073 -42.0427 -42.0258 -42.0184 -42.0003
   -41.9437 -41.6875 -41.6871 -41.6216 -41.6182 -41.5920 -41.5919  -2.1161
    -1.3234  -0.7356  -0.3792  -0.2933   0.6546   0.9684   1.0166   1.2287
     1.5894   1.7986   1.9585   2.0008   2.0670   2.1866   2.2617   2.3833
     2.5396   2.7967   2.8557   3.1374   3.2306   3.4633   3.6510   4.0557
     4.2177   4.6480   4.9981   5.5112   7.0685   8.2075

          k = 0.2778 0.4811 0.0000 (  4485 PWs)   bands (ev):

   -42.4416 -42.4242 -42.3839 -42.3184 -42.2445 -42.2399 -42.1651 -42.1523
   -42.0793 -41.9446 -41.9430 -41.8165 -41.8156 -41.5950 -41.5948  -0.4387
    -0.4282  -0.1186   0.1399   0.3375   0.3970   0.4909   0.5520   0.9750
     1.2021   1.5411   1.6523   2.1174   2.2103   2.3534   2.4260   2.9337
     3.1434   3.5038   3.6416   4.0259   4.4682   4.8569   4.9783   5.1753
     8.6976   9.1743   9.9917  11.2046  12.6270  13.1306

          k = 0.2778 0.6094 0.0000 (  4491 PWs)   bands (ev):

   -42.4349 -42.4078 -42.3796 -42.3307 -42.2870 -42.2643 -42.1656 -42.1505
   -42.0907 -41.9365 -41.9357 -41.8484 -41.8474 -41.5936 -41.5933  -0.4585
    -0.2298  -0.0142   0.1148   0.2297   0.3763   0.4911   0.6337   0.9392
     1.3206   1.5389   1.6980   2.0639   2.1249   2.4223   2.4621   2.9162
     3.2232   3.5151   3.6641   4.2885   4.4956   4.7142   4.8322   4.9546
     9.9334  10.4795  11.0960  11.6047  12.2534  12.7516

          k = 0.2778-0.4170 0.0000 (  4462 PWs)   bands (ev):

   -42.4489 -42.4214 -42.3948 -42.2986 -42.2070 -42.1972 -42.1684 -42.1277
   -42.0653 -41.9457 -41.9441 -41.7712 -41.7702 -41.5972 -41.5966  -0.5800
    -0.4425  -0.2426  -0.0008   0.1769   0.3005   0.5014   0.8516   0.9459
     1.0179   1.5592   1.6853   2.0847   2.2491   2.3339   2.5179   2.8364
     3.1823   3.5016   3.7715   3.8482   4.4069   4.9548   5.0770   5.2850
     7.5030   7.8476   8.5943   9.9208  11.6231  13.2427

          k = 0.2778-0.2887 0.0000 (  4463 PWs)   bands (ev):

   -42.4293 -42.4020 -42.3587 -42.2986 -42.1760 -42.1213 -42.1090 -42.0573
   -42.0261 -41.9162 -41.9141 -41.6814 -41.6813 -41.6041 -41.6032  -0.8011
    -0.7186  -0.5014  -0.3506  -0.0871   0.0748   0.3716   0.7994   1.1342
     1.4819   1.5520   1.8283   2.0779   2.2320   2.5891   2.7990   2.9248
     3.2633   3.4815   3.8123   4.0503   4.3852   4.6057   4.7695   4.9972
     5.3465   5.5116   6.1207   7.7914   9.7700  11.5006

          k = 0.2778-0.1604 0.0000 (  4458 PWs)   bands (ev):

   -42.4162 -42.3502 -42.2812 -42.2736 -42.1527 -42.0745 -42.0491 -42.0429
   -41.9793 -41.8487 -41.8453 -41.6328 -41.6326 -41.6110 -41.6090  -1.1911
    -0.8224  -0.6115  -0.2538  -0.1452   0.2164   0.3693   0.9270   1.2399
     1.5099   1.7515   2.0191   2.0411   2.4521   2.5640   2.6554   2.8202
     3.0605   3.3756   3.4050   3.6917   3.7177   3.8819   4.0725   4.2377
     4.6593   4.9127   5.0521   6.7099   8.6512  10.2042

          k = 0.3889 0.6736 0.0000 (  4511 PWs)   bands (ev):

   -42.4711 -42.4250 -42.4190 -42.2896 -42.2560 -42.2240 -42.1827 -42.1345
   -42.0855 -41.9616 -41.9606 -41.8070 -41.8059 -41.5947 -41.5944  -0.7243
    -0.3641  -0.1944  -0.1552   0.1530   0.2659   0.3849   0.6927   0.8991
     1.1884   1.6490   1.8944   1.9705   2.2524   2.6485   2.8236   2.9495
     3.2866   3.7534   3.9623   4.4508   4.4769   4.7148   4.9024   5.0417
     9.4776   9.9200  10.3292  10.8276  11.2857  12.7599

          k = 0.3889-0.3528 0.0000 (  4485 PWs)   bands (ev):

   -42.5127 -42.4674 -42.4568 -42.2591 -42.2060 -42.1579 -42.1529 -42.0799
   -42.0605 -41.9892 -41.9836 -41.7142 -41.7140 -41.5986 -41.5981  -1.1177
    -0.9238  -0.7984  -0.6131  -0.3226  -0.0997   0.0009   0.6705   1.0599
     1.5019   1.7280   1.9363   2.3153   2.6284   2.9063   3.5091   3.6877
     3.9274   4.1918   4.4892   4.5486   4.6557   4.9572   5.0313   5.3028
     7.0339   7.6689   8.1606   9.1904  10.4233  12.5398

          k = 0.3889-0.2245 0.0000 (  4444 PWs)   bands (ev):

   -42.4888 -42.4546 -42.4264 -42.2777 -42.1977 -42.1160 -42.0894 -42.0797
   -42.0109 -41.9722 -41.9639 -41.6682 -41.6681 -41.6023 -41.6014  -1.1939
    -1.1020  -0.8517  -0.7932  -0.3979  -0.2257  -0.1044   0.7766   1.2877
     1.5346   1.7842   2.2060   2.4026   2.4312   3.3101   3.3706   3.9309
     4.2118   4.3009   4.5702   4.6999   4.7614   4.7835   4.9563   5.0656
     5.1934   5.5100   6.0764   7.9443  10.0220  12.0580

          k =-0.5000-0.8660 0.0000 (  4492 PWs)   bands (ev):

   -42.5453 -42.4969 -42.4893 -42.2469 -42.2268 -42.1331 -42.1107 -42.0942
   -42.0235 -42.0172 -41.9995 -41.6825 -41.6822 -41.5997 -41.5992  -1.4028
    -1.2016  -1.0412  -0.9480  -0.5627  -0.3650  -0.2958   0.6577   1.2092
     1.3760   1.6811   2.3596   2.4829   2.7707   3.3701   3.7731   4.2509
     4.3548   4.8737   5.0104   5.0402   5.1047   5.2590   5.5059   5.5230
     6.0926   7.5199   8.1569   8.5077   8.6994  12.2383

     the Fermi energy is     4.4732 ev

!    total energy              =    -855.84634624 Ry
     estimated scf accuracy    <       0.00000028 Ry
     smearing contrib. (-TS)   =      -0.02236194 Ry
     internal energy E=F+TS    =    -855.82398430 Ry

     The total energy is F=E-TS. E is the sum of the following terms:
     one-electron contribution =  -11787.64606922 Ry
     hartree contribution      =    5916.01324370 Ry
     xc contribution           =    -149.48907197 Ry
     ewald contribution        =    5165.29791319 Ry

     total magnetization       =    -0.00 Bohr mag/cell
     absolute magnetization    =     0.00 Bohr mag/cell

     convergence has been achieved in   9 iterations

     negative rho (up, down):  1.444E-01 1.444E-01

     Forces acting on atoms (cartesian axes, Ry/au):

     atom    1 type  1   force =     0.00000000    0.00000000    0.00612209
     atom    2 type  1   force =     0.00000000    0.00000000   -0.00140470
     atom    3 type  1   force =     0.00000000    0.00000000    0.00000102
     atom    4 type  1   force =     0.00000000    0.00000000    0.00141320
     atom    5 type  1   force =     0.00000000    0.00000000   -0.00613161

     Total force =     0.008891     Total SCF correction =     0.003343
     SCF correction compared to forces is large: reduce conv_thr to get better values
     Energy error            =      2.5E-04
     Gradient error          =      6.1E-03

     number of scf cycles    =   3
     number of bfgs steps    =   2

     energy   old            =    -855.8460997073 Ry
     energy   new            =    -855.8463462398 Ry

     CASE: energy  _new < energy  _old

     new trust radius        =       0.0194078785 bohr
     new conv_thr            =       0.0000002465 Ry


ATOMIC_POSITIONS (angstrom)
Rh            0.0000000000        0.0000000000        0.0233344089
Rh            1.3554284000       -0.7825569000        2.2012438330
Rh            1.3554284000        0.7825569000        4.4268032501
Rh            0.0000000000        0.0000000000        6.6523771311
Rh            1.3554284000       -0.7825569000        8.8302943768



     Writing output data file /home/STUDENTI/leonardo.razzai/Rh_work/surf_111/5-L.save/
     NEW-OLD atomic charge density approx. for the potential

     negative rho (up, down):  1.444E-01 1.444E-01
     Generating pointlists ...
     new r_m :   0.4081 (alat units)  2.0906 (a.u.) for type    1

     total cpu time spent up to now is      211.8 secs

     Self-consistent Calculation

     iteration #  1     ecut=    35.00 Ry     beta= 0.40
     Davidson diagonalization with overlap
     ethr =  1.00E-06,  avg # of iterations =  6.0

     negative rho (up, down):  1.444E-01 1.444E-01

     total cpu time spent up to now is      222.9 secs

     total energy              =    -855.84624761 Ry
     estimated scf accuracy    <       0.00945890 Ry

     total magnetization       =    -0.00 Bohr mag/cell
     absolute magnetization    =     0.00 Bohr mag/cell

     iteration #  2     ecut=    35.00 Ry     beta= 0.40
     Davidson diagonalization with overlap
     ethr =  1.26E-05,  avg # of iterations =  1.0

     negative rho (up, down):  1.444E-01 1.444E-01

     total cpu time spent up to now is      228.3 secs

     total energy              =    -855.84644827 Ry
     estimated scf accuracy    <       0.00282414 Ry

     total magnetization       =    -0.00 Bohr mag/cell
     absolute magnetization    =     0.00 Bohr mag/cell

     iteration #  3     ecut=    35.00 Ry     beta= 0.40
     Davidson diagonalization with overlap
     ethr =  3.77E-06,  avg # of iterations =  1.0

     negative rho (up, down):  1.444E-01 1.444E-01

     total cpu time spent up to now is      233.6 secs

     total energy              =    -855.84650701 Ry
     estimated scf accuracy    <       0.00055161 Ry

     total magnetization       =    -0.00 Bohr mag/cell
     absolute magnetization    =     0.00 Bohr mag/cell

     iteration #  4     ecut=    35.00 Ry     beta= 0.40
     Davidson diagonalization with overlap
     ethr =  7.35E-07,  avg # of iterations =  1.0

     negative rho (up, down):  1.444E-01 1.444E-01

     total cpu time spent up to now is      238.9 secs

     total energy              =    -855.84649769 Ry
     estimated scf accuracy    <       0.00021596 Ry

     total magnetization       =    -0.00 Bohr mag/cell
     absolute magnetization    =     0.00 Bohr mag/cell

     iteration #  5     ecut=    35.00 Ry     beta= 0.40
     Davidson diagonalization with overlap
     ethr =  2.88E-07,  avg # of iterations =  1.0

     negative rho (up, down):  1.444E-01 1.444E-01

     total cpu time spent up to now is      244.2 secs

     total energy              =    -855.84650092 Ry
     estimated scf accuracy    <       0.00003222 Ry

     total magnetization       =    -0.00 Bohr mag/cell
     absolute magnetization    =     0.00 Bohr mag/cell

     iteration #  6     ecut=    35.00 Ry     beta= 0.40
     Davidson diagonalization with overlap
     ethr =  4.30E-08,  avg # of iterations =  1.1

     negative rho (up, down):  1.444E-01 1.444E-01

     total cpu time spent up to now is      249.5 secs

     total energy              =    -855.84650021 Ry
     estimated scf accuracy    <       0.00000581 Ry

     total magnetization       =    -0.00 Bohr mag/cell
     absolute magnetization    =     0.00 Bohr mag/cell

     iteration #  7     ecut=    35.00 Ry     beta= 0.40
     Davidson diagonalization with overlap
     ethr =  7.74E-09,  avg # of iterations =  1.6

     negative rho (up, down):  1.444E-01 1.444E-01

     total cpu time spent up to now is      255.0 secs

     total energy              =    -855.84650006 Ry
     estimated scf accuracy    <       0.00000263 Ry

     total magnetization       =    -0.00 Bohr mag/cell
     absolute magnetization    =     0.00 Bohr mag/cell

     iteration #  8     ecut=    35.00 Ry     beta= 0.40
     Davidson diagonalization with overlap
     ethr =  3.51E-09,  avg # of iterations =  1.5

     negative rho (up, down):  1.444E-01 1.444E-01

     total cpu time spent up to now is      260.6 secs

     total energy              =    -855.84650035 Ry
     estimated scf accuracy    <       0.00000217 Ry

     total magnetization       =    -0.00 Bohr mag/cell
     absolute magnetization    =     0.00 Bohr mag/cell

     iteration #  9     ecut=    35.00 Ry     beta= 0.40
     Davidson diagonalization with overlap
     ethr =  2.89E-09,  avg # of iterations =  1.2

     negative rho (up, down):  1.444E-01 1.444E-01

     total cpu time spent up to now is      266.1 secs

     total energy              =    -855.84650109 Ry
     estimated scf accuracy    <       0.00000144 Ry

     total magnetization       =    -0.00 Bohr mag/cell
     absolute magnetization    =     0.00 Bohr mag/cell

     iteration # 10     ecut=    35.00 Ry     beta= 0.40
     Davidson diagonalization with overlap
     ethr =  1.93E-09,  avg # of iterations =  1.0

     negative rho (up, down):  1.444E-01 1.444E-01

     total cpu time spent up to now is      271.4 secs

     total energy              =    -855.84650217 Ry
     estimated scf accuracy    <       0.00000046 Ry

     total magnetization       =    -0.00 Bohr mag/cell
     absolute magnetization    =     0.00 Bohr mag/cell

     iteration # 11     ecut=    35.00 Ry     beta= 0.40
     Davidson diagonalization with overlap
     ethr =  6.18E-10,  avg # of iterations =  1.4

     negative rho (up, down):  1.444E-01 1.444E-01
 
     Magnetic moment per site:
     atom:    1    charge:   13.1041    magn:    0.0000    constr:    0.0000
     atom:    2    charge:   13.1558    magn:    0.0000    constr:    0.0000
     atom:    3    charge:   13.1523    magn:   -0.0000    constr:    0.0000
     atom:    4    charge:   13.1559    magn:    0.0000    constr:    0.0000
     atom:    5    charge:   13.1040    magn:    0.0000    constr:    0.0000

     total cpu time spent up to now is      276.7 secs

     End of self-consistent calculation

 ------ SPIN UP ------------


          k = 0.0556 0.0962 0.0000 (  4451 PWs)   bands (ev):

   -42.4829 -42.3132 -42.0778 -42.0282 -42.0010 -41.9896 -41.9846 -41.9502
   -41.9180 -41.6390 -41.6341 -41.6111 -41.6098 -41.5793 -41.5793  -2.6763
    -1.8364  -1.1425  -0.8160  -0.7821   1.1360   1.1852   1.3353   1.5862
     1.6619   1.7433   1.7939   1.8391   1.9438   2.0291   2.1217   2.2659
     2.3680   2.5458   3.2703   3.3136   3.5891   3.6572   3.6970   3.9382
     4.2546   4.4578   4.9205   4.9326   6.0839   6.9347

          k = 0.0556 0.2245 0.0000 (  4420 PWs)   bands (ev):

   -42.4380 -42.3097 -42.1871 -42.1516 -42.0746 -42.0368 -42.0211 -42.0109
   -41.9480 -41.7373 -41.7366 -41.6262 -41.6233 -41.6123 -41.6120  -1.7815
    -1.0670  -0.5278  -0.1913  -0.0681   0.4658   0.7783   0.8905   1.0261
     1.5237   1.6894   1.8654   1.9352   2.0647   2.2555   2.4506   2.5577
     2.7270   2.8031   2.9848   3.1231   3.3674   3.4534   3.7999   4.0625
     4.3608   4.7215   4.9201   5.9260   7.5811   8.8487

          k = 0.0556 0.3528 0.0000 (  4467 PWs)   bands (ev):

   -42.4100 -42.3742 -42.3202 -42.2985 -42.1668 -42.0872 -42.0706 -42.0435
   -41.9866 -41.8905 -41.8868 -41.6561 -41.6560 -41.6171 -41.6154  -1.0184
    -0.7962  -0.6016  -0.3919  -0.1639   0.1093   0.2837   0.8855   1.2394
     1.5374   1.7471   1.8406   2.0730   2.3815   2.6150   2.8038   2.9646
     3.2134   3.5280   3.7470   3.8131   4.1159   4.2937   4.4470   4.6112
     4.6798   4.9979   5.3388   7.1444   9.1412  10.7926

          k = 0.0556 0.4811 0.0000 (  4463 PWs)   bands (ev):

   -42.5046 -42.4608 -42.4476 -42.2717 -42.2081 -42.1260 -42.1112 -42.0752
   -42.0188 -41.9885 -41.9797 -41.6889 -41.6889 -41.6107 -41.6099  -1.2159
    -1.0739  -0.8857  -0.7985  -0.4282  -0.2394  -0.1495   0.7079   1.2182
     1.5058   1.7438   2.1047   2.4271   2.5621   3.1702   3.5145   3.9448
     4.2050   4.3121   4.6020   4.7463   4.8016   4.9314   5.0682   5.2385
     5.8433   6.4894   6.9302   8.4154  10.2487  12.4379

          k = 0.0556-0.5453 0.0000 (  4486 PWs)   bands (ev):

   -42.5327 -42.4831 -42.4772 -42.2575 -42.2228 -42.1350 -42.1202 -42.0829
   -42.0288 -42.0072 -41.9964 -41.6967 -41.6963 -41.6094 -41.6090  -1.3252
    -1.1290  -0.9779  -0.8786  -0.5135  -0.2918  -0.2590   0.6563   1.1715
     1.4295   1.7004   2.1499   2.5554   2.6619   3.2468   3.7265   4.0891
     4.3295   4.6605   4.7983   4.9398   5.0068   5.1239   5.2274   5.3837
     6.5217   7.5798   8.0736   8.5995   9.4653  12.3217

          k = 0.0556-0.4170 0.0000 (  4465 PWs)   bands (ev):

   -42.4547 -42.4232 -42.3931 -42.2915 -42.1894 -42.1098 -42.0935 -42.0607
   -42.0045 -41.9494 -41.9438 -41.6752 -41.6750 -41.6133 -41.6122  -1.0316
    -0.9875  -0.7226  -0.6494  -0.2908  -0.1157   0.0408   0.8078   1.2631
     1.6488   1.7769   2.0362   2.0611   2.5217   2.8697   3.3105   3.5257
     3.6358   4.0474   4.1404   4.3097   4.5105   4.6767   4.7749   5.0195
     5.1827   5.4062   5.9992   7.8129   9.8775  11.7359

          k = 0.0556-0.2887 0.0000 (  4439 PWs)   bands (ev):

   -42.4135 -42.3262 -42.2603 -42.2350 -42.1296 -42.0610 -42.0450 -42.0273
   -41.9669 -41.8163 -41.8139 -41.6342 -41.6339 -41.6213 -41.6189  -1.2900
    -0.7880  -0.4908  -0.0954  -0.0364   0.3479   0.5033   0.7915   1.0270
     1.4128   1.7624   1.9299   1.9933   2.1686   2.3387   2.4440   2.7621
     2.8913   3.0654   3.2672   3.4742   3.6995   3.7964   4.0564   4.2108
     4.5013   4.8854   4.9992   6.5145   8.3616   9.8272

          k = 0.0556-0.1604 0.0000 (  4443 PWs)   bands (ev):

   -42.4636 -42.3096 -42.1205 -42.0804 -42.0192 -42.0178 -42.0028 -41.9859
   -41.9312 -41.6679 -41.6676 -41.6308 -41.6265 -41.5934 -41.5932  -2.2879
    -1.4796  -0.8294  -0.4924  -0.4602   0.8237   0.9772   1.1131   1.3744
     1.5086   1.7814   1.9317   1.9563   2.0712   2.1001   2.1761   2.2850
     2.5212   2.6660   3.0488   3.1989   3.2585   3.4696   3.7088   3.9286
     4.2964   4.5858   4.8988   5.3838   6.8112   7.8651

          k = 0.0556-0.0321 0.0000 (  4465 PWs)   bands (ev):

   -42.4933 -42.3166 -42.0619 -42.0001 -41.9894 -41.9787 -41.9728 -41.9235
   -41.9110 -41.6416 -41.6344 -41.5832 -41.5829 -41.5721 -41.5717  -2.8832
    -2.0341  -1.3204  -1.0058  -0.9605   1.3035   1.3560   1.4651   1.5953
     1.6567   1.6993   1.7057   1.7920   1.8681   2.0909   2.1218   2.1472
     2.2152   2.8343   3.3973   3.4015   3.6345   3.6569   4.0252   4.0619
     4.2383   4.5440   4.6430   4.9654   5.5123   6.2250

          k = 0.1667 0.2887 0.0000 (  4425 PWs)   bands (ev):

   -42.3987 -42.3373 -42.2885 -42.2721 -42.1551 -42.0950 -42.0665 -42.0388
   -42.0003 -41.8468 -41.8455 -41.6673 -41.6666 -41.6171 -41.6160  -0.8553
    -0.5021  -0.0638   0.0616   0.1342   0.2756   0.4264   0.5920   1.1371
     1.1713   1.4158   1.5774   1.6801   1.7463   2.3238   2.4505   2.6606
     2.8794   3.3017   3.5226   3.7393   4.0789   4.3553   4.3846   4.6865
     4.7318   4.8024   5.4295   7.0722   8.9373  10.4922

          k = 0.1667 0.4170 0.0000 (  4459 PWs)   bands (ev):

   -42.4400 -42.4039 -42.3874 -42.2968 -42.1822 -42.1622 -42.1462 -42.0757
   -42.0437 -41.9389 -41.9382 -41.7292 -41.7286 -41.6100 -41.6097  -0.6594
    -0.5807  -0.3725  -0.1581  -0.0405   0.1243   0.4778   0.7906   1.0140
     1.2014   1.5063   1.8307   2.0571   2.1521   2.4326   2.6689   2.8617
     3.2577   3.4711   3.8012   4.0142   4.3559   4.9377   4.9749   5.2056
     6.3750   6.6086   7.2746   8.7524  10.6195  12.3600

          k = 0.1667 0.5453 0.0000 (  4490 PWs)   bands (ev):

   -42.4954 -42.4468 -42.4419 -42.2647 -42.2021 -42.1988 -42.1899 -42.0938
   -42.0712 -41.9832 -41.9804 -41.7628 -41.7622 -41.6065 -41.6062  -0.9472
    -0.6660  -0.5541  -0.3822  -0.1572   0.0753   0.2565   0.6646   0.8554
     1.3897   1.7100   1.8870   2.1368   2.5387   2.5964   3.2492   3.4077
     3.4995   4.0165   4.2807   4.4474   4.6079   4.8471   4.9748   5.2200
     8.3003   8.8936   9.4433  10.1231  10.5917  12.5986

          k = 0.1667-0.4811 0.0000 (  4476 PWs)   bands (ev):

   -42.4753 -42.4288 -42.4261 -42.2776 -42.1914 -42.1850 -42.1778 -42.0876
   -42.0614 -41.9677 -41.9667 -41.7511 -41.7505 -41.6076 -41.6075  -0.8455
    -0.6324  -0.4913  -0.3036  -0.0983   0.0776   0.3481   0.6924   0.9754
     1.2811   1.7114   1.9045   2.0389   2.3315   2.6687   3.0094   3.1425
     3.3776   3.8968   4.0268   4.1112   4.4676   4.9529   5.0417   5.3027
     7.3674   7.7648   8.4362   9.6901  11.2490  12.9053

          k = 0.1667-0.3528 0.0000 (  4458 PWs)   bands (ev):

   -42.4052 -42.3701 -42.3346 -42.3102 -42.1726 -42.1308 -42.1056 -42.0585
   -42.0234 -41.8980 -41.8968 -41.6999 -41.6993 -41.6137 -41.6130  -0.5808
    -0.4715  -0.2187  -0.0830   0.0317   0.2950   0.4676   0.7658   0.9522
     1.2116   1.4466   1.6120   1.8801   1.9969   2.2338   2.3568   2.7745
     3.1048   3.2420   3.7135   3.9419   4.2204   4.6765   4.7815   4.9758
     5.4791   5.5644   6.2136   7.8347   9.7475  11.4123

          k = 0.1667-0.2245 0.0000 (  4433 PWs)   bands (ev):

   -42.4171 -42.3179 -42.2389 -42.2085 -42.1219 -42.0622 -42.0373 -42.0234
   -41.9733 -41.7912 -41.7899 -41.6369 -41.6367 -41.6217 -41.6196  -1.3313
    -0.7392  -0.2369   0.0319   0.1016   0.3442   0.5273   0.7584   0.9227
     1.3156   1.5140   1.6673   1.8025   1.9493   2.2467   2.5587   2.7209
     2.7348   3.0676   3.2624   3.4046   3.7332   3.7807   4.1598   4.1632
     4.3690   4.7906   4.9774   6.4503   8.2120   9.6281

          k = 0.1667-0.0962 0.0000 (  4427 PWs)   bands (ev):

   -42.4551 -42.3087 -42.1449 -42.1067 -42.0316 -42.0212 -42.0137 -42.0004
   -41.9332 -41.6935 -41.6931 -41.6293 -41.6256 -41.5980 -41.5979  -2.1138
    -1.3349  -0.7309  -0.3954  -0.3064   0.6525   0.9600   1.0266   1.2078
     1.5813   1.8088   1.9597   2.0003   2.0710   2.1898   2.2677   2.3732
     2.5144   2.7871   2.8537   3.1381   3.2335   3.4761   3.6485   4.0536
     4.2227   4.6609   5.0098   5.5157   7.0871   8.2249

          k = 0.2778 0.4811 0.0000 (  4485 PWs)   bands (ev):

   -42.4384 -42.4160 -42.3824 -42.3136 -42.2469 -42.2413 -42.1686 -42.1437
   -42.0695 -41.9481 -41.9464 -41.8215 -41.8204 -41.6053 -41.6050  -0.4336
    -0.4312  -0.1330   0.1305   0.3216   0.3860   0.4686   0.5435   0.9610
     1.1952   1.5283   1.6586   2.1155   2.2068   2.3445   2.4178   2.9368
     3.1494   3.5142   3.6603   4.0391   4.4775   4.8667   4.9885   5.1843
     8.7027   9.1756   9.9974  11.2157  12.6366  13.1346

          k = 0.2778 0.6094 0.0000 (  4491 PWs)   bands (ev):

   -42.4305 -42.4012 -42.3767 -42.3265 -42.2869 -42.2651 -42.1679 -42.1483
   -42.0789 -41.9405 -41.9396 -41.8529 -41.8517 -41.6040 -41.6037  -0.4579
    -0.2296  -0.0284   0.1112   0.2215   0.3513   0.4690   0.6240   0.9235
     1.3140   1.5287   1.7037   2.0582   2.1216   2.4137   2.4560   2.9177
     3.2299   3.5305   3.6837   4.3004   4.5060   4.7238   4.8421   4.9638
     9.9385  10.4820  11.0999  11.6124  12.2594  12.7573

          k = 0.2778-0.4170 0.0000 (  4462 PWs)   bands (ev):

   -42.4452 -42.4120 -42.3948 -42.2968 -42.2094 -42.1990 -42.1700 -42.1158
   -42.0574 -41.9489 -41.9471 -41.7767 -41.7755 -41.6072 -41.6066  -0.5791
    -0.4399  -0.2512  -0.0164   0.1631   0.2820   0.4863   0.8489   0.9301
     1.0094   1.5661   1.6713   2.0827   2.2496   2.3234   2.5132   2.8347
     3.1886   3.5063   3.7870   3.8635   4.4165   4.9643   5.0844   5.2938
     7.5085   7.8478   8.5995   9.9345  11.6362  13.2562

          k = 0.2778-0.2887 0.0000 (  4463 PWs)   bands (ev):

   -42.4238 -42.3944 -42.3588 -42.3012 -42.1774 -42.1184 -42.1072 -42.0509
   -42.0170 -41.9199 -41.9173 -41.6872 -41.6871 -41.6135 -41.6125  -0.7997
    -0.7160  -0.5043  -0.3622  -0.1063   0.0554   0.3627   0.7916   1.1248
     1.4862   1.5494   1.8303   2.0728   2.2226   2.5784   2.7955   2.9142
     3.2641   3.4899   3.8235   4.0543   4.3931   4.6117   4.7739   5.0061
     5.3511   5.5135   6.1280   7.8094   9.7863  11.5163

          k = 0.2778-0.1604 0.0000 (  4458 PWs)   bands (ev):

   -42.4088 -42.3462 -42.2856 -42.2747 -42.1485 -42.0695 -42.0432 -42.0431
   -41.9693 -41.8536 -41.8497 -41.6387 -41.6385 -41.6198 -41.6176  -1.1888
    -0.8248  -0.6199  -0.2553  -0.1632   0.2068   0.3545   0.9115   1.2468
     1.5063   1.7565   2.0180   2.0445   2.4486   2.5353   2.6483   2.8208
     3.0517   3.3690   3.4147   3.6920   3.7327   3.8733   4.0734   4.2426
     4.6762   4.9231   5.0650   6.7242   8.6698  10.2212

          k = 0.3889 0.6736 0.0000 (  4511 PWs)   bands (ev):

   -42.4667 -42.4199 -42.4151 -42.2871 -42.2548 -42.2267 -42.1850 -42.1288
   -42.0749 -41.9646 -41.9637 -41.8120 -41.8108 -41.6050 -41.6048  -0.7239
    -0.3623  -0.1927  -0.1779   0.1374   0.2458   0.3658   0.6896   0.8893
     1.1747   1.6423   1.8980   1.9688   2.2523   2.6433   2.8149   2.9448
     3.2947   3.7650   3.9746   4.4648   4.4871   4.7243   4.9108   5.0518
     9.4828   9.9232  10.3299  10.8378  11.2952  12.7644

          k = 0.3889-0.3528 0.0000 (  4485 PWs)   bands (ev):

   -42.5087 -42.4604 -42.4547 -42.2638 -42.2085 -42.1547 -42.1509 -42.0728
   -42.0523 -41.9907 -41.9851 -41.7199 -41.7196 -41.6088 -41.6082  -1.1171
    -0.9238  -0.7945  -0.6319  -0.3413  -0.1215  -0.0102   0.6611   1.0654
     1.5031   1.7218   1.9275   2.3232   2.6126   2.8979   3.5052   3.6844
     3.9291   4.2015   4.4990   4.5534   4.6671   4.9653   5.0362   5.3107
     7.0378   7.6706   8.1669   9.2052  10.4336  12.5440

          k = 0.3889-0.2245 0.0000 (  4444 PWs)   bands (ev):

   -42.4846 -42.4471 -42.4252 -42.2810 -42.2010 -42.1108 -42.0826 -42.0800
   -42.0013 -41.9750 -41.9655 -41.6740 -41.6739 -41.6122 -41.6111  -1.1944
    -1.0983  -0.8533  -0.8061  -0.4173  -0.2398  -0.1213   0.7697   1.2920
     1.5434   1.7828   2.2022   2.3994   2.4098   3.3026   3.3584   3.9361
     4.2167   4.2994   4.5715   4.7107   4.7650   4.7936   4.9583   5.0635
     5.2015   5.5146   6.0869   7.9639  10.0367  12.0715

          k =-0.5000-0.8660 0.0000 (  4492 PWs)   bands (ev):

   -42.5414 -42.4906 -42.4864 -42.2559 -42.2283 -42.1278 -42.1011 -42.0946
   -42.0193 -42.0140 -41.9999 -41.6883 -41.6880 -41.6100 -41.6094  -1.4026
    -1.2005  -1.0373  -0.9652  -0.5810  -0.3754  -0.3188   0.6487   1.2171
     1.3854   1.6795   2.3273   2.4783   2.7807   3.3589   3.7712   4.2524
     4.3684   4.8826   5.0184   5.0483   5.1038   5.2646   5.5013   5.5208
     6.0958   7.5230   8.1707   8.5153   8.7154  12.2351

 ------ SPIN DOWN ----------


          k = 0.0556 0.0962 0.0000 (  4451 PWs)   bands (ev):

   -42.4829 -42.3132 -42.0778 -42.0282 -42.0010 -41.9896 -41.9846 -41.9502
   -41.9180 -41.6390 -41.6341 -41.6111 -41.6098 -41.5793 -41.5793  -2.6763
    -1.8364  -1.1425  -0.8160  -0.7821   1.1360   1.1852   1.3353   1.5862
     1.6619   1.7433   1.7939   1.8391   1.9438   2.0291   2.1217   2.2659
     2.3680   2.5458   3.2703   3.3136   3.5891   3.6572   3.6970   3.9382
     4.2546   4.4578   4.9205   4.9326   6.0839   6.9347

          k = 0.0556 0.2245 0.0000 (  4420 PWs)   bands (ev):

   -42.4380 -42.3097 -42.1871 -42.1516 -42.0746 -42.0368 -42.0211 -42.0109
   -41.9480 -41.7373 -41.7366 -41.6262 -41.6233 -41.6123 -41.6120  -1.7815
    -1.0670  -0.5278  -0.1913  -0.0681   0.4658   0.7783   0.8905   1.0261
     1.5237   1.6894   1.8654   1.9352   2.0647   2.2555   2.4506   2.5577
     2.7270   2.8031   2.9848   3.1231   3.3674   3.4534   3.7999   4.0625
     4.3608   4.7215   4.9201   5.9260   7.5811   8.8487

          k = 0.0556 0.3528 0.0000 (  4467 PWs)   bands (ev):

   -42.4100 -42.3742 -42.3202 -42.2985 -42.1668 -42.0872 -42.0706 -42.0435
   -41.9866 -41.8905 -41.8868 -41.6561 -41.6560 -41.6171 -41.6154  -1.0184
    -0.7962  -0.6016  -0.3919  -0.1639   0.1093   0.2837   0.8855   1.2394
     1.5374   1.7471   1.8406   2.0730   2.3815   2.6150   2.8038   2.9646
     3.2134   3.5280   3.7470   3.8131   4.1159   4.2937   4.4470   4.6112
     4.6798   4.9979   5.3388   7.1444   9.1412  10.7926

          k = 0.0556 0.4811 0.0000 (  4463 PWs)   bands (ev):

   -42.5046 -42.4608 -42.4476 -42.2717 -42.2081 -42.1260 -42.1112 -42.0752
   -42.0188 -41.9885 -41.9797 -41.6889 -41.6889 -41.6107 -41.6099  -1.2159
    -1.0739  -0.8857  -0.7985  -0.4282  -0.2394  -0.1495   0.7079   1.2182
     1.5058   1.7438   2.1047   2.4271   2.5621   3.1702   3.5145   3.9448
     4.2050   4.3121   4.6020   4.7463   4.8016   4.9314   5.0682   5.2385
     5.8433   6.4894   6.9302   8.4154  10.2487  12.4379

          k = 0.0556-0.5453 0.0000 (  4486 PWs)   bands (ev):

   -42.5327 -42.4831 -42.4772 -42.2575 -42.2228 -42.1350 -42.1202 -42.0829
   -42.0288 -42.0072 -41.9964 -41.6967 -41.6963 -41.6094 -41.6090  -1.3252
    -1.1290  -0.9779  -0.8786  -0.5135  -0.2918  -0.2590   0.6563   1.1715
     1.4295   1.7004   2.1499   2.5554   2.6619   3.2468   3.7265   4.0891
     4.3295   4.6605   4.7983   4.9398   5.0068   5.1239   5.2274   5.3837
     6.5217   7.5798   8.0736   8.5995   9.4653  12.3260

          k = 0.0556-0.4170 0.0000 (  4465 PWs)   bands (ev):

   -42.4547 -42.4232 -42.3931 -42.2915 -42.1894 -42.1098 -42.0935 -42.0607
   -42.0045 -41.9494 -41.9438 -41.6752 -41.6750 -41.6133 -41.6122  -1.0316
    -0.9875  -0.7226  -0.6494  -0.2908  -0.1157   0.0408   0.8078   1.2631
     1.6488   1.7769   2.0362   2.0611   2.5217   2.8697   3.3105   3.5257
     3.6358   4.0474   4.1404   4.3097   4.5105   4.6767   4.7749   5.0195
     5.1827   5.4062   5.9992   7.8129   9.8775  11.7359

          k = 0.0556-0.2887 0.0000 (  4439 PWs)   bands (ev):

   -42.4135 -42.3262 -42.2603 -42.2350 -42.1296 -42.0610 -42.0450 -42.0273
   -41.9669 -41.8163 -41.8139 -41.6342 -41.6339 -41.6213 -41.6189  -1.2900
    -0.7880  -0.4908  -0.0954  -0.0364   0.3479   0.5033   0.7915   1.0270
     1.4128   1.7624   1.9299   1.9933   2.1686   2.3387   2.4440   2.7621
     2.8913   3.0654   3.2672   3.4742   3.6995   3.7964   4.0564   4.2108
     4.5013   4.8854   4.9992   6.5145   8.3616   9.8272

          k = 0.0556-0.1604 0.0000 (  4443 PWs)   bands (ev):

   -42.4636 -42.3096 -42.1205 -42.0804 -42.0192 -42.0178 -42.0028 -41.9859
   -41.9312 -41.6679 -41.6676 -41.6308 -41.6265 -41.5934 -41.5932  -2.2879
    -1.4796  -0.8294  -0.4924  -0.4602   0.8237   0.9772   1.1131   1.3744
     1.5086   1.7814   1.9317   1.9563   2.0712   2.1001   2.1761   2.2850
     2.5212   2.6660   3.0488   3.1989   3.2585   3.4696   3.7088   3.9286
     4.2964   4.5858   4.8988   5.3838   6.8112   7.8651

          k = 0.0556-0.0321 0.0000 (  4465 PWs)   bands (ev):

   -42.4933 -42.3166 -42.0619 -42.0001 -41.9894 -41.9787 -41.9728 -41.9235
   -41.9110 -41.6416 -41.6344 -41.5832 -41.5829 -41.5721 -41.5717  -2.8832
    -2.0341  -1.3204  -1.0058  -0.9605   1.3035   1.3560   1.4651   1.5953
     1.6567   1.6993   1.7057   1.7920   1.8681   2.0909   2.1218   2.1472
     2.2152   2.8343   3.3973   3.4015   3.6345   3.6569   4.0252   4.0619
     4.2383   4.5440   4.6430   4.9654   5.5123   6.2250

          k = 0.1667 0.2887 0.0000 (  4425 PWs)   bands (ev):

   -42.3987 -42.3373 -42.2885 -42.2721 -42.1550 -42.0950 -42.0665 -42.0388
   -42.0003 -41.8468 -41.8455 -41.6673 -41.6666 -41.6171 -41.6160  -0.8553
    -0.5021  -0.0638   0.0616   0.1342   0.2756   0.4264   0.5920   1.1371
     1.1713   1.4158   1.5774   1.6801   1.7463   2.3238   2.4505   2.6606
     2.8794   3.3017   3.5226   3.7393   4.0789   4.3553   4.3846   4.6865
     4.7318   4.8024   5.4295   7.0722   8.9373  10.4922

          k = 0.1667 0.4170 0.0000 (  4459 PWs)   bands (ev):

   -42.4400 -42.4039 -42.3874 -42.2968 -42.1822 -42.1622 -42.1462 -42.0757
   -42.0437 -41.9389 -41.9382 -41.7292 -41.7286 -41.6100 -41.6097  -0.6594
    -0.5807  -0.3725  -0.1581  -0.0405   0.1243   0.4778   0.7906   1.0140
     1.2014   1.5063   1.8307   2.0571   2.1521   2.4326   2.6689   2.8617
     3.2577   3.4711   3.8012   4.0142   4.3559   4.9377   4.9749   5.2056
     6.3750   6.6086   7.2746   8.7524  10.6195  12.3600

          k = 0.1667 0.5453 0.0000 (  4490 PWs)   bands (ev):

   -42.4954 -42.4468 -42.4419 -42.2647 -42.2021 -42.1988 -42.1899 -42.0938
   -42.0712 -41.9832 -41.9804 -41.7628 -41.7622 -41.6065 -41.6062  -0.9472
    -0.6660  -0.5541  -0.3822  -0.1572   0.0753   0.2565   0.6646   0.8554
     1.3897   1.7100   1.8870   2.1368   2.5387   2.5964   3.2492   3.4077
     3.4995   4.0165   4.2807   4.4474   4.6079   4.8471   4.9748   5.2200
     8.3003   8.8936   9.4433  10.1231  10.5917  12.5987

          k = 0.1667-0.4811 0.0000 (  4476 PWs)   bands (ev):

   -42.4753 -42.4288 -42.4261 -42.2776 -42.1914 -42.1850 -42.1778 -42.0876
   -42.0614 -41.9676 -41.9667 -41.7511 -41.7505 -41.6076 -41.6075  -0.8455
    -0.6324  -0.4913  -0.3036  -0.0983   0.0776   0.3481   0.6924   0.9754
     1.2811   1.7114   1.9045   2.0389   2.3315   2.6687   3.0094   3.1425
     3.3776   3.8968   4.0268   4.1112   4.4676   4.9529   5.0417   5.3027
     7.3674   7.7648   8.4362   9.6901  11.2490  12.9053

          k = 0.1667-0.3528 0.0000 (  4458 PWs)   bands (ev):

   -42.4052 -42.3701 -42.3346 -42.3102 -42.1726 -42.1308 -42.1056 -42.0585
   -42.0234 -41.8980 -41.8968 -41.6999 -41.6993 -41.6136 -41.6130  -0.5808
    -0.4715  -0.2187  -0.0830   0.0317   0.2950   0.4676   0.7658   0.9522
     1.2116   1.4466   1.6120   1.8801   1.9969   2.2338   2.3568   2.7745
     3.1048   3.2420   3.7135   3.9419   4.2204   4.6765   4.7815   4.9758
     5.4791   5.5644   6.2136   7.8347   9.7475  11.4123

          k = 0.1667-0.2245 0.0000 (  4433 PWs)   bands (ev):

   -42.4171 -42.3179 -42.2389 -42.2085 -42.1219 -42.0622 -42.0373 -42.0234
   -41.9733 -41.7912 -41.7899 -41.6369 -41.6367 -41.6217 -41.6196  -1.3313
    -0.7392  -0.2369   0.0319   0.1016   0.3442   0.5273   0.7584   0.9227
     1.3156   1.5140   1.6673   1.8025   1.9493   2.2467   2.5587   2.7209
     2.7348   3.0676   3.2624   3.4046   3.7332   3.7808   4.1598   4.1632
     4.3690   4.7906   4.9774   6.4503   8.2120   9.6281

          k = 0.1667-0.0962 0.0000 (  4427 PWs)   bands (ev):

   -42.4551 -42.3087 -42.1449 -42.1067 -42.0316 -42.0212 -42.0137 -42.0004
   -41.9332 -41.6935 -41.6931 -41.6293 -41.6256 -41.5980 -41.5979  -2.1138
    -1.3349  -0.7309  -0.3954  -0.3064   0.6525   0.9600   1.0266   1.2078
     1.5813   1.8088   1.9597   2.0003   2.0710   2.1898   2.2677   2.3732
     2.5144   2.7871   2.8537   3.1381   3.2335   3.4761   3.6485   4.0536
     4.2227   4.6609   5.0098   5.5158   7.0871   8.2249

          k = 0.2778 0.4811 0.0000 (  4485 PWs)   bands (ev):

   -42.4384 -42.4160 -42.3824 -42.3136 -42.2469 -42.2413 -42.1686 -42.1437
   -42.0695 -41.9481 -41.9463 -41.8215 -41.8204 -41.6053 -41.6050  -0.4336
    -0.4312  -0.1330   0.1305   0.3216   0.3860   0.4686   0.5435   0.9610
     1.1952   1.5283   1.6586   2.1155   2.2068   2.3445   2.4178   2.9368
     3.1494   3.5142   3.6603   4.0391   4.4775   4.8667   4.9885   5.1843
     8.7027   9.1756   9.9974  11.2157  12.6366  13.1346

          k = 0.2778 0.6094 0.0000 (  4491 PWs)   bands (ev):

   -42.4305 -42.4012 -42.3767 -42.3265 -42.2869 -42.2651 -42.1679 -42.1483
   -42.0789 -41.9405 -41.9396 -41.8529 -41.8517 -41.6040 -41.6037  -0.4579
    -0.2296  -0.0284   0.1112   0.2215   0.3513   0.4690   0.6240   0.9235
     1.3140   1.5287   1.7037   2.0582   2.1216   2.4137   2.4560   2.9177
     3.2299   3.5305   3.6837   4.3004   4.5060   4.7238   4.8421   4.9638
     9.9385  10.4820  11.0999  11.6124  12.2594  12.7573

          k = 0.2778-0.4170 0.0000 (  4462 PWs)   bands (ev):

   -42.4452 -42.4120 -42.3948 -42.2968 -42.2094 -42.1990 -42.1700 -42.1158
   -42.0574 -41.9489 -41.9471 -41.7767 -41.7755 -41.6072 -41.6066  -0.5791
    -0.4399  -0.2512  -0.0164   0.1631   0.2820   0.4863   0.8489   0.9301
     1.0094   1.5661   1.6713   2.0827   2.2496   2.3234   2.5132   2.8347
     3.1886   3.5063   3.7870   3.8635   4.4165   4.9643   5.0844   5.2938
     7.5085   7.8478   8.5995   9.9345  11.6362  13.2562

          k = 0.2778-0.2887 0.0000 (  4463 PWs)   bands (ev):

   -42.4238 -42.3944 -42.3588 -42.3012 -42.1774 -42.1184 -42.1072 -42.0509
   -42.0170 -41.9199 -41.9173 -41.6872 -41.6871 -41.6135 -41.6125  -0.7997
    -0.7160  -0.5043  -0.3622  -0.1063   0.0554   0.3627   0.7917   1.1248
     1.4862   1.5494   1.8303   2.0728   2.2226   2.5784   2.7955   2.9142
     3.2641   3.4899   3.8235   4.0543   4.3931   4.6117   4.7739   5.0061
     5.3511   5.5135   6.1280   7.8094   9.7863  11.5163

          k = 0.2778-0.1604 0.0000 (  4458 PWs)   bands (ev):

   -42.4088 -42.3462 -42.2856 -42.2747 -42.1485 -42.0695 -42.0432 -42.0431
   -41.9693 -41.8536 -41.8497 -41.6387 -41.6385 -41.6198 -41.6176  -1.1888
    -0.8248  -0.6199  -0.2553  -0.1632   0.2068   0.3545   0.9115   1.2468
     1.5063   1.7565   2.0180   2.0445   2.4486   2.5353   2.6483   2.8208
     3.0517   3.3690   3.4147   3.6920   3.7327   3.8733   4.0734   4.2426
     4.6762   4.9231   5.0650   6.7242   8.6698  10.2212

          k = 0.3889 0.6736 0.0000 (  4511 PWs)   bands (ev):

   -42.4667 -42.4199 -42.4151 -42.2871 -42.2548 -42.2267 -42.1850 -42.1288
   -42.0749 -41.9646 -41.9637 -41.8120 -41.8108 -41.6050 -41.6048  -0.7239
    -0.3623  -0.1927  -0.1779   0.1374   0.2458   0.3658   0.6896   0.8893
     1.1747   1.6423   1.8980   1.9688   2.2523   2.6433   2.8149   2.9448
     3.2947   3.7650   3.9746   4.4648   4.4871   4.7243   4.9108   5.0518
     9.4828   9.9232  10.3299  10.8378  11.2952  12.7645

          k = 0.3889-0.3528 0.0000 (  4485 PWs)   bands (ev):

   -42.5087 -42.4604 -42.4547 -42.2638 -42.2085 -42.1547 -42.1509 -42.0728
   -42.0523 -41.9907 -41.9851 -41.7199 -41.7196 -41.6088 -41.6082  -1.1171
    -0.9238  -0.7945  -0.6319  -0.3413  -0.1215  -0.0102   0.6611   1.0654
     1.5031   1.7218   1.9275   2.3232   2.6126   2.8979   3.5052   3.6844
     3.9291   4.2015   4.4990   4.5534   4.6671   4.9653   5.0362   5.3107
     7.0378   7.6706   8.1669   9.2052  10.4336  12.5440

          k = 0.3889-0.2245 0.0000 (  4444 PWs)   bands (ev):

   -42.4846 -42.4471 -42.4252 -42.2810 -42.2010 -42.1108 -42.0826 -42.0800
   -42.0013 -41.9750 -41.9655 -41.6740 -41.6739 -41.6122 -41.6111  -1.1944
    -1.0983  -0.8533  -0.8061  -0.4173  -0.2398  -0.1213   0.7697   1.2920
     1.5434   1.7828   2.2022   2.3994   2.4098   3.3026   3.3584   3.9361
     4.2167   4.2994   4.5715   4.7107   4.7650   4.7936   4.9583   5.0635
     5.2015   5.5146   6.0869   7.9639  10.0367  12.0715

          k =-0.5000-0.8660 0.0000 (  4492 PWs)   bands (ev):

   -42.5414 -42.4906 -42.4864 -42.2559 -42.2283 -42.1278 -42.1011 -42.0946
   -42.0193 -42.0140 -41.9999 -41.6883 -41.6880 -41.6100 -41.6094  -1.4026
    -1.2005  -1.0373  -0.9652  -0.5810  -0.3754  -0.3188   0.6487   1.2171
     1.3854   1.6795   2.3273   2.4783   2.7807   3.3589   3.7712   4.2524
     4.3685   4.8826   5.0184   5.0483   5.1038   5.2646   5.5013   5.5208
     6.0958   7.5230   8.1707   8.5153   8.7154  12.2350

     the Fermi energy is     4.4807 ev

!    total energy              =    -855.84650256 Ry
     estimated scf accuracy    <       0.00000016 Ry
     smearing contrib. (-TS)   =      -0.02226990 Ry
     internal energy E=F+TS    =    -855.82423266 Ry

     The total energy is F=E-TS. E is the sum of the following terms:
     one-electron contribution =  -11807.54506851 Ry
     hartree contribution      =    5925.93316989 Ry
     xc contribution           =    -149.49858640 Ry
     ewald contribution        =    5175.28625236 Ry

     total magnetization       =     0.00 Bohr mag/cell
     absolute magnetization    =     0.00 Bohr mag/cell

     convergence has been achieved in  11 iterations

     negative rho (up, down):  1.444E-01 1.444E-01

     Forces acting on atoms (cartesian axes, Ry/au):

     atom    1 type  1   force =     0.00000000    0.00000000    0.00234408
     atom    2 type  1   force =     0.00000000    0.00000000    0.00289379
     atom    3 type  1   force =     0.00000000    0.00000000    0.00001295
     atom    4 type  1   force =     0.00000000    0.00000000   -0.00288269
     atom    5 type  1   force =     0.00000000    0.00000000   -0.00236813

     Total force =     0.005271     Total SCF correction =     0.002923
     SCF correction compared to forces is large: reduce conv_thr to get better values
     Energy error            =      1.6E-04
     Gradient error          =      2.9E-03

     number of scf cycles    =   4
     number of bfgs steps    =   3

     energy   old            =    -855.8463462398 Ry
     energy   new            =    -855.8465025566 Ry

     CASE: energy  _new < energy  _old

     new trust radius        =       0.0082672463 bohr
     new conv_thr            =       0.0000001563 Ry


ATOMIC_POSITIONS (angstrom)
Rh            0.0000000000        0.0000000000        0.0276929955
Rh            1.3554284000       -0.7825569000        2.2018672552
Rh            1.3554284000        0.7825569000        4.4268112152
Rh            0.0000000000        0.0000000000        6.6517619957
Rh            1.3554284000       -0.7825569000        8.8259195384



     Writing output data file /home/STUDENTI/leonardo.razzai/Rh_work/surf_111/5-L.save/
     NEW-OLD atomic charge density approx. for the potential

     negative rho (up, down):  1.444E-01 1.444E-01
     Generating pointlists ...

     total cpu time spent up to now is      278.2 secs

     Self-consistent Calculation

     iteration #  1     ecut=    35.00 Ry     beta= 0.40
     Davidson diagonalization with overlap
     ethr =  1.00E-06,  avg # of iterations =  5.0

     negative rho (up, down):  1.444E-01 1.444E-01

     total cpu time spent up to now is      288.0 secs

     total energy              =    -855.84616646 Ry
     estimated scf accuracy    <       0.01285188 Ry

     total magnetization       =     0.00 Bohr mag/cell
     absolute magnetization    =     0.00 Bohr mag/cell

     iteration #  2     ecut=    35.00 Ry     beta= 0.40
     Davidson diagonalization with overlap
     ethr =  1.71E-05,  avg # of iterations =  1.0

     negative rho (up, down):  1.444E-01 1.444E-01

     total cpu time spent up to now is      293.3 secs

     total energy              =    -855.84643517 Ry
     estimated scf accuracy    <       0.00476076 Ry

     total magnetization       =     0.00 Bohr mag/cell
     absolute magnetization    =     0.00 Bohr mag/cell

     iteration #  3     ecut=    35.00 Ry     beta= 0.40
     Davidson diagonalization with overlap
     ethr =  6.35E-06,  avg # of iterations =  1.0

     negative rho (up, down):  1.444E-01 1.444E-01

     total cpu time spent up to now is      298.6 secs

     total energy              =    -855.84654301 Ry
     estimated scf accuracy    <       0.00043942 Ry

     total magnetization       =     0.00 Bohr mag/cell
     absolute magnetization    =     0.00 Bohr mag/cell

     iteration #  4     ecut=    35.00 Ry     beta= 0.40
     Davidson diagonalization with overlap
     ethr =  5.86E-07,  avg # of iterations =  1.0

     negative rho (up, down):  1.444E-01 1.444E-01

     total cpu time spent up to now is      304.0 secs

     total energy              =    -855.84653495 Ry
     estimated scf accuracy    <       0.00023380 Ry

     total magnetization       =     0.00 Bohr mag/cell
     absolute magnetization    =     0.00 Bohr mag/cell

     iteration #  5     ecut=    35.00 Ry     beta= 0.40
     Davidson diagonalization with overlap
     ethr =  3.12E-07,  avg # of iterations =  1.0

     negative rho (up, down):  1.444E-01 1.444E-01

     total cpu time spent up to now is      309.3 secs

     total energy              =    -855.84653808 Ry
     estimated scf accuracy    <       0.00001676 Ry

     total magnetization       =     0.00 Bohr mag/cell
     absolute magnetization    =     0.00 Bohr mag/cell

     iteration #  6     ecut=    35.00 Ry     beta= 0.40
     Davidson diagonalization with overlap
     ethr =  2.23E-08,  avg # of iterations =  1.0

     negative rho (up, down):  1.444E-01 1.444E-01

     total cpu time spent up to now is      314.7 secs

     total energy              =    -855.84653793 Ry
     estimated scf accuracy    <       0.00000223 Ry

     total magnetization       =     0.00 Bohr mag/cell
     absolute magnetization    =     0.00 Bohr mag/cell

     iteration #  7     ecut=    35.00 Ry     beta= 0.40
     Davidson diagonalization with overlap
     ethr =  2.97E-09,  avg # of iterations =  1.5

     negative rho (up, down):  1.444E-01 1.444E-01

     total cpu time spent up to now is      320.1 secs

     total energy              =    -855.84653768 Ry
     estimated scf accuracy    <       0.00000162 Ry

     total magnetization       =     0.00 Bohr mag/cell
     absolute magnetization    =     0.00 Bohr mag/cell

     iteration #  8     ecut=    35.00 Ry     beta= 0.40
     Davidson diagonalization with overlap
     ethr =  2.16E-09,  avg # of iterations =  1.8

     negative rho (up, down):  1.444E-01 1.444E-01

     total cpu time spent up to now is      325.7 secs

     total energy              =    -855.84653799 Ry
     estimated scf accuracy    <       0.00000111 Ry

     total magnetization       =     0.00 Bohr mag/cell
     absolute magnetization    =     0.00 Bohr mag/cell

     iteration #  9     ecut=    35.00 Ry     beta= 0.40
     Davidson diagonalization with overlap
     ethr =  1.48E-09,  avg # of iterations =  1.0

     negative rho (up, down):  1.444E-01 1.444E-01

     total cpu time spent up to now is      331.0 secs

     total energy              =    -855.84653840 Ry
     estimated scf accuracy    <       0.00000038 Ry

     total magnetization       =     0.00 Bohr mag/cell
     absolute magnetization    =     0.00 Bohr mag/cell

     iteration # 10     ecut=    35.00 Ry     beta= 0.40
     Davidson diagonalization with overlap
     ethr =  5.11E-10,  avg # of iterations =  1.2

     negative rho (up, down):  1.444E-01 1.444E-01

     total cpu time spent up to now is      336.4 secs

     total energy              =    -855.84653892 Ry
     estimated scf accuracy    <       0.00000026 Ry

     total magnetization       =     0.00 Bohr mag/cell
     absolute magnetization    =     0.00 Bohr mag/cell

     iteration # 11     ecut=    35.00 Ry     beta= 0.40
     Davidson diagonalization with overlap
     ethr =  3.48E-10,  avg # of iterations =  1.3

     negative rho (up, down):  1.445E-01 1.445E-01
 
     Magnetic moment per site:
     atom:    1    charge:   13.1053    magn:    0.0000    constr:    0.0000
     atom:    2    charge:   13.1572    magn:    0.0000    constr:    0.0000
     atom:    3    charge:   13.1529    magn:   -0.0000    constr:    0.0000
     atom:    4    charge:   13.1573    magn:    0.0000    constr:    0.0000
     atom:    5    charge:   13.1051    magn:   -0.0000    constr:    0.0000

     total cpu time spent up to now is      341.6 secs

     End of self-consistent calculation

 ------ SPIN UP ------------


          k = 0.0556 0.0962 0.0000 (  4451 PWs)   bands (ev):

   -42.4840 -42.3163 -42.0781 -42.0282 -42.0008 -41.9896 -41.9848 -41.9484
   -41.9161 -41.6405 -41.6355 -41.6120 -41.6106 -41.5802 -41.5801  -2.6788
    -1.8401  -1.1440  -0.8194  -0.7871   1.1336   1.1852   1.3344   1.5833
     1.6587   1.7405   1.7943   1.8403   1.9405   2.0289   2.1210   2.2609
     2.3655   2.5474   3.2706   3.3129   3.5887   3.6577   3.6958   3.9405
     4.2549   4.4588   4.9247   4.9350   6.0894   6.9416

          k = 0.0556 0.2245 0.0000 (  4420 PWs)   bands (ev):

   -42.4389 -42.3122 -42.1880 -42.1521 -42.0730 -42.0367 -42.0206 -42.0110
   -41.9461 -41.7381 -41.7374 -41.6276 -41.6248 -41.6131 -41.6128  -1.7841
    -1.0708  -0.5307  -0.1963  -0.0719   0.4627   0.7730   0.8898   1.0206
     1.5221   1.6907   1.8644   1.9377   2.0604   2.2569   2.4486   2.5526
     2.7235   2.8028   2.9861   3.1210   3.3680   3.4543   3.8014   4.0637
     4.3628   4.7254   4.9246   5.9303   7.5881   8.8559

          k = 0.0556 0.3528 0.0000 (  4467 PWs)   bands (ev):

   -42.4104 -42.3744 -42.3208 -42.3005 -42.1669 -42.0871 -42.0707 -42.0431
   -41.9848 -41.8910 -41.8872 -41.6569 -41.6568 -41.6189 -41.6171  -1.0213
    -0.7991  -0.6066  -0.3955  -0.1692   0.1040   0.2810   0.8813   1.2389
     1.5351   1.7469   1.8392   2.0708   2.3776   2.6105   2.8019   2.9638
     3.2107   3.5307   3.7486   3.8128   4.1164   4.2930   4.4486   4.6139
     4.6824   5.0029   5.3432   7.1511   9.1489  10.7987

          k = 0.0556 0.4811 0.0000 (  4463 PWs)   bands (ev):

   -42.5049 -42.4608 -42.4476 -42.2739 -42.2095 -42.1258 -42.1112 -42.0747
   -42.0172 -41.9885 -41.9797 -41.6897 -41.6897 -41.6127 -41.6119  -1.2198
    -1.0770  -0.8892  -0.8040  -0.4336  -0.2442  -0.1536   0.7055   1.2185
     1.5089   1.7389   2.1000   2.4243   2.5587   3.1672   3.5124   3.9459
     4.2055   4.3138   4.6040   4.7468   4.8053   4.9333   5.0692   5.2412
     5.8439   6.4910   6.9331   8.4217  10.2548  12.4415

          k = 0.0556-0.5453 0.0000 (  4486 PWs)   bands (ev):

   -42.5330 -42.4836 -42.4765 -42.2603 -42.2240 -42.1348 -42.1201 -42.0822
   -42.0277 -42.0068 -41.9963 -41.6974 -41.6971 -41.6114 -41.6110  -1.3292
    -1.1323  -0.9810  -0.8843  -0.5188  -0.2955  -0.2643   0.6535   1.1724
     1.4327   1.6956   2.1435   2.5506   2.6623   3.2440   3.7254   4.0904
     4.3324   4.6610   4.8014   4.9413   5.0084   5.1261   5.2280   5.3851
     6.5221   7.5814   8.0766   8.6047   9.4696  12.3219

          k = 0.0556-0.4170 0.0000 (  4465 PWs)   bands (ev):

   -42.4549 -42.4231 -42.3935 -42.2935 -42.1904 -42.1096 -42.0936 -42.0603
   -42.0028 -41.9497 -41.9439 -41.6760 -41.6758 -41.6152 -41.6140  -1.0356
    -0.9899  -0.7270  -0.6539  -0.2961  -0.1211   0.0375   0.8056   1.2625
     1.6514   1.7721   2.0337   2.0593   2.5146   2.8672   3.3077   3.5245
     3.6364   4.0485   4.1435   4.3115   4.5102   4.6808   4.7755   5.0226
     5.1852   5.4076   6.0028   7.8199   9.8850  11.7414

          k = 0.0556-0.2887 0.0000 (  4439 PWs)   bands (ev):

   -42.4142 -42.3277 -42.2617 -42.2357 -42.1286 -42.0609 -42.0449 -42.0270
   -41.9651 -41.8170 -41.8145 -41.6350 -41.6347 -41.6229 -41.6204  -1.2926
    -0.7917  -0.4946  -0.0988  -0.0418   0.3457   0.4979   0.7863   1.0240
     1.4128   1.7643   1.9296   1.9879   2.1679   2.3366   2.4434   2.7570
     2.8895   3.0675   3.2649   3.4756   3.7000   3.7951   4.0580   4.2128
     4.5047   4.8905   5.0034   6.5201   8.3691   9.8339

          k = 0.0556-0.1604 0.0000 (  4443 PWs)   bands (ev):

   -42.4646 -42.3125 -42.1212 -42.0806 -42.0181 -42.0175 -42.0025 -41.9854
   -41.9293 -41.6689 -41.6685 -41.6321 -41.6278 -41.5943 -41.5941  -2.2904
    -1.4834  -0.8314  -0.4968  -0.4647   0.8205   0.9752   1.1122   1.3692
     1.5053   1.7848   1.9304   1.9534   2.0699   2.1006   2.1768   2.2834
     2.5160   2.6639   3.0483   3.1995   3.2595   3.4707   3.7089   3.9295
     4.2972   4.5883   4.9031   5.3868   6.8175   7.8723

          k = 0.0556-0.0321 0.0000 (  4465 PWs)   bands (ev):

   -42.4944 -42.3198 -42.0619 -42.0000 -41.9893 -41.9789 -41.9732 -41.9215
   -41.9090 -41.6431 -41.6356 -41.5840 -41.5838 -41.5730 -41.5726  -2.8858
    -2.0378  -1.3218  -1.0093  -0.9654   1.3033   1.3571   1.4643   1.5927
     1.6546   1.6981   1.7036   1.7886   1.8705   2.0891   2.1198   2.1422
     2.2127   2.8356   3.3975   3.4015   3.6333   3.6554   4.0228   4.0628
     4.2400   4.5465   4.6456   4.9695   5.5170   6.2315

          k = 0.1667 0.2887 0.0000 (  4425 PWs)   bands (ev):

   -42.3992 -42.3383 -42.2900 -42.2727 -42.1549 -42.0953 -42.0668 -42.0376
   -41.9986 -41.8474 -41.8460 -41.6681 -41.6675 -41.6188 -41.6177  -0.8582
    -0.5059  -0.0687   0.0588   0.1318   0.2690   0.4190   0.5874   1.1364
     1.1693   1.4144   1.5737   1.6772   1.7455   2.3265   2.4498   2.6616
     2.8784   3.3003   3.5227   3.7378   4.0809   4.3555   4.3875   4.6871
     4.7340   4.8061   5.4337   7.0788   8.9447  10.4984

          k = 0.1667 0.4170 0.0000 (  4459 PWs)   bands (ev):

   -42.4402 -42.4034 -42.3880 -42.2985 -42.1834 -42.1628 -42.1464 -42.0739
   -42.0427 -41.9392 -41.9385 -41.7300 -41.7293 -41.6119 -41.6116  -0.6632
    -0.5841  -0.3766  -0.1640  -0.0455   0.1179   0.4738   0.7885   1.0091
     1.1968   1.5063   1.8266   2.0559   2.1532   2.4304   2.6686   2.8596
     3.2589   3.4731   3.8050   4.0171   4.3596   4.9403   4.9767   5.2086
     6.3761   6.6090   7.2770   8.7586  10.6264  12.3652

          k = 0.1667 0.5453 0.0000 (  4490 PWs)   bands (ev):

   -42.4956 -42.4475 -42.4411 -42.2667 -42.2021 -42.2004 -42.1905 -42.0922
   -42.0699 -41.9833 -41.9806 -41.7635 -41.7628 -41.6085 -41.6083  -0.9514
    -0.6695  -0.5573  -0.3894  -0.1625   0.0686   0.2530   0.6610   0.8532
     1.3851   1.7068   1.8883   2.1375   2.5360   2.5938   3.2478   3.4068
     3.5007   4.0191   4.2839   4.4505   4.6117   4.8506   4.9778   5.2236
     8.3011   8.8944   9.4451  10.1271  10.5953  12.6000

          k = 0.1667-0.4811 0.0000 (  4476 PWs)   bands (ev):

   -42.4755 -42.4281 -42.4269 -42.2794 -42.1930 -42.1856 -42.1780 -42.0859
   -42.0603 -41.9678 -41.9669 -41.7518 -41.7512 -41.6096 -41.6095  -0.8496
    -0.6359  -0.4950  -0.3102  -0.1034   0.0710   0.3445   0.6897   0.9723
     1.2759   1.7107   1.9021   2.0403   2.3293   2.6661   3.0077   3.1417
     3.3784   3.8995   4.0306   4.1148   4.4714   4.9564   5.0440   5.3059
     7.3682   7.7655   8.4385   9.6952  11.2543  12.9083

          k = 0.1667-0.3528 0.0000 (  4458 PWs)   bands (ev):

   -42.4054 -42.3702 -42.3351 -42.3120 -42.1733 -42.1313 -42.1059 -42.0569
   -42.0221 -41.8984 -41.8972 -41.7007 -41.7000 -41.6154 -41.6148  -0.5841
    -0.4750  -0.2234  -0.0867   0.0263   0.2886   0.4628   0.7603   0.9508
     1.2104   1.4428   1.6091   1.8770   1.9959   2.2359   2.3566   2.7754
     3.1051   3.2418   3.7153   3.9432   4.2238   4.6775   4.7835   4.9790
     5.4806   5.5647   6.2166   7.8415   9.7549  11.4179

          k = 0.1667-0.2245 0.0000 (  4433 PWs)   bands (ev):

   -42.4179 -42.3198 -42.2400 -42.2091 -42.1208 -42.0623 -42.0374 -42.0228
   -41.9714 -41.7919 -41.7906 -41.6377 -41.6375 -41.6233 -41.6211  -1.3340
    -0.7431  -0.2403   0.0286   0.0961   0.3408   0.5209   0.7552   0.9199
     1.3140   1.5134   1.6661   1.8019   1.9459   2.2491   2.5568   2.7210
     2.7327   3.0677   3.2602   3.4035   3.7329   3.7799   4.1622   4.1655
     4.3719   4.7946   4.9818   6.4560   8.2193   9.6349

          k = 0.1667-0.0962 0.0000 (  4427 PWs)   bands (ev):

   -42.4561 -42.3115 -42.1457 -42.1071 -42.0298 -42.0210 -42.0130 -42.0008
   -41.9314 -41.6944 -41.6939 -41.6307 -41.6269 -41.5988 -41.5988  -2.1163
    -1.3387  -0.7332  -0.4002  -0.3103   0.6496   0.9559   1.0261   1.2020
     1.5796   1.8116   1.9606   1.9956   2.0729   2.1877   2.2702   2.3694
     2.5072   2.7849   2.8531   3.1393   3.2336   3.4791   3.6484   4.0532
     4.2243   4.6645   5.0145   5.5186   7.0937   8.2322

          k = 0.2778 0.4811 0.0000 (  4485 PWs)   bands (ev):

   -42.4388 -42.4156 -42.3826 -42.3140 -42.2482 -42.2421 -42.1699 -42.1424
   -42.0681 -41.9485 -41.9467 -41.8221 -41.8210 -41.6073 -41.6070  -0.4389
    -0.4341  -0.1394   0.1252   0.3151   0.3808   0.4620   0.5382   0.9558
     1.1933   1.5239   1.6591   2.1154   2.2061   2.3429   2.4161   2.9392
     3.1519   3.5173   3.6656   4.0428   4.4807   4.8704   4.9919   5.1878
     8.7036   9.1764   9.9998  11.2199  12.6405  13.1359

          k = 0.2778 0.6094 0.0000 (  4491 PWs)   bands (ev):

   -42.4307 -42.4010 -42.3768 -42.3268 -42.2876 -42.2660 -42.1690 -42.1482
   -42.0772 -41.9409 -41.9400 -41.8534 -41.8522 -41.6060 -41.6058  -0.4622
    -0.2339  -0.0351   0.1064   0.2167   0.3437   0.4617   0.6196   0.9179
     1.3121   1.5250   1.7042   2.0572   2.1210   2.4121   2.4550   2.9197
     3.2325   3.5350   3.6893   4.3040   4.5093   4.7274   4.8457   4.9674
     9.9393  10.4832  11.1012  11.6147  12.2623  12.7586

          k = 0.2778-0.4170 0.0000 (  4462 PWs)   bands (ev):

   -42.4456 -42.4114 -42.3953 -42.2981 -42.2105 -42.2000 -42.1709 -42.1138
   -42.0562 -41.9491 -41.9474 -41.7774 -41.7761 -41.6092 -41.6086  -0.5831
    -0.4434  -0.2563  -0.0225   0.1574   0.2762   0.4808   0.8446   0.9249
     1.0069   1.5660   1.6668   2.0825   2.2502   2.3212   2.5123   2.8355
     3.1908   3.5079   3.7914   3.8675   4.4200   4.9680   5.0870   5.2970
     7.5094   7.8483   8.6018   9.9398  11.6422  13.2611

          k = 0.2778-0.2887 0.0000 (  4463 PWs)   bands (ev):

   -42.4240 -42.3944 -42.3593 -42.3031 -42.1782 -42.1186 -42.1074 -42.0500
   -42.0154 -41.9202 -41.9176 -41.6881 -41.6879 -41.6153 -41.6143  -0.8030
    -0.7193  -0.5086  -0.3667  -0.1119   0.0492   0.3602   0.7887   1.1213
     1.4846   1.5458   1.8310   2.0706   2.2200   2.5758   2.7945   2.9116
     3.2636   3.4930   3.8261   4.0552   4.3960   4.6131   4.7755   5.0097
     5.3523   5.5143   6.1311   7.8163   9.7937  11.5220

          k = 0.2778-0.1604 0.0000 (  4458 PWs)   bands (ev):

   -42.4094 -42.3469 -42.2874 -42.2754 -42.1480 -42.0693 -42.0435 -42.0425
   -41.9675 -41.8543 -41.8502 -41.6396 -41.6394 -41.6216 -41.6192  -1.1916
    -0.8280  -0.6244  -0.2586  -0.1686   0.2037   0.3499   0.9058   1.2470
     1.5045   1.7589   2.0125   2.0453   2.4477   2.5262   2.6470   2.8211
     3.0477   3.3663   3.4182   3.6914   3.7371   3.8715   4.0741   4.2445
     4.6809   4.9270   5.0703   6.7302   8.6774  10.2278

          k = 0.3889 0.6736 0.0000 (  4511 PWs)   bands (ev):

   -42.4669 -42.4206 -42.4143 -42.2879 -42.2553 -42.2280 -42.1861 -42.1279
   -42.0733 -41.9648 -41.9640 -41.8127 -41.8113 -41.6071 -41.6069  -0.7282
    -0.3658  -0.1962  -0.1855   0.1314   0.2393   0.3595   0.6859   0.8866
     1.1696   1.6400   1.8969   1.9689   2.2520   2.6433   2.8132   2.9440
     3.2970   3.7684   3.9786   4.4688   4.4901   4.7281   4.9142   5.0555
     9.4838   9.9239  10.3305  10.8410  11.2995  12.7668

          k = 0.3889-0.3528 0.0000 (  4485 PWs)   bands (ev):

   -42.5089 -42.4608 -42.4542 -42.2662 -42.2098 -42.1548 -42.1511 -42.0718
   -42.0508 -41.9906 -41.9852 -41.7207 -41.7204 -41.6108 -41.6102  -1.1212
    -0.9273  -0.7976  -0.6380  -0.3470  -0.1276  -0.0131   0.6580   1.0642
     1.5030   1.7185   1.9248   2.3228   2.6082   2.8953   3.5040   3.6838
     3.9297   4.2041   4.5018   4.5551   4.6712   4.9684   5.0380   5.3137
     7.0385   7.6716   8.1693   9.2103  10.4381  12.5456

          k = 0.3889-0.2245 0.0000 (  4444 PWs)   bands (ev):

   -42.4849 -42.4470 -42.4254 -42.2831 -42.2023 -42.1105 -42.0818 -42.0805
   -41.9995 -41.9752 -41.9656 -41.6748 -41.6747 -41.6142 -41.6130  -1.1983
    -1.1010  -0.8575  -0.8108  -0.4225  -0.2440  -0.1258   0.7674   1.2931
     1.5467   1.7773   2.2003   2.3899   2.4095   3.3005   3.3546   3.9383
     4.2173   4.2993   4.5708   4.7131   4.7658   4.7964   4.9594   5.0636
     5.2053   5.5170   6.0908   7.9709  10.0438  12.0765

          k =-0.5000-0.8660 0.0000 (  4492 PWs)   bands (ev):

   -42.5417 -42.4913 -42.4855 -42.2589 -42.2295 -42.1276 -42.0998 -42.0951
   -42.0195 -42.0123 -41.9999 -41.6891 -41.6887 -41.6121 -41.6114  -1.4066
    -1.2037  -1.0405  -0.9708  -0.5862  -0.3780  -0.3253   0.6460   1.2191
     1.3890   1.6740   2.3178   2.4760   2.7815   3.3557   3.7707   4.2541
     4.3720   4.8859   5.0214   5.0490   5.1031   5.2661   5.5007   5.5211
     6.0962   7.5252   8.1752   8.5186   8.7205  12.2348

 ------ SPIN DOWN ----------


          k = 0.0556 0.0962 0.0000 (  4451 PWs)   bands (ev):

   -42.4840 -42.3163 -42.0781 -42.0282 -42.0008 -41.9896 -41.9848 -41.9484
   -41.9161 -41.6405 -41.6355 -41.6120 -41.6106 -41.5802 -41.5801  -2.6788
    -1.8401  -1.1440  -0.8194  -0.7871   1.1336   1.1852   1.3344   1.5833
     1.6587   1.7405   1.7943   1.8403   1.9405   2.0289   2.1210   2.2609
     2.3655   2.5474   3.2706   3.3129   3.5887   3.6577   3.6958   3.9405
     4.2549   4.4588   4.9247   4.9350   6.0894   6.9416

          k = 0.0556 0.2245 0.0000 (  4420 PWs)   bands (ev):

   -42.4389 -42.3122 -42.1880 -42.1521 -42.0730 -42.0367 -42.0206 -42.0110
   -41.9461 -41.7381 -41.7374 -41.6276 -41.6248 -41.6131 -41.6128  -1.7841
    -1.0708  -0.5307  -0.1963  -0.0719   0.4627   0.7730   0.8898   1.0206
     1.5221   1.6907   1.8644   1.9377   2.0604   2.2569   2.4486   2.5526
     2.7235   2.8028   2.9861   3.1210   3.3680   3.4543   3.8014   4.0637
     4.3628   4.7254   4.9246   5.9303   7.5881   8.8559

          k = 0.0556 0.3528 0.0000 (  4467 PWs)   bands (ev):

   -42.4104 -42.3744 -42.3208 -42.3005 -42.1669 -42.0871 -42.0707 -42.0431
   -41.9848 -41.8910 -41.8872 -41.6569 -41.6568 -41.6189 -41.6171  -1.0213
    -0.7991  -0.6066  -0.3955  -0.1692   0.1040   0.2810   0.8813   1.2389
     1.5351   1.7469   1.8392   2.0708   2.3776   2.6105   2.8019   2.9638
     3.2107   3.5307   3.7486   3.8128   4.1164   4.2930   4.4486   4.6139
     4.6824   5.0029   5.3432   7.1511   9.1489  10.7987

          k = 0.0556 0.4811 0.0000 (  4463 PWs)   bands (ev):

   -42.5049 -42.4608 -42.4476 -42.2739 -42.2095 -42.1258 -42.1112 -42.0747
   -42.0172 -41.9885 -41.9797 -41.6897 -41.6897 -41.6127 -41.6119  -1.2198
    -1.0770  -0.8892  -0.8040  -0.4336  -0.2442  -0.1536   0.7055   1.2185
     1.5089   1.7389   2.1000   2.4243   2.5587   3.1672   3.5124   3.9459
     4.2055   4.3138   4.6040   4.7468   4.8053   4.9333   5.0692   5.2412
     5.8439   6.4910   6.9331   8.4217  10.2548  12.4415

          k = 0.0556-0.5453 0.0000 (  4486 PWs)   bands (ev):

   -42.5330 -42.4836 -42.4765 -42.2603 -42.2240 -42.1348 -42.1201 -42.0822
   -42.0277 -42.0068 -41.9963 -41.6974 -41.6971 -41.6114 -41.6110  -1.3292
    -1.1323  -0.9810  -0.8843  -0.5188  -0.2955  -0.2643   0.6535   1.1724
     1.4327   1.6956   2.1435   2.5506   2.6623   3.2440   3.7254   4.0904
     4.3324   4.6610   4.8014   4.9413   5.0084   5.1261   5.2280   5.3851
     6.5221   7.5814   8.0766   8.6047   9.4696  12.3261

          k = 0.0556-0.4170 0.0000 (  4465 PWs)   bands (ev):

   -42.4549 -42.4231 -42.3935 -42.2935 -42.1904 -42.1096 -42.0936 -42.0603
   -42.0028 -41.9497 -41.9439 -41.6760 -41.6758 -41.6152 -41.6140  -1.0356
    -0.9899  -0.7270  -0.6539  -0.2961  -0.1211   0.0375   0.8056   1.2625
     1.6514   1.7721   2.0337   2.0593   2.5146   2.8672   3.3077   3.5245
     3.6364   4.0485   4.1435   4.3115   4.5102   4.6808   4.7755   5.0226
     5.1852   5.4076   6.0028   7.8199   9.8850  11.7414

          k = 0.0556-0.2887 0.0000 (  4439 PWs)   bands (ev):

   -42.4142 -42.3277 -42.2617 -42.2357 -42.1286 -42.0609 -42.0449 -42.0270
   -41.9651 -41.8170 -41.8145 -41.6350 -41.6347 -41.6229 -41.6204  -1.2926
    -0.7917  -0.4946  -0.0988  -0.0418   0.3457   0.4979   0.7863   1.0240
     1.4128   1.7643   1.9296   1.9879   2.1679   2.3366   2.4434   2.7570
     2.8895   3.0675   3.2649   3.4756   3.7000   3.7951   4.0580   4.2128
     4.5047   4.8905   5.0034   6.5201   8.3691   9.8339

          k = 0.0556-0.1604 0.0000 (  4443 PWs)   bands (ev):

   -42.4646 -42.3125 -42.1212 -42.0806 -42.0181 -42.0175 -42.0025 -41.9854
   -41.9293 -41.6689 -41.6685 -41.6321 -41.6278 -41.5943 -41.5941  -2.2904
    -1.4834  -0.8314  -0.4968  -0.4647   0.8205   0.9752   1.1122   1.3692
     1.5053   1.7848   1.9304   1.9534   2.0699   2.1006   2.1768   2.2834
     2.5160   2.6639   3.0483   3.1995   3.2595   3.4707   3.7089   3.9295
     4.2972   4.5883   4.9031   5.3868   6.8175   7.8723

          k = 0.0556-0.0321 0.0000 (  4465 PWs)   bands (ev):

   -42.4944 -42.3198 -42.0619 -42.0000 -41.9893 -41.9789 -41.9732 -41.9215
   -41.9090 -41.6431 -41.6356 -41.5840 -41.5838 -41.5730 -41.5726  -2.8858
    -2.0378  -1.3218  -1.0093  -0.9654   1.3033   1.3571   1.4643   1.5927
     1.6546   1.6981   1.7036   1.7886   1.8705   2.0891   2.1198   2.1422
     2.2127   2.8356   3.3975   3.4015   3.6333   3.6554   4.0228   4.0628
     4.2400   4.5465   4.6456   4.9695   5.5170   6.2315

          k = 0.1667 0.2887 0.0000 (  4425 PWs)   bands (ev):

   -42.3992 -42.3383 -42.2900 -42.2727 -42.1549 -42.0953 -42.0668 -42.0376
   -41.9986 -41.8474 -41.8460 -41.6681 -41.6675 -41.6188 -41.6177  -0.8582
    -0.5059  -0.0687   0.0588   0.1318   0.2690   0.4190   0.5874   1.1364
     1.1693   1.4144   1.5737   1.6772   1.7455   2.3265   2.4498   2.6616
     2.8784   3.3003   3.5227   3.7378   4.0809   4.3555   4.3875   4.6871
     4.7340   4.8061   5.4337   7.0788   8.9447  10.4984

          k = 0.1667 0.4170 0.0000 (  4459 PWs)   bands (ev):

   -42.4402 -42.4034 -42.3880 -42.2985 -42.1834 -42.1628 -42.1464 -42.0739
   -42.0427 -41.9392 -41.9385 -41.7300 -41.7293 -41.6119 -41.6116  -0.6632
    -0.5841  -0.3766  -0.1640  -0.0455   0.1179   0.4738   0.7885   1.0091
     1.1968   1.5063   1.8266   2.0559   2.1532   2.4304   2.6686   2.8596
     3.2589   3.4731   3.8050   4.0171   4.3596   4.9403   4.9767   5.2086
     6.3761   6.6090   7.2770   8.7586  10.6264  12.3652

          k = 0.1667 0.5453 0.0000 (  4490 PWs)   bands (ev):

   -42.4956 -42.4475 -42.4411 -42.2667 -42.2021 -42.2004 -42.1905 -42.0922
   -42.0699 -41.9833 -41.9806 -41.7635 -41.7628 -41.6085 -41.6083  -0.9514
    -0.6695  -0.5573  -0.3894  -0.1625   0.0686   0.2530   0.6610   0.8532
     1.3851   1.7068   1.8883   2.1375   2.5360   2.5938   3.2478   3.4068
     3.5007   4.0191   4.2839   4.4505   4.6117   4.8506   4.9778   5.2236
     8.3011   8.8944   9.4451  10.1271  10.5953  12.6001

          k = 0.1667-0.4811 0.0000 (  4476 PWs)   bands (ev):

   -42.4755 -42.4281 -42.4269 -42.2794 -42.1930 -42.1856 -42.1780 -42.0859
   -42.0603 -41.9678 -41.9669 -41.7518 -41.7512 -41.6096 -41.6095  -0.8496
    -0.6359  -0.4950  -0.3102  -0.1034   0.0710   0.3445   0.6897   0.9723
     1.2759   1.7107   1.9021   2.0403   2.3293   2.6661   3.0077   3.1417
     3.3784   3.8995   4.0306   4.1148   4.4714   4.9564   5.0440   5.3059
     7.3682   7.7655   8.4385   9.6952  11.2543  12.9083

          k = 0.1667-0.3528 0.0000 (  4458 PWs)   bands (ev):

   -42.4054 -42.3702 -42.3351 -42.3120 -42.1733 -42.1313 -42.1059 -42.0569
   -42.0221 -41.8984 -41.8972 -41.7007 -41.7000 -41.6154 -41.6148  -0.5841
    -0.4750  -0.2234  -0.0867   0.0263   0.2886   0.4628   0.7603   0.9508
     1.2104   1.4428   1.6091   1.8770   1.9959   2.2359   2.3566   2.7754
     3.1051   3.2418   3.7153   3.9432   4.2238   4.6775   4.7835   4.9790
     5.4806   5.5647   6.2166   7.8415   9.7549  11.4179

          k = 0.1667-0.2245 0.0000 (  4433 PWs)   bands (ev):

   -42.4179 -42.3198 -42.2400 -42.2091 -42.1208 -42.0623 -42.0374 -42.0228
   -41.9714 -41.7919 -41.7906 -41.6377 -41.6375 -41.6233 -41.6211  -1.3340
    -0.7431  -0.2403   0.0286   0.0961   0.3408   0.5209   0.7552   0.9199
     1.3140   1.5134   1.6661   1.8019   1.9459   2.2491   2.5568   2.7210
     2.7327   3.0677   3.2602   3.4035   3.7329   3.7799   4.1622   4.1655
     4.3719   4.7946   4.9818   6.4560   8.2193   9.6349

          k = 0.1667-0.0962 0.0000 (  4427 PWs)   bands (ev):

   -42.4561 -42.3115 -42.1457 -42.1071 -42.0298 -42.0210 -42.0130 -42.0008
   -41.9314 -41.6944 -41.6939 -41.6307 -41.6269 -41.5988 -41.5988  -2.1163
    -1.3387  -0.7332  -0.4002  -0.3103   0.6496   0.9559   1.0261   1.2020
     1.5796   1.8116   1.9606   1.9956   2.0729   2.1877   2.2702   2.3694
     2.5072   2.7849   2.8531   3.1393   3.2336   3.4791   3.6484   4.0532
     4.2243   4.6645   5.0145   5.5186   7.0937   8.2322

          k = 0.2778 0.4811 0.0000 (  4485 PWs)   bands (ev):

   -42.4388 -42.4156 -42.3826 -42.3140 -42.2482 -42.2421 -42.1699 -42.1424
   -42.0681 -41.9485 -41.9467 -41.8221 -41.8210 -41.6073 -41.6070  -0.4389
    -0.4341  -0.1394   0.1252   0.3151   0.3808   0.4620   0.5382   0.9558
     1.1933   1.5239   1.6591   2.1154   2.2061   2.3429   2.4161   2.9392
     3.1519   3.5173   3.6656   4.0428   4.4807   4.8704   4.9919   5.1878
     8.7036   9.1764   9.9998  11.2199  12.6405  13.1359

          k = 0.2778 0.6094 0.0000 (  4491 PWs)   bands (ev):

   -42.4307 -42.4010 -42.3768 -42.3268 -42.2876 -42.2660 -42.1690 -42.1482
   -42.0772 -41.9409 -41.9400 -41.8534 -41.8522 -41.6060 -41.6058  -0.4622
    -0.2339  -0.0351   0.1064   0.2167   0.3437   0.4617   0.6196   0.9179
     1.3121   1.5250   1.7042   2.0572   2.1210   2.4121   2.4550   2.9197
     3.2325   3.5350   3.6893   4.3040   4.5093   4.7274   4.8457   4.9674
     9.9393  10.4832  11.1012  11.6147  12.2623  12.7586

          k = 0.2778-0.4170 0.0000 (  4462 PWs)   bands (ev):

   -42.4456 -42.4114 -42.3953 -42.2981 -42.2105 -42.2000 -42.1709 -42.1138
   -42.0562 -41.9491 -41.9474 -41.7774 -41.7761 -41.6092 -41.6086  -0.5831
    -0.4434  -0.2563  -0.0225   0.1574   0.2762   0.4808   0.8446   0.9249
     1.0069   1.5660   1.6668   2.0825   2.2502   2.3212   2.5123   2.8355
     3.1908   3.5079   3.7914   3.8675   4.4200   4.9680   5.0870   5.2970
     7.5094   7.8483   8.6018   9.9398  11.6422  13.2611

          k = 0.2778-0.2887 0.0000 (  4463 PWs)   bands (ev):

   -42.4240 -42.3944 -42.3593 -42.3031 -42.1782 -42.1186 -42.1074 -42.0500
   -42.0154 -41.9202 -41.9176 -41.6881 -41.6879 -41.6153 -41.6143  -0.8030
    -0.7193  -0.5086  -0.3667  -0.1119   0.0492   0.3602   0.7887   1.1213
     1.4846   1.5458   1.8310   2.0706   2.2200   2.5758   2.7945   2.9116
     3.2636   3.4930   3.8261   4.0552   4.3960   4.6131   4.7755   5.0097
     5.3523   5.5143   6.1311   7.8163   9.7937  11.5220

          k = 0.2778-0.1604 0.0000 (  4458 PWs)   bands (ev):

   -42.4094 -42.3469 -42.2874 -42.2754 -42.1480 -42.0693 -42.0435 -42.0425
   -41.9675 -41.8543 -41.8502 -41.6396 -41.6394 -41.6216 -41.6192  -1.1916
    -0.8280  -0.6244  -0.2586  -0.1686   0.2037   0.3499   0.9058   1.2470
     1.5045   1.7589   2.0125   2.0453   2.4477   2.5262   2.6470   2.8211
     3.0477   3.3663   3.4182   3.6914   3.7371   3.8715   4.0741   4.2445
     4.6809   4.9270   5.0703   6.7302   8.6774  10.2278

          k = 0.3889 0.6736 0.0000 (  4511 PWs)   bands (ev):

   -42.4669 -42.4206 -42.4143 -42.2879 -42.2553 -42.2280 -42.1861 -42.1279
   -42.0733 -41.9648 -41.9640 -41.8127 -41.8113 -41.6071 -41.6069  -0.7282
    -0.3658  -0.1962  -0.1855   0.1314   0.2393   0.3595   0.6859   0.8866
     1.1696   1.6400   1.8969   1.9689   2.2520   2.6433   2.8132   2.9440
     3.2970   3.7684   3.9786   4.4688   4.4901   4.7281   4.9142   5.0555
     9.4838   9.9239  10.3305  10.8410  11.2995  12.7668

          k = 0.3889-0.3528 0.0000 (  4485 PWs)   bands (ev):

   -42.5089 -42.4608 -42.4542 -42.2662 -42.2098 -42.1548 -42.1511 -42.0718
   -42.0508 -41.9906 -41.9852 -41.7207 -41.7204 -41.6108 -41.6102  -1.1212
    -0.9273  -0.7976  -0.6380  -0.3470  -0.1276  -0.0131   0.6580   1.0642
     1.5030   1.7185   1.9248   2.3228   2.6082   2.8953   3.5040   3.6838
     3.9297   4.2041   4.5018   4.5551   4.6712   4.9684   5.0380   5.3137
     7.0385   7.6716   8.1693   9.2103  10.4381  12.5456

          k = 0.3889-0.2245 0.0000 (  4444 PWs)   bands (ev):

   -42.4849 -42.4470 -42.4254 -42.2831 -42.2023 -42.1105 -42.0818 -42.0805
   -41.9995 -41.9752 -41.9656 -41.6748 -41.6747 -41.6142 -41.6130  -1.1983
    -1.1010  -0.8575  -0.8108  -0.4225  -0.2440  -0.1258   0.7674   1.2931
     1.5467   1.7773   2.2003   2.3899   2.4095   3.3005   3.3546   3.9383
     4.2173   4.2993   4.5708   4.7131   4.7658   4.7964   4.9594   5.0636
     5.2053   5.5170   6.0908   7.9709  10.0438  12.0765

          k =-0.5000-0.8660 0.0000 (  4492 PWs)   bands (ev):

   -42.5417 -42.4913 -42.4855 -42.2589 -42.2295 -42.1276 -42.0998 -42.0951
   -42.0195 -42.0123 -41.9999 -41.6891 -41.6887 -41.6121 -41.6114  -1.4066
    -1.2037  -1.0405  -0.9708  -0.5862  -0.3780  -0.3253   0.6460   1.2191
     1.3890   1.6740   2.3178   2.4760   2.7815   3.3557   3.7707   4.2541
     4.3720   4.8859   5.0214   5.0490   5.1031   5.2661   5.5007   5.5211
     6.0962   7.5252   8.1752   8.5186   8.7205  12.2347

     the Fermi energy is     4.4831 ev

!    total energy              =    -855.84653914 Ry
     estimated scf accuracy    <       0.00000004 Ry
     smearing contrib. (-TS)   =      -0.02223825 Ry
     internal energy E=F+TS    =    -855.82430089 Ry

     The total energy is F=E-TS. E is the sum of the following terms:
     one-electron contribution =  -11818.58632745 Ry
     hartree contribution      =    5931.46020145 Ry
     xc contribution           =    -149.50249605 Ry
     ewald contribution        =    5180.80432116 Ry

     total magnetization       =     0.00 Bohr mag/cell
     absolute magnetization    =     0.00 Bohr mag/cell

     convergence has been achieved in  11 iterations

     negative rho (up, down):  1.445E-01 1.445E-01

     Forces acting on atoms (cartesian axes, Ry/au):

     atom    1 type  1   force =     0.00000000    0.00000000    0.00120451
     atom    2 type  1   force =     0.00000000    0.00000000    0.00379369
     atom    3 type  1   force =     0.00000000    0.00000000    0.00000638
     atom    4 type  1   force =     0.00000000    0.00000000   -0.00379181
     atom    5 type  1   force =     0.00000000    0.00000000   -0.00121277

     Total force =     0.005630     Total SCF correction =     0.001102
     SCF correction compared to forces is large: reduce conv_thr to get better values
     Energy error            =      3.7E-05
     Gradient error          =      3.8E-03

     number of scf cycles    =   5
     number of bfgs steps    =   4

     energy   old            =    -855.8465025566 Ry
     energy   new            =    -855.8465391440 Ry

     CASE: energy  _new < energy  _old

     new trust radius        =       0.0090939710 bohr
     new conv_thr            =       0.0000001000 Ry


ATOMIC_POSITIONS (angstrom)
Rh            0.0000000000        0.0000000000        0.0324890694
Rh            1.3554284000       -0.7825569000        2.2041566695
Rh            1.3554284000        0.7825569000        4.4268203258
Rh            0.0000000000        0.0000000000        6.6494797190
Rh            1.3554284000       -0.7825569000        8.8211072162



     Writing output data file /home/STUDENTI/leonardo.razzai/Rh_work/surf_111/5-L.save/
     NEW-OLD atomic charge density approx. for the potential

     negative rho (up, down):  1.443E-01 1.443E-01
     Generating pointlists ...

     total cpu time spent up to now is      343.1 secs

     Self-consistent Calculation

     iteration #  1     ecut=    35.00 Ry     beta= 0.40
     Davidson diagonalization with overlap
     ethr =  1.00E-06,  avg # of iterations =  5.7

     negative rho (up, down):  1.443E-01 1.443E-01

     total cpu time spent up to now is      353.0 secs

     total energy              =    -855.84604547 Ry
     estimated scf accuracy    <       0.01828164 Ry

     total magnetization       =     0.00 Bohr mag/cell
     absolute magnetization    =     0.00 Bohr mag/cell

     iteration #  2     ecut=    35.00 Ry     beta= 0.40
     Davidson diagonalization with overlap
     ethr =  2.44E-05,  avg # of iterations =  1.0

     negative rho (up, down):  1.443E-01 1.443E-01

     total cpu time spent up to now is      358.3 secs

     total energy              =    -855.84643437 Ry
     estimated scf accuracy    <       0.00646406 Ry

     total magnetization       =    -0.00 Bohr mag/cell
     absolute magnetization    =     0.00 Bohr mag/cell

     iteration #  3     ecut=    35.00 Ry     beta= 0.40
     Davidson diagonalization with overlap
     ethr =  8.62E-06,  avg # of iterations =  1.0

     negative rho (up, down):  1.443E-01 1.443E-01

     total cpu time spent up to now is      363.8 secs

     total energy              =    -855.84658768 Ry
     estimated scf accuracy    <       0.00058932 Ry

     total magnetization       =    -0.00 Bohr mag/cell
     absolute magnetization    =     0.00 Bohr mag/cell

     iteration #  4     ecut=    35.00 Ry     beta= 0.40
     Davidson diagonalization with overlap
     ethr =  7.86E-07,  avg # of iterations =  1.0

     negative rho (up, down):  1.443E-01 1.443E-01

     total cpu time spent up to now is      369.0 secs

     total energy              =    -855.84658118 Ry
     estimated scf accuracy    <       0.00026101 Ry

     total magnetization       =     0.00 Bohr mag/cell
     absolute magnetization    =     0.00 Bohr mag/cell

     iteration #  5     ecut=    35.00 Ry     beta= 0.40
     Davidson diagonalization with overlap
     ethr =  3.48E-07,  avg # of iterations =  1.0

     negative rho (up, down):  1.443E-01 1.443E-01

     total cpu time spent up to now is      374.3 secs

     total energy              =    -855.84658449 Ry
     estimated scf accuracy    <       0.00001912 Ry

     total magnetization       =     0.00 Bohr mag/cell
     absolute magnetization    =     0.00 Bohr mag/cell

     iteration #  6     ecut=    35.00 Ry     beta= 0.40
     Davidson diagonalization with overlap
     ethr =  2.55E-08,  avg # of iterations =  1.0

     negative rho (up, down):  1.443E-01 1.443E-01

     total cpu time spent up to now is      379.6 secs

     total energy              =    -855.84658423 Ry
     estimated scf accuracy    <       0.00000301 Ry

     total magnetization       =     0.00 Bohr mag/cell
     absolute magnetization    =     0.00 Bohr mag/cell

     iteration #  7     ecut=    35.00 Ry     beta= 0.40
     Davidson diagonalization with overlap
     ethr =  4.02E-09,  avg # of iterations =  1.4

     negative rho (up, down):  1.443E-01 1.443E-01

     total cpu time spent up to now is      385.0 secs

     total energy              =    -855.84658377 Ry
     estimated scf accuracy    <       0.00000227 Ry

     total magnetization       =     0.00 Bohr mag/cell
     absolute magnetization    =     0.00 Bohr mag/cell

     iteration #  8     ecut=    35.00 Ry     beta= 0.40
     Davidson diagonalization with overlap
     ethr =  3.03E-09,  avg # of iterations =  1.8

     negative rho (up, down):  1.443E-01 1.443E-01

     total cpu time spent up to now is      390.7 secs

     total energy              =    -855.84658427 Ry
     estimated scf accuracy    <       0.00000225 Ry

     total magnetization       =     0.00 Bohr mag/cell
     absolute magnetization    =     0.00 Bohr mag/cell

     iteration #  9     ecut=    35.00 Ry     beta= 0.40
     Davidson diagonalization with overlap
     ethr =  2.99E-09,  avg # of iterations =  1.0

     negative rho (up, down):  1.443E-01 1.443E-01

     total cpu time spent up to now is      396.0 secs

     total energy              =    -855.84658490 Ry
     estimated scf accuracy    <       0.00000036 Ry

     total magnetization       =     0.00 Bohr mag/cell
     absolute magnetization    =     0.00 Bohr mag/cell

     iteration # 10     ecut=    35.00 Ry     beta= 0.40
     Davidson diagonalization with overlap
     ethr =  4.86E-10,  avg # of iterations =  1.3

     negative rho (up, down):  1.443E-01 1.443E-01

     total cpu time spent up to now is      401.4 secs

     total energy              =    -855.84658540 Ry
     estimated scf accuracy    <       0.00000053 Ry

     total magnetization       =     0.00 Bohr mag/cell
     absolute magnetization    =     0.00 Bohr mag/cell

     iteration # 11     ecut=    35.00 Ry     beta= 0.40
     Davidson diagonalization with overlap
     ethr =  4.86E-10,  avg # of iterations =  1.2

     negative rho (up, down):  1.443E-01 1.443E-01
 
     Magnetic moment per site:
     atom:    1    charge:   13.1064    magn:    0.0000    constr:    0.0000
     atom:    2    charge:   13.1588    magn:   -0.0000    constr:    0.0000
     atom:    3    charge:   13.1543    magn:   -0.0000    constr:    0.0000
     atom:    4    charge:   13.1588    magn:    0.0000    constr:    0.0000
     atom:    5    charge:   13.1059    magn:    0.0000    constr:    0.0000

     total cpu time spent up to now is      406.6 secs

     End of self-consistent calculation

 ------ SPIN UP ------------


          k = 0.0556 0.0962 0.0000 (  4451 PWs)   bands (ev):

   -42.4889 -42.3206 -42.0806 -42.0302 -42.0027 -41.9914 -41.9866 -41.9497
   -41.9173 -41.6419 -41.6368 -41.6129 -41.6116 -41.5811 -41.5811  -2.6848
    -1.8442  -1.1500  -0.8226  -0.7921   1.1306   1.1813   1.3294   1.5805
     1.6552   1.7347   1.7909   1.8385   1.9364   2.0279   2.1203   2.2565
     2.3632   2.5482   3.2684   3.3104   3.5878   3.6565   3.6943   3.9412
     4.2541   4.4588   4.9279   4.9366   6.0931   6.9479

          k = 0.0556 0.2245 0.0000 (  4420 PWs)   bands (ev):

   -42.4436 -42.3164 -42.1906 -42.1541 -42.0744 -42.0387 -42.0223 -42.0128
   -41.9473 -41.7390 -41.7383 -41.6291 -41.6262 -41.6141 -41.6138  -1.7902
    -1.0755  -0.5374  -0.2015  -0.0762   0.4568   0.7668   0.8847   1.0155
     1.5201   1.6904   1.8624   1.9391   2.0516   2.2577   2.4437   2.5474
     2.7198   2.8006   2.9865   3.1187   3.3672   3.4533   3.8019   4.0636
     4.3635   4.7272   4.9282   5.9342   7.5938   8.8630

          k = 0.0556 0.3528 0.0000 (  4467 PWs)   bands (ev):

   -42.4142 -42.3777 -42.3230 -42.3038 -42.1690 -42.0892 -42.0728 -42.0450
   -41.9860 -41.8919 -41.8880 -41.6578 -41.6578 -41.6205 -41.6187  -1.0280
    -0.8059  -0.6130  -0.4024  -0.1743   0.0986   0.2778   0.8761   1.2367
     1.5300   1.7453   1.8348   2.0664   2.3733   2.6062   2.7998   2.9620
     3.2066   3.5319   3.7477   3.8116   4.1158   4.2916   4.4488   4.6148
     4.6834   5.0070   5.3466   7.1571   9.1564  10.8049

          k = 0.0556 0.4811 0.0000 (  4463 PWs)   bands (ev):

   -42.5077 -42.4635 -42.4500 -42.2777 -42.2121 -42.1280 -42.1134 -42.0765
   -42.0184 -41.9893 -41.9807 -41.6907 -41.6906 -41.6144 -41.6135  -1.2276
    -1.0840  -0.8970  -0.8097  -0.4386  -0.2490  -0.1574   0.7022   1.2164
     1.5107   1.7301   2.0947   2.4189   2.5545   3.1637   3.5096   3.9462
     4.2049   4.3132   4.6041   4.7463   4.8081   4.9328   5.0696   5.2430
     5.8430   6.4920   6.9349   8.4264  10.2610  12.4445

          k = 0.0556-0.5453 0.0000 (  4486 PWs)   bands (ev):

   -42.5358 -42.4859 -42.4793 -42.2641 -42.2266 -42.1370 -42.1222 -42.0841
   -42.0288 -42.0078 -41.9974 -41.6984 -41.6980 -41.6132 -41.6127  -1.3373
    -1.1393  -0.9888  -0.8901  -0.5240  -0.2993  -0.2690   0.6499   1.1705
     1.4348   1.6870   2.1370   2.5454   2.6594   3.2407   3.7234   4.0910
     4.3333   4.6595   4.8031   4.9413   5.0092   5.1269   5.2274   5.3857
     6.5209   7.5825   8.0786   8.6077   9.4730  12.3214

          k = 0.0556-0.4170 0.0000 (  4465 PWs)   bands (ev):

   -42.4579 -42.4263 -42.3957 -42.2973 -42.1928 -42.1118 -42.0957 -42.0622
   -42.0039 -41.9505 -41.9448 -41.6770 -41.6767 -41.6169 -41.6156  -1.0428
    -0.9971  -0.7345  -0.6599  -0.3009  -0.1266   0.0341   0.8023   1.2600
     1.6525   1.7638   2.0296   2.0543   2.5082   2.8642   3.3040   3.5228
     3.6356   4.0475   4.1442   4.3123   4.5090   4.6820   4.7755   5.0244
     5.1865   5.4079   6.0054   7.8258   9.8926  11.7468

          k = 0.0556-0.2887 0.0000 (  4439 PWs)   bands (ev):

   -42.4187 -42.3315 -42.2645 -42.2377 -42.1302 -42.0630 -42.0469 -42.0289
   -41.9663 -41.8179 -41.8154 -41.6360 -41.6356 -41.6244 -41.6219  -1.2990
    -0.7971  -0.5014  -0.1039  -0.0484   0.3419   0.4925   0.7796   1.0187
     1.4116   1.7655   1.9283   1.9790   2.1658   2.3343   2.4412   2.7523
     2.8856   3.0680   3.2617   3.4747   3.6993   3.7935   4.0583   4.2137
     4.5061   4.8937   5.0070   6.5253   8.3758   9.8408

          k = 0.0556-0.1604 0.0000 (  4443 PWs)   bands (ev):

   -42.4694 -42.3168 -42.1238 -42.0826 -42.0199 -42.0194 -42.0042 -41.9869
   -41.9305 -41.6699 -41.6695 -41.6335 -41.6291 -41.5952 -41.5950  -2.2965
    -1.4876  -0.8377  -0.5010  -0.4691   0.8155   0.9702   1.1069   1.3647
     1.5024   1.7860   1.9263   1.9481   2.0652   2.1005   2.1763   2.2807
     2.5117   2.6616   3.0467   3.1979   3.2599   3.4692   3.7085   3.9289
     4.2970   4.5890   4.9064   5.3894   6.8222   7.8792

          k = 0.0556-0.0321 0.0000 (  4465 PWs)   bands (ev):

   -42.4994 -42.3240 -42.0643 -42.0020 -41.9913 -41.9807 -41.9750 -41.9228
   -41.9103 -41.6445 -41.6370 -41.5850 -41.5847 -41.5739 -41.5736  -2.8918
    -2.0419  -1.3275  -1.0125  -0.9701   1.3029   1.3548   1.4597   1.5871
     1.6520   1.6947   1.6968   1.7844   1.8710   2.0872   2.1179   2.1380
     2.2103   2.8368   3.3952   3.3987   3.6312   3.6530   4.0200   4.0627
     4.2405   4.5482   4.6463   4.9727   5.5199   6.2372

          k = 0.1667 0.2887 0.0000 (  4425 PWs)   bands (ev):

   -42.4035 -42.3420 -42.2928 -42.2747 -42.1569 -42.0975 -42.0685 -42.0393
   -41.9999 -41.8482 -41.8468 -41.6690 -41.6684 -41.6203 -41.6192  -0.8649
    -0.5122  -0.0745   0.0520   0.1242   0.2623   0.4124   0.5817   1.1346
     1.1668   1.4120   1.5701   1.6745   1.7403   2.3281   2.4480   2.6623
     2.8761   3.2973   3.5203   3.7354   4.0818   4.3546   4.3882   4.6867
     4.7347   4.8091   5.4368   7.0847   8.9518  10.5047

          k = 0.1667 0.4170 0.0000 (  4459 PWs)   bands (ev):

   -42.4431 -42.4065 -42.3901 -42.3024 -42.1860 -42.1651 -42.1483 -42.0754
   -42.0443 -41.9400 -41.9393 -41.7309 -41.7302 -41.6136 -41.6132  -0.6713
    -0.5915  -0.3842  -0.1706  -0.0513   0.1117   0.4690   0.7855   1.0034
     1.1888   1.5025   1.8221   2.0539   2.1538   2.4283   2.6674   2.8577
     3.2583   3.4745   3.8059   4.0179   4.3619   4.9415   4.9777   5.2104
     6.3753   6.6085   7.2786   8.7639  10.6335  12.3702

          k = 0.1667 0.5453 0.0000 (  4490 PWs)   bands (ev):

   -42.4984 -42.4497 -42.4439 -42.2705 -42.2044 -42.2029 -42.1928 -42.0935
   -42.0717 -41.9841 -41.9814 -41.7644 -41.7637 -41.6103 -41.6100  -0.9601
    -0.6768  -0.5648  -0.3963  -0.1682   0.0624   0.2489   0.6567   0.8465
     1.3793   1.7030   1.8888   2.1340   2.5331   2.5912   3.2463   3.4051
     3.5004   4.0198   4.2857   4.4518   4.6136   4.8533   4.9797   5.2261
     8.3002   8.8942   9.4460  10.1294  10.5981  12.6006

          k = 0.1667-0.4811 0.0000 (  4476 PWs)   bands (ev):

   -42.4783 -42.4310 -42.4290 -42.2833 -42.1956 -42.1879 -42.1801 -42.0873
   -42.0620 -41.9686 -41.9678 -41.7527 -41.7521 -41.6113 -41.6112  -0.8580
    -0.6433  -0.5026  -0.3170  -0.1090   0.0646   0.3404   0.6860   0.9654
     1.2693   1.7081   1.8979   2.0401   2.3266   2.6636   3.0060   3.1404
     3.3776   3.9008   4.0323   4.1163   4.4738   4.9588   5.0450   5.3080
     7.3672   7.7653   8.4399   9.6992  11.2594  12.9104

          k = 0.1667-0.3528 0.0000 (  4458 PWs)   bands (ev):

   -42.4088 -42.3735 -42.3372 -42.3156 -42.1757 -42.1336 -42.1077 -42.0585
   -42.0235 -41.8992 -41.8980 -41.7016 -41.7010 -41.6170 -41.6164  -0.5916
    -0.4824  -0.2303  -0.0928   0.0198   0.2825   0.4559   0.7544   0.9485
     1.2072   1.4361   1.6053   1.8741   1.9940   2.2371   2.3551   2.7760
     3.1045   3.2402   3.7142   3.9429   4.2257   4.6771   4.7843   4.9812
     5.4804   5.5642   6.2187   7.8475   9.7623  11.4236

          k = 0.1667-0.2245 0.0000 (  4433 PWs)   bands (ev):

   -42.4225 -42.3239 -42.2427 -42.2111 -42.1225 -42.0644 -42.0391 -42.0246
   -41.9727 -41.7928 -41.7914 -41.6387 -41.6385 -41.6247 -41.6226  -1.3403
    -0.7483  -0.2472   0.0234   0.0894   0.3347   0.5145   0.7495   0.9167
     1.3116   1.5118   1.6643   1.8007   1.9386   2.2509   2.5533   2.7192
     2.7311   3.0645   3.2569   3.4012   3.7318   3.7785   4.1632   4.1663
     4.3728   4.7981   4.9846   6.4612   8.2258   9.6418

          k = 0.1667-0.0962 0.0000 (  4427 PWs)   bands (ev):

   -42.4609 -42.3158 -42.1482 -42.1091 -42.0313 -42.0230 -42.0146 -42.0026
   -41.9326 -41.6954 -41.6949 -41.6321 -41.6283 -41.5998 -41.5997  -2.1224
    -1.3431  -0.7397  -0.4050  -0.3143   0.6441   0.9504   1.0209   1.1970
     1.5780   1.8123   1.9607   1.9864   2.0738   2.1823   2.2717   2.3648
     2.5009   2.7825   2.8515   3.1400   3.2316   3.4794   3.6479   4.0521
     4.2247   4.6657   5.0182   5.5212   7.0987   8.2393

          k = 0.2778 0.4811 0.0000 (  4485 PWs)   bands (ev):

   -42.4416 -42.4182 -42.3850 -42.3174 -42.2511 -42.2443 -42.1723 -42.1439
   -42.0700 -41.9493 -41.9474 -41.8230 -41.8218 -41.6090 -41.6087  -0.4475
    -0.4425  -0.1471   0.1177   0.3074   0.3737   0.4558   0.5298   0.9497
     1.1907   1.5189   1.6569   2.1147   2.2046   2.3414   2.4143   2.9416
     3.1537   3.5184   3.6680   4.0445   4.4826   4.8730   4.9939   5.1903
     8.7025   9.1765  10.0013  11.2231  12.6437  13.1364

          k = 0.2778 0.6094 0.0000 (  4491 PWs)   bands (ev):

   -42.4334 -42.4036 -42.3793 -42.3295 -42.2900 -42.2687 -42.1715 -42.1500
   -42.0792 -41.9417 -41.9408 -41.8542 -41.8530 -41.6078 -41.6075  -0.4711
    -0.2425  -0.0431   0.0978   0.2090   0.3362   0.4542   0.6134   0.9115
     1.3095   1.5204   1.7020   2.0558   2.1197   2.4104   2.4538   2.9220
     3.2343   3.5374   3.6923   4.3056   4.5108   4.7299   4.8481   4.9699
     9.9384  10.4835  11.1012  11.6154  12.2648  12.7583

          k = 0.2778-0.4170 0.0000 (  4462 PWs)   bands (ev):

   -42.4484 -42.4141 -42.3976 -42.3019 -42.2130 -42.2025 -42.1730 -42.1152
   -42.0580 -41.9500 -41.9482 -41.7783 -41.7770 -41.6109 -41.6103  -0.5914
    -0.4514  -0.2638  -0.0296   0.1502   0.2703   0.4743   0.8366   0.9190
     1.0039   1.5628   1.6618   2.0815   2.2500   2.3193   2.5109   2.8363
     3.1918   3.5084   3.7932   3.8691   4.4221   4.9705   5.0882   5.2991
     7.5084   7.8480   8.6032   9.9441  11.6483  13.2657

          k = 0.2778-0.2887 0.0000 (  4463 PWs)   bands (ev):

   -42.4271 -42.3976 -42.3614 -42.3068 -42.1805 -42.1208 -42.1094 -42.0518
   -42.0167 -41.9210 -41.9184 -41.6890 -41.6888 -41.6169 -41.6159  -0.8100
    -0.7268  -0.5161  -0.3725  -0.1174   0.0431   0.3572   0.7846   1.1168
     1.4794   1.5391   1.8307   2.0669   2.2171   2.5732   2.7927   2.9089
     3.2613   3.4950   3.8261   4.0546   4.3979   4.6124   4.7760   5.0124
     5.3520   5.5142   6.1334   7.8222   9.8013  11.5276

          k = 0.2778-0.1604 0.0000 (  4458 PWs)   bands (ev):

   -42.4137 -42.3504 -42.2904 -42.2776 -42.1497 -42.0714 -42.0454 -42.0445
   -41.9687 -41.8551 -41.8511 -41.6405 -41.6403 -41.6231 -41.6207  -1.1980
    -0.8341  -0.6309  -0.2652  -0.1739   0.2001   0.3452   0.8989   1.2443
     1.5015   1.7604   2.0021   2.0446   2.4460   2.5176   2.6455   2.8203
     3.0419   3.3624   3.4206   3.6891   3.7393   3.8697   4.0739   4.2452
     4.6830   4.9298   5.0748   6.7357   8.6845  10.2344

          k = 0.3889 0.6736 0.0000 (  4511 PWs)   bands (ev):

   -42.4696 -42.4227 -42.4172 -42.2912 -42.2577 -42.2306 -42.1886 -42.1293
   -42.0752 -41.9657 -41.9648 -41.8135 -41.8122 -41.6088 -41.6086  -0.7370
    -0.3736  -0.2036  -0.1932   0.1244   0.2327   0.3528   0.6789   0.8835
     1.1635   1.6370   1.8926   1.9685   2.2505   2.6438   2.8115   2.9429
     3.2974   3.7699   3.9809   4.4706   4.4914   4.7310   4.9166   5.0581
     9.4831   9.9232  10.3302  10.8425  11.3032  12.7684

          k = 0.3889-0.3528 0.0000 (  4485 PWs)   bands (ev):

   -42.5117 -42.4632 -42.4569 -42.2700 -42.2124 -42.1570 -42.1533 -42.0736
   -42.0520 -41.9915 -41.9861 -41.7216 -41.7213 -41.6125 -41.6119  -1.1295
    -0.9345  -0.8053  -0.6440  -0.3527  -0.1330  -0.0162   0.6541   1.0592
     1.5015   1.7135   1.9214   2.3187   2.6039   2.8920   3.5019   3.6826
     3.9289   4.2047   4.5027   4.5557   4.6738   4.9703   5.0385   5.3155
     7.0374   7.6719   8.1707   9.2137  10.4421  12.5464

          k = 0.3889-0.2245 0.0000 (  4444 PWs)   bands (ev):

   -42.4877 -42.4499 -42.4278 -42.2869 -42.2049 -42.1127 -42.0838 -42.0824
   -42.0006 -41.9761 -41.9665 -41.6757 -41.6756 -41.6159 -41.6147  -1.2059
    -1.1079  -0.8651  -0.8168  -0.4272  -0.2484  -0.1302   0.7644   1.2925
     1.5487   1.7668   2.1969   2.3813   2.4058   3.2980   3.3503   3.9395
     4.2157   4.2984   4.5682   4.7131   4.7650   4.7972   4.9596   5.0631
     5.2086   5.5190   6.0936   7.9765  10.0512  12.0813

          k =-0.5000-0.8660 0.0000 (  4492 PWs)   bands (ev):

   -42.5445 -42.4935 -42.4883 -42.2627 -42.2321 -42.1298 -42.1018 -42.0970
   -42.0205 -42.0134 -42.0009 -41.6900 -41.6897 -41.6138 -41.6131  -1.4146
    -1.2107  -1.0483  -0.9766  -0.5911  -0.3807  -0.3311   0.6426   1.2191
     1.3915   1.6634   2.3094   2.4720   2.7790   3.3520   3.7692   4.2556
     4.3730   4.8880   5.0233   5.0467   5.1010   5.2660   5.4998   5.5209
     6.0949   7.5269   8.1781   8.5212   8.7237  12.2341

 ------ SPIN DOWN ----------


          k = 0.0556 0.0962 0.0000 (  4451 PWs)   bands (ev):

   -42.4889 -42.3206 -42.0806 -42.0302 -42.0027 -41.9914 -41.9866 -41.9497
   -41.9173 -41.6419 -41.6368 -41.6129 -41.6116 -41.5811 -41.5811  -2.6848
    -1.8442  -1.1500  -0.8226  -0.7920   1.1306   1.1813   1.3294   1.5805
     1.6552   1.7347   1.7909   1.8385   1.9364   2.0279   2.1203   2.2565
     2.3632   2.5482   3.2684   3.3104   3.5878   3.6565   3.6943   3.9412
     4.2541   4.4588   4.9279   4.9366   6.0931   6.9479

          k = 0.0556 0.2245 0.0000 (  4420 PWs)   bands (ev):

   -42.4436 -42.3164 -42.1906 -42.1541 -42.0744 -42.0387 -42.0223 -42.0128
   -41.9473 -41.7390 -41.7383 -41.6291 -41.6262 -41.6141 -41.6138  -1.7902
    -1.0755  -0.5374  -0.2015  -0.0762   0.4568   0.7668   0.8847   1.0155
     1.5201   1.6904   1.8624   1.9391   2.0516   2.2577   2.4437   2.5474
     2.7198   2.8006   2.9865   3.1187   3.3672   3.4533   3.8019   4.0636
     4.3635   4.7272   4.9282   5.9342   7.5938   8.8630

          k = 0.0556 0.3528 0.0000 (  4467 PWs)   bands (ev):

   -42.4142 -42.3777 -42.3230 -42.3038 -42.1690 -42.0892 -42.0728 -42.0450
   -41.9860 -41.8919 -41.8880 -41.6578 -41.6578 -41.6205 -41.6187  -1.0280
    -0.8059  -0.6130  -0.4024  -0.1743   0.0986   0.2778   0.8761   1.2367
     1.5300   1.7453   1.8348   2.0664   2.3733   2.6062   2.7998   2.9620
     3.2066   3.5319   3.7477   3.8116   4.1158   4.2916   4.4488   4.6148
     4.6834   5.0070   5.3466   7.1571   9.1564  10.8049

          k = 0.0556 0.4811 0.0000 (  4463 PWs)   bands (ev):

   -42.5077 -42.4635 -42.4500 -42.2777 -42.2121 -42.1280 -42.1134 -42.0765
   -42.0184 -41.9893 -41.9807 -41.6907 -41.6906 -41.6144 -41.6135  -1.2276
    -1.0840  -0.8970  -0.8097  -0.4386  -0.2490  -0.1574   0.7022   1.2164
     1.5107   1.7301   2.0947   2.4189   2.5545   3.1637   3.5096   3.9462
     4.2049   4.3132   4.6041   4.7463   4.8081   4.9328   5.0696   5.2430
     5.8430   6.4920   6.9349   8.4264  10.2610  12.4445

          k = 0.0556-0.5453 0.0000 (  4486 PWs)   bands (ev):

   -42.5358 -42.4859 -42.4793 -42.2641 -42.2266 -42.1370 -42.1222 -42.0841
   -42.0288 -42.0078 -41.9974 -41.6984 -41.6980 -41.6132 -41.6127  -1.3373
    -1.1393  -0.9888  -0.8901  -0.5240  -0.2993  -0.2690   0.6499   1.1705
     1.4348   1.6870   2.1370   2.5454   2.6594   3.2407   3.7234   4.0910
     4.3333   4.6595   4.8031   4.9413   5.0092   5.1269   5.2274   5.3857
     6.5209   7.5825   8.0786   8.6077   9.4730  12.3256

          k = 0.0556-0.4170 0.0000 (  4465 PWs)   bands (ev):

   -42.4579 -42.4263 -42.3957 -42.2973 -42.1928 -42.1118 -42.0957 -42.0622
   -42.0039 -41.9505 -41.9448 -41.6770 -41.6767 -41.6169 -41.6156  -1.0428
    -0.9971  -0.7345  -0.6599  -0.3009  -0.1266   0.0341   0.8023   1.2600
     1.6525   1.7638   2.0296   2.0543   2.5082   2.8642   3.3040   3.5228
     3.6356   4.0475   4.1442   4.3123   4.5090   4.6820   4.7755   5.0244
     5.1865   5.4079   6.0054   7.8258   9.8926  11.7468

          k = 0.0556-0.2887 0.0000 (  4439 PWs)   bands (ev):

   -42.4187 -42.3315 -42.2645 -42.2377 -42.1302 -42.0630 -42.0469 -42.0289
   -41.9663 -41.8179 -41.8154 -41.6360 -41.6356 -41.6244 -41.6219  -1.2990
    -0.7971  -0.5014  -0.1039  -0.0484   0.3419   0.4925   0.7796   1.0187
     1.4116   1.7655   1.9283   1.9790   2.1658   2.3343   2.4412   2.7523
     2.8856   3.0680   3.2617   3.4747   3.6993   3.7935   4.0583   4.2137
     4.5061   4.8937   5.0070   6.5253   8.3758   9.8408

          k = 0.0556-0.1604 0.0000 (  4443 PWs)   bands (ev):

   -42.4694 -42.3168 -42.1238 -42.0826 -42.0199 -42.0194 -42.0042 -41.9869
   -41.9305 -41.6699 -41.6695 -41.6335 -41.6291 -41.5952 -41.5950  -2.2965
    -1.4876  -0.8377  -0.5010  -0.4691   0.8155   0.9702   1.1069   1.3647
     1.5024   1.7860   1.9263   1.9481   2.0652   2.1005   2.1763   2.2807
     2.5117   2.6616   3.0467   3.1979   3.2599   3.4692   3.7085   3.9289
     4.2970   4.5890   4.9064   5.3894   6.8222   7.8792

          k = 0.0556-0.0321 0.0000 (  4465 PWs)   bands (ev):

   -42.4994 -42.3240 -42.0643 -42.0020 -41.9913 -41.9807 -41.9750 -41.9228
   -41.9103 -41.6445 -41.6370 -41.5850 -41.5847 -41.5739 -41.5736  -2.8918
    -2.0419  -1.3275  -1.0125  -0.9701   1.3029   1.3548   1.4597   1.5871
     1.6520   1.6947   1.6968   1.7844   1.8710   2.0872   2.1179   2.1380
     2.2103   2.8368   3.3952   3.3987   3.6312   3.6530   4.0200   4.0627
     4.2405   4.5482   4.6463   4.9727   5.5199   6.2372

          k = 0.1667 0.2887 0.0000 (  4425 PWs)   bands (ev):

   -42.4035 -42.3420 -42.2928 -42.2747 -42.1569 -42.0975 -42.0685 -42.0393
   -41.9999 -41.8482 -41.8468 -41.6690 -41.6684 -41.6203 -41.6192  -0.8649
    -0.5122  -0.0745   0.0520   0.1242   0.2623   0.4124   0.5817   1.1346
     1.1668   1.4120   1.5701   1.6745   1.7403   2.3281   2.4480   2.6623
     2.8761   3.2973   3.5203   3.7354   4.0818   4.3546   4.3882   4.6867
     4.7347   4.8091   5.4368   7.0847   8.9518  10.5047

          k = 0.1667 0.4170 0.0000 (  4459 PWs)   bands (ev):

   -42.4431 -42.4065 -42.3901 -42.3024 -42.1860 -42.1651 -42.1483 -42.0754
   -42.0443 -41.9400 -41.9393 -41.7309 -41.7302 -41.6136 -41.6132  -0.6713
    -0.5915  -0.3842  -0.1706  -0.0513   0.1117   0.4690   0.7855   1.0034
     1.1888   1.5025   1.8221   2.0539   2.1538   2.4283   2.6674   2.8577
     3.2583   3.4745   3.8059   4.0179   4.3619   4.9415   4.9777   5.2104
     6.3753   6.6085   7.2786   8.7639  10.6335  12.3702

          k = 0.1667 0.5453 0.0000 (  4490 PWs)   bands (ev):

   -42.4984 -42.4497 -42.4439 -42.2705 -42.2044 -42.2029 -42.1928 -42.0935
   -42.0717 -41.9841 -41.9814 -41.7644 -41.7637 -41.6103 -41.6100  -0.9601
    -0.6768  -0.5648  -0.3963  -0.1682   0.0624   0.2489   0.6567   0.8465
     1.3793   1.7030   1.8888   2.1340   2.5331   2.5912   3.2463   3.4051
     3.5004   4.0198   4.2857   4.4518   4.6136   4.8533   4.9797   5.2261
     8.3002   8.8942   9.4460  10.1294  10.5981  12.6007

          k = 0.1667-0.4811 0.0000 (  4476 PWs)   bands (ev):

   -42.4783 -42.4310 -42.4290 -42.2833 -42.1956 -42.1879 -42.1801 -42.0873
   -42.0620 -41.9686 -41.9678 -41.7527 -41.7521 -41.6113 -41.6112  -0.8580
    -0.6433  -0.5026  -0.3170  -0.1090   0.0646   0.3404   0.6860   0.9654
     1.2693   1.7081   1.8979   2.0401   2.3266   2.6636   3.0060   3.1404
     3.3776   3.9008   4.0323   4.1163   4.4738   4.9588   5.0450   5.3080
     7.3672   7.7653   8.4399   9.6992  11.2594  12.9104

          k = 0.1667-0.3528 0.0000 (  4458 PWs)   bands (ev):

   -42.4088 -42.3735 -42.3372 -42.3156 -42.1757 -42.1336 -42.1077 -42.0585
   -42.0235 -41.8992 -41.8980 -41.7016 -41.7010 -41.6170 -41.6164  -0.5916
    -0.4824  -0.2303  -0.0928   0.0198   0.2825   0.4559   0.7544   0.9485
     1.2072   1.4361   1.6053   1.8741   1.9940   2.2371   2.3551   2.7760
     3.1045   3.2402   3.7142   3.9429   4.2257   4.6771   4.7843   4.9812
     5.4804   5.5642   6.2187   7.8475   9.7623  11.4236

          k = 0.1667-0.2245 0.0000 (  4433 PWs)   bands (ev):

   -42.4225 -42.3239 -42.2427 -42.2111 -42.1225 -42.0644 -42.0391 -42.0246
   -41.9727 -41.7928 -41.7914 -41.6387 -41.6385 -41.6247 -41.6226  -1.3403
    -0.7483  -0.2472   0.0234   0.0894   0.3347   0.5145   0.7495   0.9167
     1.3116   1.5118   1.6643   1.8007   1.9386   2.2509   2.5533   2.7192
     2.7311   3.0645   3.2569   3.4012   3.7318   3.7785   4.1632   4.1663
     4.3728   4.7981   4.9846   6.4612   8.2258   9.6418

          k = 0.1667-0.0962 0.0000 (  4427 PWs)   bands (ev):

   -42.4609 -42.3158 -42.1482 -42.1091 -42.0313 -42.0230 -42.0146 -42.0026
   -41.9326 -41.6954 -41.6949 -41.6321 -41.6283 -41.5998 -41.5997  -2.1224
    -1.3431  -0.7397  -0.4050  -0.3143   0.6441   0.9504   1.0209   1.1970
     1.5780   1.8123   1.9607   1.9864   2.0738   2.1823   2.2717   2.3648
     2.5009   2.7825   2.8515   3.1400   3.2316   3.4794   3.6479   4.0521
     4.2247   4.6657   5.0182   5.5212   7.0987   8.2393

          k = 0.2778 0.4811 0.0000 (  4485 PWs)   bands (ev):

   -42.4416 -42.4182 -42.3850 -42.3174 -42.2511 -42.2443 -42.1723 -42.1439
   -42.0700 -41.9493 -41.9474 -41.8230 -41.8218 -41.6090 -41.6087  -0.4475
    -0.4425  -0.1471   0.1177   0.3074   0.3737   0.4558   0.5298   0.9497
     1.1907   1.5189   1.6569   2.1147   2.2046   2.3414   2.4143   2.9416
     3.1537   3.5184   3.6680   4.0445   4.4826   4.8730   4.9939   5.1903
     8.7025   9.1765  10.0013  11.2231  12.6437  13.1364

          k = 0.2778 0.6094 0.0000 (  4491 PWs)   bands (ev):

   -42.4334 -42.4036 -42.3793 -42.3295 -42.2900 -42.2687 -42.1715 -42.1500
   -42.0792 -41.9417 -41.9408 -41.8542 -41.8530 -41.6078 -41.6075  -0.4711
    -0.2425  -0.0431   0.0978   0.2090   0.3362   0.4542   0.6134   0.9115
     1.3095   1.5204   1.7020   2.0558   2.1197   2.4104   2.4538   2.9220
     3.2343   3.5374   3.6923   4.3056   4.5108   4.7299   4.8481   4.9699
     9.9384  10.4835  11.1012  11.6154  12.2648  12.7583

          k = 0.2778-0.4170 0.0000 (  4462 PWs)   bands (ev):

   -42.4484 -42.4141 -42.3976 -42.3019 -42.2130 -42.2025 -42.1730 -42.1152
   -42.0580 -41.9500 -41.9482 -41.7783 -41.7770 -41.6109 -41.6103  -0.5914
    -0.4514  -0.2638  -0.0296   0.1502   0.2703   0.4743   0.8366   0.9190
     1.0039   1.5628   1.6618   2.0815   2.2500   2.3193   2.5109   2.8363
     3.1918   3.5084   3.7932   3.8691   4.4221   4.9705   5.0882   5.2991
     7.5084   7.8480   8.6032   9.9441  11.6483  13.2657

          k = 0.2778-0.2887 0.0000 (  4463 PWs)   bands (ev):

   -42.4271 -42.3976 -42.3614 -42.3068 -42.1805 -42.1208 -42.1094 -42.0518
   -42.0167 -41.9210 -41.9184 -41.6890 -41.6888 -41.6169 -41.6159  -0.8100
    -0.7268  -0.5161  -0.3725  -0.1174   0.0431   0.3572   0.7846   1.1168
     1.4794   1.5391   1.8307   2.0669   2.2171   2.5732   2.7927   2.9089
     3.2613   3.4950   3.8261   4.0546   4.3979   4.6124   4.7760   5.0124
     5.3520   5.5142   6.1334   7.8222   9.8013  11.5276

          k = 0.2778-0.1604 0.0000 (  4458 PWs)   bands (ev):

   -42.4137 -42.3504 -42.2904 -42.2776 -42.1497 -42.0714 -42.0454 -42.0445
   -41.9687 -41.8551 -41.8511 -41.6405 -41.6403 -41.6231 -41.6207  -1.1980
    -0.8341  -0.6309  -0.2652  -0.1739   0.2001   0.3452   0.8989   1.2443
     1.5015   1.7604   2.0021   2.0446   2.4460   2.5176   2.6455   2.8203
     3.0419   3.3624   3.4206   3.6891   3.7393   3.8697   4.0739   4.2452
     4.6830   4.9298   5.0748   6.7357   8.6845  10.2344

          k = 0.3889 0.6736 0.0000 (  4511 PWs)   bands (ev):

   -42.4696 -42.4227 -42.4172 -42.2912 -42.2577 -42.2306 -42.1886 -42.1293
   -42.0752 -41.9657 -41.9648 -41.8135 -41.8122 -41.6088 -41.6086  -0.7370
    -0.3736  -0.2036  -0.1932   0.1244   0.2327   0.3528   0.6789   0.8835
     1.1635   1.6370   1.8926   1.9685   2.2505   2.6438   2.8115   2.9429
     3.2974   3.7699   3.9809   4.4706   4.4914   4.7310   4.9166   5.0581
     9.4831   9.9232  10.3302  10.8425  11.3032  12.7685

          k = 0.3889-0.3528 0.0000 (  4485 PWs)   bands (ev):

   -42.5117 -42.4632 -42.4569 -42.2700 -42.2124 -42.1570 -42.1533 -42.0736
   -42.0520 -41.9915 -41.9861 -41.7216 -41.7213 -41.6125 -41.6119  -1.1295
    -0.9345  -0.8053  -0.6440  -0.3527  -0.1330  -0.0162   0.6541   1.0592
     1.5015   1.7135   1.9214   2.3187   2.6039   2.8920   3.5019   3.6826
     3.9289   4.2047   4.5027   4.5557   4.6738   4.9703   5.0385   5.3155
     7.0374   7.6719   8.1707   9.2137  10.4421  12.5464

          k = 0.3889-0.2245 0.0000 (  4444 PWs)   bands (ev):

   -42.4877 -42.4499 -42.4278 -42.2869 -42.2049 -42.1127 -42.0838 -42.0824
   -42.0006 -41.9761 -41.9665 -41.6757 -41.6756 -41.6159 -41.6147  -1.2059
    -1.1079  -0.8651  -0.8168  -0.4272  -0.2484  -0.1302   0.7644   1.2925
     1.5487   1.7668   2.1969   2.3813   2.4058   3.2980   3.3503   3.9395
     4.2157   4.2984   4.5682   4.7131   4.7650   4.7972   4.9596   5.0631
     5.2086   5.5190   6.0936   7.9765  10.0512  12.0813

          k =-0.5000-0.8660 0.0000 (  4492 PWs)   bands (ev):

   -42.5445 -42.4935 -42.4883 -42.2627 -42.2321 -42.1298 -42.1018 -42.0970
   -42.0205 -42.0134 -42.0009 -41.6900 -41.6897 -41.6138 -41.6131  -1.4146
    -1.2107  -1.0483  -0.9766  -0.5911  -0.3807  -0.3311   0.6426   1.2191
     1.3915   1.6634   2.3094   2.4720   2.7790   3.3520   3.7692   4.2556
     4.3730   4.8880   5.0233   5.0467   5.1010   5.2660   5.4998   5.5209
     6.0949   7.5269   8.1781   8.5212   8.7237  12.2339

     the Fermi energy is     4.4839 ev

!    total energy              =    -855.84658569 Ry
     estimated scf accuracy    <       0.00000006 Ry
     smearing contrib. (-TS)   =      -0.02220786 Ry
     internal energy E=F+TS    =    -855.82437783 Ry

     The total energy is F=E-TS. E is the sum of the following terms:
     one-electron contribution =  -11832.60895564 Ry
     hartree contribution      =    5938.46775533 Ry
     xc contribution           =    -149.50690693 Ry
     ewald contribution        =    5187.82372941 Ry

     total magnetization       =     0.00 Bohr mag/cell
     absolute magnetization    =     0.00 Bohr mag/cell

     convergence has been achieved in  11 iterations

     negative rho (up, down):  1.443E-01 1.443E-01

     Forces acting on atoms (cartesian axes, Ry/au):

     atom    1 type  1   force =     0.00000000    0.00000000    0.00037768
     atom    2 type  1   force =     0.00000000    0.00000000    0.00387876
     atom    3 type  1   force =     0.00000000    0.00000000    0.00000007
     atom    4 type  1   force =     0.00000000    0.00000000   -0.00388500
     atom    5 type  1   force =     0.00000000    0.00000000   -0.00037151

     Total force =     0.005515     Total SCF correction =     0.001006
     SCF correction compared to forces is large: reduce conv_thr to get better values
     Energy error            =      4.7E-05
     Gradient error          =      3.9E-03

     number of scf cycles    =   6
     number of bfgs steps    =   5

     energy   old            =    -855.8465391440 Ry
     energy   new            =    -855.8465856850 Ry

     CASE: energy  _new < energy  _old

     new trust radius        =       0.0136409564 bohr
     new conv_thr            =       0.0000001000 Ry


ATOMIC_POSITIONS (angstrom)
Rh            0.0000000000        0.0000000000        0.0396890878
Rh            1.3554284000       -0.7825569000        2.2093247137
Rh            1.3554284000        0.7825569000        4.4268327039
Rh            0.0000000000        0.0000000000        6.6443177617
Rh            1.3554284000       -0.7825569000        8.8138887329



     Writing output data file /home/STUDENTI/leonardo.razzai/Rh_work/surf_111/5-L.save/
     NEW-OLD atomic charge density approx. for the potential

     negative rho (up, down):  1.436E-01 1.436E-01
     Generating pointlists ...

     total cpu time spent up to now is      408.1 secs

     Self-consistent Calculation

     iteration #  1     ecut=    35.00 Ry     beta= 0.40
     Davidson diagonalization with overlap
     ethr =  1.00E-06,  avg # of iterations =  6.4

     negative rho (up, down):  1.437E-01 1.437E-01

     total cpu time spent up to now is      419.2 secs

     total energy              =    -855.84492147 Ry
     estimated scf accuracy    <       0.05773992 Ry

     total magnetization       =     0.00 Bohr mag/cell
     absolute magnetization    =     0.00 Bohr mag/cell

     iteration #  2     ecut=    35.00 Ry     beta= 0.40
     Davidson diagonalization with overlap
     ethr =  7.70E-05,  avg # of iterations =  1.0

     negative rho (up, down):  1.436E-01 1.436E-01

     total cpu time spent up to now is      424.5 secs

     total energy              =    -855.84616487 Ry
     estimated scf accuracy    <       0.02041831 Ry

     total magnetization       =     0.00 Bohr mag/cell
     absolute magnetization    =     0.00 Bohr mag/cell

     iteration #  3     ecut=    35.00 Ry     beta= 0.40
     Davidson diagonalization with overlap
     ethr =  2.72E-05,  avg # of iterations =  1.0

     negative rho (up, down):  1.437E-01 1.437E-01

     total cpu time spent up to now is      429.9 secs

     total energy              =    -855.84663653 Ry
     estimated scf accuracy    <       0.00169044 Ry

     total magnetization       =     0.00 Bohr mag/cell
     absolute magnetization    =     0.00 Bohr mag/cell

     iteration #  4     ecut=    35.00 Ry     beta= 0.40
     Davidson diagonalization with overlap
     ethr =  2.25E-06,  avg # of iterations =  1.2

     negative rho (up, down):  1.437E-01 1.437E-01

     total cpu time spent up to now is      435.4 secs

     total energy              =    -855.84664428 Ry
     estimated scf accuracy    <       0.00042565 Ry

     total magnetization       =     0.00 Bohr mag/cell
     absolute magnetization    =     0.00 Bohr mag/cell

     iteration #  5     ecut=    35.00 Ry     beta= 0.40
     Davidson diagonalization with overlap
     ethr =  5.68E-07,  avg # of iterations =  1.0

     negative rho (up, down):  1.437E-01 1.437E-01

     total cpu time spent up to now is      440.8 secs

     total energy              =    -855.84664956 Ry
     estimated scf accuracy    <       0.00003640 Ry

     total magnetization       =     0.00 Bohr mag/cell
     absolute magnetization    =     0.00 Bohr mag/cell

     iteration #  6     ecut=    35.00 Ry     beta= 0.40
     Davidson diagonalization with overlap
     ethr =  4.85E-08,  avg # of iterations =  1.0

     negative rho (up, down):  1.437E-01 1.437E-01

     total cpu time spent up to now is      446.2 secs

     total energy              =    -855.84664837 Ry
     estimated scf accuracy    <       0.00000961 Ry

     total magnetization       =     0.00 Bohr mag/cell
     absolute magnetization    =     0.00 Bohr mag/cell

     iteration #  7     ecut=    35.00 Ry     beta= 0.40
     Davidson diagonalization with overlap
     ethr =  1.28E-08,  avg # of iterations =  1.1

     negative rho (up, down):  1.437E-01 1.437E-01

     total cpu time spent up to now is      451.5 secs

     total energy              =    -855.84664649 Ry
     estimated scf accuracy    <       0.00000857 Ry

     total magnetization       =     0.00 Bohr mag/cell
     absolute magnetization    =     0.00 Bohr mag/cell

     iteration #  8     ecut=    35.00 Ry     beta= 0.40
     Davidson diagonalization with overlap
     ethr =  1.14E-08,  avg # of iterations =  2.0

     negative rho (up, down):  1.437E-01 1.437E-01

     total cpu time spent up to now is      457.1 secs

     total energy              =    -855.84664777 Ry
     estimated scf accuracy    <       0.00001477 Ry

     total magnetization       =     0.00 Bohr mag/cell
     absolute magnetization    =     0.00 Bohr mag/cell

     iteration #  9     ecut=    35.00 Ry     beta= 0.40
     Davidson diagonalization with overlap
     ethr =  1.14E-08,  avg # of iterations =  1.0

     negative rho (up, down):  1.437E-01 1.437E-01

     total cpu time spent up to now is      462.4 secs

     total energy              =    -855.84665039 Ry
     estimated scf accuracy    <       0.00000175 Ry

     total magnetization       =     0.00 Bohr mag/cell
     absolute magnetization    =     0.00 Bohr mag/cell

     iteration # 10     ecut=    35.00 Ry     beta= 0.40
     Davidson diagonalization with overlap
     ethr =  2.33E-09,  avg # of iterations =  1.4

     negative rho (up, down):  1.437E-01 1.437E-01

     total cpu time spent up to now is      467.9 secs

     total energy              =    -855.84665067 Ry
     estimated scf accuracy    <       0.00000116 Ry

     total magnetization       =     0.00 Bohr mag/cell
     absolute magnetization    =     0.00 Bohr mag/cell

     iteration # 11     ecut=    35.00 Ry     beta= 0.40
     Davidson diagonalization with overlap
     ethr =  1.55E-09,  avg # of iterations =  1.0

     negative rho (up, down):  1.437E-01 1.437E-01

     total cpu time spent up to now is      473.1 secs

     total energy              =    -855.84665098 Ry
     estimated scf accuracy    <       0.00000013 Ry

     total magnetization       =     0.00 Bohr mag/cell
     absolute magnetization    =     0.00 Bohr mag/cell

     iteration # 12     ecut=    35.00 Ry     beta= 0.40
     Davidson diagonalization with overlap
     ethr =  1.79E-10,  avg # of iterations =  1.7

     negative rho (up, down):  1.437E-01 1.437E-01
 
     Magnetic moment per site:
     atom:    1    charge:   13.1075    magn:   -0.0000    constr:    0.0000
     atom:    2    charge:   13.1612    magn:    0.0000    constr:    0.0000
     atom:    3    charge:   13.1575    magn:    0.0000    constr:    0.0000
     atom:    4    charge:   13.1609    magn:    0.0000    constr:    0.0000
     atom:    5    charge:   13.1067    magn:    0.0000    constr:    0.0000

     total cpu time spent up to now is      478.5 secs

     End of self-consistent calculation

 ------ SPIN UP ------------


          k = 0.0556 0.0962 0.0000 (  4451 PWs)   bands (ev):

   -42.4982 -42.3258 -42.0845 -42.0333 -42.0059 -41.9939 -41.9891 -41.9532
   -41.9209 -41.6415 -41.6364 -41.6120 -41.6107 -41.5802 -41.5802  -2.6954
    -1.8483  -1.1617  -0.8248  -0.7966   1.1277   1.1733   1.3193   1.5788
     1.6523   1.7250   1.7822   1.8356   1.9318   2.0277   2.1214   2.2532
     2.3621   2.5506   3.2643   3.3066   3.5880   3.6549   3.6940   3.9422
     4.2534   4.4595   4.9333   4.9397   6.0980   6.9581

          k = 0.0556 0.2245 0.0000 (  4420 PWs)   bands (ev):

   -42.4527 -42.3222 -42.1942 -42.1566 -42.0783 -42.0422 -42.0254 -42.0152
   -41.9507 -41.7381 -41.7374 -41.6286 -41.6258 -41.6132 -41.6129  -1.8009
    -1.0808  -0.5492  -0.2072  -0.0807   0.4472   0.7595   0.8744   1.0111
     1.5192   1.6905   1.8604   1.9416   2.0362   2.2606   2.4355   2.5422
     2.7167   2.7977   2.9882   3.1174   3.3665   3.4516   3.8036   4.0641
     4.3651   4.7292   4.9344   5.9412   7.6022   8.8745

          k = 0.0556 0.3528 0.0000 (  4467 PWs)   bands (ev):

   -42.4219 -42.3837 -42.3256 -42.3081 -42.1720 -42.0928 -42.0758 -42.0483
   -41.9892 -41.8911 -41.8874 -41.6569 -41.6569 -41.6201 -41.6183  -1.0397
    -0.8180  -0.6217  -0.4137  -0.1789   0.0932   0.2750   0.8696   1.2333
     1.5219   1.7430   1.8276   2.0601   2.3690   2.6027   2.7985   2.9603
     3.2012   3.5339   3.7455   3.8110   4.1154   4.2912   4.4496   4.6162
     4.6849   5.0137   5.3522   7.1664   9.1684  10.8148

          k = 0.0556 0.4811 0.0000 (  4463 PWs)   bands (ev):

   -42.5125 -42.4687 -42.4539 -42.2827 -42.2152 -42.1318 -42.1168 -42.0799
   -42.0212 -41.9893 -41.9809 -41.6898 -41.6897 -41.6141 -41.6131  -1.2414
    -1.0964  -0.9113  -0.8159  -0.4430  -0.2534  -0.1604   0.6987   1.2125
     1.5138   1.7154   2.0888   2.4108   2.5497   3.1604   3.5071   3.9477
     4.2046   4.3116   4.6043   4.7463   4.8128   4.9313   5.0717   5.2466
     5.8420   6.4947   6.9381   8.4332  10.2719  12.4495

          k = 0.0556-0.5453 0.0000 (  4486 PWs)   bands (ev):

   -42.5405 -42.4894 -42.4847 -42.2685 -42.2298 -42.1408 -42.1258 -42.0875
   -42.0310 -42.0085 -41.9978 -41.6975 -41.6972 -41.6128 -41.6123  -1.3514
    -1.1515  -1.0032  -0.8962  -0.5289  -0.3025  -0.2727   0.6463   1.1663
     1.4386   1.6725   2.1300   2.5397   2.6535   3.2374   3.7216   4.0932
     4.3343   4.6571   4.8057   4.9413   5.0115   5.1286   5.2275   5.3878
     6.5193   7.5856   8.0826   8.6114   9.4787  12.3219

          k = 0.0556-0.4170 0.0000 (  4465 PWs)   bands (ev):

   -42.4631 -42.4327 -42.3988 -42.3024 -42.1958 -42.1155 -42.0989 -42.0655
   -42.0070 -41.9499 -41.9445 -41.6761 -41.6758 -41.6165 -41.6152  -1.0549
    -1.0106  -0.7467  -0.6680  -0.3046  -0.1321   0.0313   0.7988   1.2565
     1.6540   1.7503   2.0239   2.0456   2.5022   2.8617   3.2998   3.5220
     3.6352   4.0458   4.1446   4.3142   4.5086   4.6826   4.7768   5.0278
     5.1894   5.4095   6.0100   7.8346   9.9054  11.7554

          k = 0.0556-0.2887 0.0000 (  4439 PWs)   bands (ev):

   -42.4275 -42.3377 -42.2678 -42.2402 -42.1336 -42.0665 -42.0498 -42.0318
   -41.9696 -41.8170 -41.8145 -41.6351 -41.6348 -41.6240 -41.6215  -1.3101
    -0.8047  -0.5124  -0.1109  -0.0570   0.3367   0.4871   0.7705   1.0105
     1.4106   1.7682   1.9273   1.9645   2.1635   2.3327   2.4385   2.7484
     2.8794   3.0690   3.2582   3.4730   3.6992   3.7932   4.0594   4.2155
     4.5080   4.8979   5.0135   6.5338   8.3861   9.8518

          k = 0.0556-0.1604 0.0000 (  4443 PWs)   bands (ev):

   -42.4787 -42.3222 -42.1275 -42.0854 -42.0235 -42.0227 -42.0069 -41.9895
   -41.9341 -41.6690 -41.6687 -41.6330 -41.6287 -41.5943 -41.5941  -2.3070
    -1.4920  -0.8498  -0.5049  -0.4730   0.8084   0.9617   1.0962   1.3615
     1.5011   1.7872   1.9166   1.9428   2.0567   2.1022   2.1763   2.2779
     2.5090   2.6603   3.0454   3.1952   3.2622   3.4662   3.7093   3.9282
     4.2975   4.5900   4.9120   5.3945   6.8287   7.8904

          k = 0.0556-0.0321 0.0000 (  4465 PWs)   bands (ev):

   -42.5088 -42.3291 -42.0683 -42.0052 -41.9946 -41.9830 -41.9773 -41.9264
   -41.9139 -41.6441 -41.6366 -41.5841 -41.5838 -41.5730 -41.5727  -2.9024
    -2.0458  -1.3389  -1.0147  -0.9743   1.3038   1.3498   1.4505   1.5778
     1.6500   1.6836   1.6894   1.7797   1.8717   2.0866   2.1176   2.1353
     2.2092   2.8403   3.3911   3.3935   3.6292   3.6509   4.0177   4.0632
     4.2418   4.5517   4.6471   4.9782   5.5237   6.2464

          k = 0.1667 0.2887 0.0000 (  4425 PWs)   bands (ev):

   -42.4120 -42.3483 -42.2963 -42.2772 -42.1604 -42.1007 -42.0706 -42.0432
   -42.0033 -41.8474 -41.8461 -41.6682 -41.6675 -41.6198 -41.6189  -0.8769
    -0.5218  -0.0815   0.0396   0.1096   0.2550   0.4063   0.5747   1.1328
     1.1650   1.4093   1.5672   1.6732   1.7300   2.3312   2.4463   2.6650
     2.8734   3.2934   3.5158   3.7332   4.0836   4.3540   4.3890   4.6872
     4.7358   4.8145   5.4418   7.0941   8.9632  10.5148

          k = 0.1667 0.4170 0.0000 (  4459 PWs)   bands (ev):

   -42.4483 -42.4131 -42.3927 -42.3082 -42.1892 -42.1682 -42.1510 -42.0795
   -42.0476 -41.9394 -41.9389 -41.7300 -41.7293 -41.6132 -41.6128  -0.6857
    -0.6049  -0.3968  -0.1783  -0.0581   0.1052   0.4635   0.7824   0.9968
     1.1758   1.4948   1.8174   2.0523   2.1560   2.4274   2.6667   2.8575
     3.2571   3.4778   3.8059   4.0187   4.3656   4.9432   4.9803   5.2135
     6.3741   6.6090   7.2818   8.7719  10.6454  12.3782

          k = 0.1667 0.5453 0.0000 (  4490 PWs)   bands (ev):

   -42.5031 -42.4523 -42.4502 -42.2756 -42.2082 -42.2057 -42.1960 -42.0966
   -42.0760 -41.9839 -41.9812 -41.7635 -41.7628 -41.6099 -41.6096  -0.9753
    -0.6897  -0.5784  -0.4036  -0.1745   0.0567   0.2449   0.6522   0.8338
     1.3720   1.6993   1.8907   2.1265   2.5308   2.5896   3.2462   3.4039
     3.5001   4.0210   4.2884   4.4537   4.6160   4.8581   4.9832   5.2302
     8.2989   8.8949   9.4481  10.1326  10.6031  12.6029

          k = 0.1667-0.4811 0.0000 (  4476 PWs)   bands (ev):

   -42.4831 -42.4375 -42.4315 -42.2889 -42.1985 -42.1912 -42.1832 -42.0909
   -42.0656 -41.9684 -41.9674 -41.7519 -41.7512 -41.6109 -41.6108  -0.8729
    -0.6564  -0.5159  -0.3244  -0.1151   0.0581   0.3363   0.6820   0.9536
     1.2607   1.7045   1.8920   2.0400   2.3242   2.6624   3.0055   3.1400
     3.3764   3.9029   4.0342   4.1183   4.4776   4.9629   5.0472   5.3115
     7.3657   7.7661   8.4427   9.7054  11.2683  12.9142

          k = 0.1667-0.3528 0.0000 (  4458 PWs)   bands (ev):

   -42.4156 -42.3799 -42.3398 -42.3204 -42.1790 -42.1367 -42.1100 -42.0627
   -42.0268 -41.8984 -41.8974 -41.7007 -41.7001 -41.6166 -41.6160  -0.6050
    -0.4954  -0.2405  -0.1021   0.0114   0.2765   0.4462   0.7478   0.9465
     1.2023   1.4251   1.6012   1.8724   1.9923   2.2400   2.3535   2.7788
     3.1047   3.2385   3.7115   3.9429   4.2287   4.6770   4.7860   4.9853
     5.4801   5.5644   6.2228   7.8567   9.7746  11.4325

          k = 0.1667-0.2245 0.0000 (  4433 PWs)   bands (ev):

   -42.4314 -42.3300 -42.2460 -42.2135 -42.1262 -42.0677 -42.0416 -42.0277
   -41.9762 -41.7919 -41.7906 -41.6378 -41.6376 -41.6242 -41.6222  -1.3513
    -0.7551  -0.2588   0.0159   0.0805   0.3249   0.5076   0.7409   0.9141
     1.3093   1.5107   1.6629   1.8006   1.9258   2.2546   2.5488   2.7158
     2.7323   3.0583   3.2533   3.3988   3.7314   3.7781   4.1649   4.1677
     4.3741   4.8043   4.9886   6.4697   8.2357   9.6529

          k = 0.1667-0.0962 0.0000 (  4427 PWs)   bands (ev):

   -42.4700 -42.3213 -42.1519 -42.1117 -42.0351 -42.0265 -42.0175 -42.0049
   -41.9360 -41.6945 -41.6940 -41.6317 -41.6279 -41.5989 -41.5988  -2.1330
    -1.3478  -0.7517  -0.4096  -0.3180   0.6354   0.9430   1.0100   1.1929
     1.5781   1.8131   1.9621   1.9701   2.0762   2.1727   2.2747   2.3594
     2.4953   2.7812   2.8500   3.1426   3.2286   3.4788   3.6487   4.0517
     4.2256   4.6669   5.0244   5.5268   7.1058   8.2507

          k = 0.2778 0.4811 0.0000 (  4485 PWs)   bands (ev):

   -42.4463 -42.4234 -42.3886 -42.3235 -42.2545 -42.2469 -42.1750 -42.1476
   -42.0745 -41.9487 -41.9468 -41.8222 -41.8210 -41.6087 -41.6083  -0.4616
    -0.4586  -0.1575   0.1066   0.2973   0.3635   0.4498   0.5164   0.9421
     1.1884   1.5134   1.6529   2.1149   2.2038   2.3417   2.4138   2.9472
     3.1572   3.5200   3.6702   4.0463   4.4857   4.8773   4.9970   5.1946
     8.7008   9.1777  10.0043  11.2283  12.6493  13.1379

          k = 0.2778 0.6094 0.0000 (  4491 PWs)   bands (ev):

   -42.4383 -42.4087 -42.3835 -42.3344 -42.2932 -42.2721 -42.1745 -42.1531
   -42.0842 -41.9411 -41.9402 -41.8534 -41.8522 -41.6074 -41.6071  -0.4867
    -0.2577  -0.0540   0.0837   0.1969   0.3280   0.4456   0.6048   0.9036
     1.3070   1.5152   1.6979   2.0558   2.1193   2.4104   2.4539   2.9275
     3.2379   3.5401   3.6953   4.3077   4.5129   4.7342   4.8521   4.9744
     9.9369  10.4849  11.1017  11.6164  12.2696  12.7579

          k = 0.2778-0.4170 0.0000 (  4462 PWs)   bands (ev):

   -42.4532 -42.4199 -42.4008 -42.3082 -42.2161 -42.2055 -42.1755 -42.1193
   -42.0619 -41.9496 -41.9476 -41.7774 -41.7761 -41.6105 -41.6099  -0.6062
    -0.4660  -0.2749  -0.0387   0.1406   0.2641   0.4662   0.8229   0.9124
     1.0012   1.5567   1.6565   2.0814   2.2510   2.3191   2.5104   2.8395
     3.1936   3.5098   3.7951   3.8702   4.4255   4.9748   5.0905   5.3026
     7.5069   7.8487   8.6062   9.9509  11.6587  13.2738

          k = 0.2778-0.2887 0.0000 (  4463 PWs)   bands (ev):

   -42.4332 -42.4041 -42.3642 -42.3119 -42.1836 -42.1241 -42.1125 -42.0555
   -42.0199 -41.9203 -41.9179 -41.6881 -41.6879 -41.6166 -41.6155  -0.8223
    -0.7404  -0.5286  -0.3800  -0.1226   0.0367   0.3546   0.7796   1.1114
     1.4698   1.5280   1.8311   2.0625   2.2149   2.5718   2.7913   2.9069
     3.2580   3.4987   3.8252   4.0540   4.4013   4.6114   4.7775   5.0170
     5.3519   5.5148   6.1377   7.8313   9.8138  11.5365

          k = 0.2778-0.1604 0.0000 (  4458 PWs)   bands (ev):

   -42.4222 -42.3565 -42.2939 -42.2802 -42.1528 -42.0751 -42.0484 -42.0477
   -41.9719 -41.8543 -41.8503 -41.6396 -41.6394 -41.6227 -41.6203  -1.2093
    -0.8438  -0.6404  -0.2762  -0.1791   0.1967   0.3403   0.8902   1.2390
     1.4980   1.7638   1.9835   2.0439   2.4448   2.5084   2.6452   2.8198
     3.0339   3.3576   3.4246   3.6859   3.7418   3.8692   4.0746   4.2471
     4.6850   4.9345   5.0822   6.7446   8.6957  10.2451

          k = 0.3889 0.6736 0.0000 (  4511 PWs)   bands (ev):

   -42.4744 -42.4254 -42.4236 -42.2965 -42.2611 -42.2337 -42.1918 -42.1323
   -42.0800 -41.9652 -41.9643 -41.8127 -41.8113 -41.6084 -41.6082  -0.7526
    -0.3876  -0.2169  -0.2019   0.1153   0.2255   0.3448   0.6672   0.8806
     1.1558   1.6340   1.8850   1.9695   2.2490   2.6473   2.8113   2.9429
     3.2980   3.7718   3.9842   4.4727   4.4933   4.7360   4.9210   5.0625
     9.4822   9.9224  10.3308  10.8446  11.3100  12.7722

          k = 0.3889-0.3528 0.0000 (  4485 PWs)   bands (ev):

   -42.5164 -42.4674 -42.4616 -42.2749 -42.2155 -42.1605 -42.1568 -42.0774
   -42.0548 -41.9915 -41.9862 -41.7207 -41.7204 -41.6122 -41.6115  -1.1441
    -0.9468  -0.8193  -0.6504  -0.3584  -0.1377  -0.0186   0.6497   1.0497
     1.4996   1.7067   1.9182   2.3108   2.6001   2.8887   3.5001   3.6825
     3.9284   4.2052   4.5039   4.5573   4.6781   4.9736   5.0401   5.3189
     7.0359   7.6735   8.1735   9.2187  10.4491  12.5482

          k = 0.3889-0.2245 0.0000 (  4444 PWs)   bands (ev):

   -42.4926 -42.4558 -42.4312 -42.2920 -42.2079 -42.1166 -42.0881 -42.0847
   -42.0037 -41.9756 -41.9665 -41.6749 -41.6747 -41.6155 -41.6142  -1.2190
    -1.1205  -0.8780  -0.8244  -0.4308  -0.2527  -0.1339   0.7613   1.2918
     1.5524   1.7484   2.1924   2.3729   2.3987   3.2960   3.3458   3.9420
     4.2131   4.2983   4.5644   4.7125   4.7639   4.7981   4.9610   5.0640
     5.2145   5.5233   6.0981   7.9847  10.0638  12.0888

          k =-0.5000-0.8660 0.0000 (  4492 PWs)   bands (ev):

   -42.5492 -42.4960 -42.4948 -42.2668 -42.2353 -42.1337 -42.1066 -42.0993
   -42.0204 -42.0165 -42.0015 -41.6891 -41.6888 -41.6135 -41.6127  -1.4286
    -1.2229  -1.0628  -0.9827  -0.5956  -0.3827  -0.3362   0.6393   1.2187
     1.3959   1.6449   2.3014   2.4667   2.7736   3.3483   3.7682   4.2597
     4.3734   4.8917   5.0267   5.0419   5.0984   5.2661   5.5005   5.5226
     6.0932   7.5309   8.1823   8.5261   8.7279  12.2343

 ------ SPIN DOWN ----------


          k = 0.0556 0.0962 0.0000 (  4451 PWs)   bands (ev):

   -42.4982 -42.3258 -42.0845 -42.0333 -42.0059 -41.9939 -41.9891 -41.9532
   -41.9209 -41.6415 -41.6364 -41.6120 -41.6107 -41.5802 -41.5802  -2.6954
    -1.8483  -1.1617  -0.8248  -0.7966   1.1277   1.1733   1.3193   1.5788
     1.6523   1.7250   1.7822   1.8356   1.9318   2.0277   2.1214   2.2532
     2.3621   2.5506   3.2643   3.3066   3.5880   3.6549   3.6940   3.9422
     4.2534   4.4595   4.9333   4.9397   6.0980   6.9581

          k = 0.0556 0.2245 0.0000 (  4420 PWs)   bands (ev):

   -42.4527 -42.3222 -42.1942 -42.1566 -42.0783 -42.0422 -42.0254 -42.0152
   -41.9507 -41.7381 -41.7374 -41.6286 -41.6258 -41.6132 -41.6129  -1.8009
    -1.0808  -0.5492  -0.2072  -0.0807   0.4472   0.7595   0.8744   1.0111
     1.5192   1.6905   1.8604   1.9416   2.0362   2.2606   2.4355   2.5422
     2.7167   2.7977   2.9882   3.1174   3.3665   3.4516   3.8036   4.0641
     4.3651   4.7292   4.9344   5.9412   7.6022   8.8745

          k = 0.0556 0.3528 0.0000 (  4467 PWs)   bands (ev):

   -42.4219 -42.3837 -42.3256 -42.3081 -42.1720 -42.0928 -42.0758 -42.0483
   -41.9892 -41.8911 -41.8874 -41.6569 -41.6569 -41.6201 -41.6183  -1.0397
    -0.8180  -0.6217  -0.4137  -0.1789   0.0932   0.2750   0.8696   1.2333
     1.5219   1.7430   1.8276   2.0601   2.3690   2.6027   2.7985   2.9603
     3.2012   3.5339   3.7455   3.8110   4.1154   4.2912   4.4496   4.6162
     4.6849   5.0137   5.3522   7.1664   9.1684  10.8148

          k = 0.0556 0.4811 0.0000 (  4463 PWs)   bands (ev):

   -42.5125 -42.4687 -42.4539 -42.2827 -42.2152 -42.1318 -42.1168 -42.0799
   -42.0212 -41.9893 -41.9809 -41.6898 -41.6897 -41.6141 -41.6131  -1.2414
    -1.0964  -0.9113  -0.8159  -0.4430  -0.2534  -0.1604   0.6987   1.2125
     1.5138   1.7154   2.0888   2.4108   2.5497   3.1604   3.5071   3.9477
     4.2046   4.3116   4.6043   4.7463   4.8128   4.9313   5.0717   5.2466
     5.8420   6.4947   6.9381   8.4332  10.2719  12.4495

          k = 0.0556-0.5453 0.0000 (  4486 PWs)   bands (ev):

   -42.5405 -42.4894 -42.4847 -42.2685 -42.2298 -42.1408 -42.1258 -42.0875
   -42.0310 -42.0085 -41.9978 -41.6975 -41.6972 -41.6128 -41.6123  -1.3514
    -1.1515  -1.0032  -0.8962  -0.5289  -0.3025  -0.2727   0.6463   1.1663
     1.4386   1.6725   2.1300   2.5397   2.6535   3.2374   3.7216   4.0932
     4.3343   4.6571   4.8057   4.9413   5.0115   5.1286   5.2275   5.3878
     6.5193   7.5856   8.0826   8.6114   9.4787  12.3261

          k = 0.0556-0.4170 0.0000 (  4465 PWs)   bands (ev):

   -42.4631 -42.4327 -42.3988 -42.3024 -42.1958 -42.1155 -42.0989 -42.0655
   -42.0070 -41.9499 -41.9445 -41.6761 -41.6758 -41.6165 -41.6152  -1.0549
    -1.0106  -0.7467  -0.6680  -0.3046  -0.1321   0.0313   0.7988   1.2565
     1.6540   1.7503   2.0239   2.0456   2.5022   2.8617   3.2998   3.5220
     3.6352   4.0458   4.1446   4.3142   4.5086   4.6826   4.7768   5.0278
     5.1894   5.4095   6.0100   7.8346   9.9054  11.7554

          k = 0.0556-0.2887 0.0000 (  4439 PWs)   bands (ev):

   -42.4275 -42.3377 -42.2678 -42.2402 -42.1336 -42.0665 -42.0498 -42.0318
   -41.9696 -41.8170 -41.8145 -41.6351 -41.6348 -41.6240 -41.6215  -1.3101
    -0.8047  -0.5124  -0.1109  -0.0570   0.3367   0.4871   0.7705   1.0105
     1.4106   1.7682   1.9273   1.9645   2.1635   2.3327   2.4385   2.7484
     2.8794   3.0690   3.2582   3.4730   3.6992   3.7932   4.0594   4.2155
     4.5080   4.8979   5.0135   6.5338   8.3861   9.8518

          k = 0.0556-0.1604 0.0000 (  4443 PWs)   bands (ev):

   -42.4787 -42.3222 -42.1275 -42.0854 -42.0235 -42.0227 -42.0069 -41.9895
   -41.9341 -41.6690 -41.6687 -41.6330 -41.6287 -41.5943 -41.5941  -2.3070
    -1.4920  -0.8498  -0.5049  -0.4730   0.8084   0.9617   1.0962   1.3615
     1.5011   1.7872   1.9166   1.9428   2.0567   2.1022   2.1763   2.2779
     2.5090   2.6603   3.0454   3.1952   3.2622   3.4662   3.7093   3.9282
     4.2975   4.5900   4.9120   5.3945   6.8287   7.8904

          k = 0.0556-0.0321 0.0000 (  4465 PWs)   bands (ev):

   -42.5088 -42.3291 -42.0683 -42.0052 -41.9946 -41.9830 -41.9773 -41.9264
   -41.9139 -41.6441 -41.6366 -41.5841 -41.5838 -41.5730 -41.5727  -2.9024
    -2.0458  -1.3389  -1.0147  -0.9743   1.3038   1.3498   1.4505   1.5778
     1.6500   1.6836   1.6894   1.7797   1.8717   2.0866   2.1176   2.1353
     2.2092   2.8403   3.3911   3.3935   3.6292   3.6509   4.0177   4.0632
     4.2418   4.5517   4.6471   4.9782   5.5237   6.2464

          k = 0.1667 0.2887 0.0000 (  4425 PWs)   bands (ev):

   -42.4120 -42.3483 -42.2963 -42.2772 -42.1604 -42.1007 -42.0706 -42.0432
   -42.0033 -41.8474 -41.8461 -41.6682 -41.6675 -41.6198 -41.6189  -0.8769
    -0.5218  -0.0815   0.0396   0.1096   0.2550   0.4063   0.5747   1.1328
     1.1650   1.4093   1.5672   1.6732   1.7300   2.3312   2.4463   2.6650
     2.8734   3.2934   3.5158   3.7332   4.0836   4.3540   4.3890   4.6872
     4.7358   4.8145   5.4418   7.0941   8.9632  10.5148

          k = 0.1667 0.4170 0.0000 (  4459 PWs)   bands (ev):

   -42.4483 -42.4131 -42.3927 -42.3082 -42.1892 -42.1682 -42.1510 -42.0795
   -42.0476 -41.9394 -41.9389 -41.7300 -41.7293 -41.6132 -41.6128  -0.6857
    -0.6049  -0.3968  -0.1783  -0.0581   0.1052   0.4635   0.7824   0.9968
     1.1758   1.4948   1.8174   2.0523   2.1560   2.4274   2.6667   2.8575
     3.2571   3.4778   3.8059   4.0187   4.3656   4.9432   4.9803   5.2135
     6.3741   6.6090   7.2818   8.7719  10.6454  12.3782

          k = 0.1667 0.5453 0.0000 (  4490 PWs)   bands (ev):

   -42.5031 -42.4523 -42.4502 -42.2756 -42.2082 -42.2057 -42.1960 -42.0966
   -42.0760 -41.9839 -41.9812 -41.7635 -41.7628 -41.6099 -41.6096  -0.9753
    -0.6897  -0.5784  -0.4036  -0.1745   0.0567   0.2449   0.6522   0.8338
     1.3720   1.6993   1.8907   2.1265   2.5308   2.5896   3.2462   3.4039
     3.5001   4.0210   4.2884   4.4537   4.6160   4.8581   4.9832   5.2302
     8.2989   8.8949   9.4481  10.1326  10.6031  12.6030

          k = 0.1667-0.4811 0.0000 (  4476 PWs)   bands (ev):

   -42.4831 -42.4375 -42.4315 -42.2889 -42.1985 -42.1912 -42.1832 -42.0909
   -42.0656 -41.9684 -41.9674 -41.7519 -41.7512 -41.6109 -41.6108  -0.8729
    -0.6564  -0.5159  -0.3244  -0.1151   0.0581   0.3363   0.6820   0.9536
     1.2607   1.7045   1.8920   2.0400   2.3242   2.6624   3.0055   3.1400
     3.3764   3.9029   4.0342   4.1183   4.4776   4.9629   5.0472   5.3115
     7.3657   7.7661   8.4427   9.7054  11.2683  12.9142

          k = 0.1667-0.3528 0.0000 (  4458 PWs)   bands (ev):

   -42.4156 -42.3799 -42.3398 -42.3204 -42.1790 -42.1367 -42.1100 -42.0627
   -42.0268 -41.8984 -41.8974 -41.7007 -41.7001 -41.6166 -41.6160  -0.6050
    -0.4954  -0.2405  -0.1021   0.0114   0.2765   0.4462   0.7478   0.9465
     1.2023   1.4251   1.6012   1.8724   1.9923   2.2400   2.3535   2.7788
     3.1047   3.2385   3.7115   3.9429   4.2287   4.6770   4.7860   4.9853
     5.4801   5.5644   6.2228   7.8567   9.7746  11.4325

          k = 0.1667-0.2245 0.0000 (  4433 PWs)   bands (ev):

   -42.4314 -42.3300 -42.2460 -42.2135 -42.1262 -42.0677 -42.0416 -42.0277
   -41.9762 -41.7919 -41.7906 -41.6378 -41.6376 -41.6242 -41.6222  -1.3513
    -0.7551  -0.2588   0.0159   0.0805   0.3249   0.5076   0.7409   0.9141
     1.3093   1.5107   1.6629   1.8006   1.9258   2.2546   2.5488   2.7158
     2.7323   3.0583   3.2533   3.3988   3.7314   3.7781   4.1649   4.1677
     4.3741   4.8043   4.9886   6.4697   8.2357   9.6529

          k = 0.1667-0.0962 0.0000 (  4427 PWs)   bands (ev):

   -42.4700 -42.3213 -42.1519 -42.1117 -42.0351 -42.0265 -42.0175 -42.0049
   -41.9360 -41.6945 -41.6940 -41.6317 -41.6279 -41.5989 -41.5988  -2.1330
    -1.3478  -0.7517  -0.4096  -0.3180   0.6354   0.9430   1.0100   1.1929
     1.5781   1.8131   1.9621   1.9701   2.0762   2.1727   2.2747   2.3594
     2.4953   2.7812   2.8500   3.1426   3.2286   3.4788   3.6487   4.0517
     4.2256   4.6669   5.0244   5.5268   7.1058   8.2507

          k = 0.2778 0.4811 0.0000 (  4485 PWs)   bands (ev):

   -42.4463 -42.4234 -42.3886 -42.3235 -42.2545 -42.2469 -42.1750 -42.1476
   -42.0745 -41.9487 -41.9468 -41.8222 -41.8210 -41.6087 -41.6083  -0.4616
    -0.4586  -0.1575   0.1066   0.2973   0.3635   0.4498   0.5164   0.9421
     1.1884   1.5134   1.6529   2.1149   2.2038   2.3417   2.4138   2.9472
     3.1572   3.5200   3.6702   4.0463   4.4857   4.8773   4.9970   5.1946
     8.7008   9.1777  10.0043  11.2283  12.6493  13.1379

          k = 0.2778 0.6094 0.0000 (  4491 PWs)   bands (ev):

   -42.4383 -42.4087 -42.3835 -42.3344 -42.2932 -42.2721 -42.1745 -42.1531
   -42.0842 -41.9411 -41.9402 -41.8534 -41.8522 -41.6074 -41.6071  -0.4867
    -0.2577  -0.0540   0.0837   0.1969   0.3280   0.4456   0.6048   0.9036
     1.3070   1.5152   1.6979   2.0558   2.1193   2.4104   2.4539   2.9275
     3.2379   3.5401   3.6953   4.3077   4.5129   4.7342   4.8521   4.9744
     9.9369  10.4849  11.1017  11.6164  12.2696  12.7579

          k = 0.2778-0.4170 0.0000 (  4462 PWs)   bands (ev):

   -42.4532 -42.4199 -42.4008 -42.3082 -42.2161 -42.2055 -42.1755 -42.1193
   -42.0619 -41.9496 -41.9476 -41.7774 -41.7761 -41.6105 -41.6099  -0.6062
    -0.4660  -0.2749  -0.0387   0.1406   0.2641   0.4662   0.8229   0.9124
     1.0012   1.5567   1.6565   2.0814   2.2510   2.3191   2.5104   2.8395
     3.1936   3.5098   3.7951   3.8702   4.4255   4.9748   5.0905   5.3026
     7.5069   7.8487   8.6062   9.9509  11.6587  13.2738

          k = 0.2778-0.2887 0.0000 (  4463 PWs)   bands (ev):

   -42.4332 -42.4041 -42.3642 -42.3119 -42.1836 -42.1241 -42.1125 -42.0555
   -42.0199 -41.9203 -41.9179 -41.6881 -41.6879 -41.6166 -41.6155  -0.8223
    -0.7404  -0.5286  -0.3800  -0.1226   0.0367   0.3546   0.7796   1.1114
     1.4698   1.5280   1.8311   2.0625   2.2149   2.5718   2.7913   2.9069
     3.2580   3.4987   3.8252   4.0540   4.4013   4.6114   4.7775   5.0170
     5.3519   5.5148   6.1377   7.8313   9.8138  11.5365

          k = 0.2778-0.1604 0.0000 (  4458 PWs)   bands (ev):

   -42.4222 -42.3565 -42.2939 -42.2802 -42.1528 -42.0751 -42.0484 -42.0477
   -41.9719 -41.8543 -41.8503 -41.6396 -41.6394 -41.6227 -41.6203  -1.2093
    -0.8438  -0.6404  -0.2762  -0.1791   0.1967   0.3403   0.8902   1.2390
     1.4980   1.7638   1.9835   2.0439   2.4448   2.5084   2.6453   2.8198
     3.0339   3.3576   3.4246   3.6859   3.7418   3.8692   4.0746   4.2471
     4.6850   4.9345   5.0822   6.7446   8.6957  10.2451

          k = 0.3889 0.6736 0.0000 (  4511 PWs)   bands (ev):

   -42.4744 -42.4254 -42.4236 -42.2965 -42.2611 -42.2337 -42.1918 -42.1323
   -42.0800 -41.9652 -41.9643 -41.8127 -41.8113 -41.6084 -41.6082  -0.7526
    -0.3876  -0.2169  -0.2019   0.1153   0.2255   0.3448   0.6672   0.8806
     1.1558   1.6340   1.8850   1.9695   2.2490   2.6473   2.8113   2.9429
     3.2980   3.7718   3.9842   4.4727   4.4933   4.7360   4.9210   5.0625
     9.4822   9.9224  10.3308  10.8446  11.3100  12.7721

          k = 0.3889-0.3528 0.0000 (  4485 PWs)   bands (ev):

   -42.5164 -42.4674 -42.4616 -42.2749 -42.2155 -42.1605 -42.1568 -42.0774
   -42.0548 -41.9915 -41.9862 -41.7207 -41.7204 -41.6122 -41.6115  -1.1441
    -0.9468  -0.8193  -0.6504  -0.3584  -0.1377  -0.0186   0.6497   1.0497
     1.4996   1.7067   1.9182   2.3108   2.6001   2.8887   3.5001   3.6825
     3.9284   4.2052   4.5039   4.5573   4.6781   4.9736   5.0401   5.3189
     7.0359   7.6735   8.1735   9.2187  10.4491  12.5482

          k = 0.3889-0.2245 0.0000 (  4444 PWs)   bands (ev):

   -42.4926 -42.4558 -42.4312 -42.2920 -42.2079 -42.1166 -42.0881 -42.0847
   -42.0037 -41.9756 -41.9665 -41.6749 -41.6747 -41.6155 -41.6142  -1.2190
    -1.1205  -0.8780  -0.8244  -0.4308  -0.2527  -0.1339   0.7613   1.2918
     1.5524   1.7484   2.1924   2.3729   2.3987   3.2960   3.3458   3.9420
     4.2131   4.2983   4.5644   4.7125   4.7639   4.7981   4.9610   5.0640
     5.2145   5.5233   6.0981   7.9847  10.0638  12.0888

          k =-0.5000-0.8660 0.0000 (  4492 PWs)   bands (ev):

   -42.5492 -42.4960 -42.4947 -42.2668 -42.2353 -42.1337 -42.1066 -42.0993
   -42.0204 -42.0165 -42.0015 -41.6891 -41.6888 -41.6135 -41.6127  -1.4286
    -1.2229  -1.0628  -0.9827  -0.5956  -0.3827  -0.3362   0.6393   1.2187
     1.3959   1.6449   2.3014   2.4667   2.7736   3.3483   3.7682   4.2597
     4.3734   4.8917   5.0267   5.0419   5.0984   5.2661   5.5005   5.5226
     6.0932   7.5309   8.1823   8.5261   8.7279  12.2341

     the Fermi energy is     4.4854 ev

!    total energy              =    -855.84665127 Ry
     estimated scf accuracy    <       0.00000004 Ry
     smearing contrib. (-TS)   =      -0.02216778 Ry
     internal energy E=F+TS    =    -855.82448350 Ry

     The total energy is F=E-TS. E is the sum of the following terms:
     one-electron contribution =  -11855.70755191 Ry
     hartree contribution      =    5950.00797752 Ry
     xc contribution           =    -149.51348327 Ry
     ewald contribution        =    5199.38857417 Ry

     total magnetization       =     0.00 Bohr mag/cell
     absolute magnetization    =     0.00 Bohr mag/cell

     convergence has been achieved in  12 iterations

     negative rho (up, down):  1.437E-01 1.437E-01

     Forces acting on atoms (cartesian axes, Ry/au):

     atom    1 type  1   force =     0.00000000    0.00000000   -0.00041441
     atom    2 type  1   force =     0.00000000    0.00000000    0.00310608
     atom    3 type  1   force =     0.00000000    0.00000000   -0.00000369
     atom    4 type  1   force =     0.00000000    0.00000000   -0.00311674
     atom    5 type  1   force =     0.00000000    0.00000000    0.00042875

     Total force =     0.004440     Total SCF correction =     0.000724
     SCF correction compared to forces is large: reduce conv_thr to get better values
     Energy error            =      6.6E-05
     Gradient error          =      3.1E-03

     number of scf cycles    =   7
     number of bfgs steps    =   6

     energy   old            =    -855.8465856850 Ry
     energy   new            =    -855.8466512741 Ry

     CASE: energy  _new < energy  _old

     new trust radius        =       0.0157781521 bohr
     new conv_thr            =       0.0000001000 Ry


ATOMIC_POSITIONS (angstrom)
Rh            0.0000000000        0.0000000000        0.0480215368
Rh            1.3554284000       -0.7825569000        2.2176197324
Rh            1.3554284000        0.7825569000        4.4268473508
Rh            0.0000000000        0.0000000000        6.6360250856
Rh            1.3554284000       -0.7825569000        8.8055392944



     Writing output data file /home/STUDENTI/leonardo.razzai/Rh_work/surf_111/5-L.save/
     NEW-OLD atomic charge density approx. for the potential

     negative rho (up, down):  1.424E-01 1.424E-01
     Generating pointlists ...

     total cpu time spent up to now is      479.9 secs

     Self-consistent Calculation

     iteration #  1     ecut=    35.00 Ry     beta= 0.40
     Davidson diagonalization with overlap
     ethr =  1.00E-06,  avg # of iterations =  6.4

     negative rho (up, down):  1.424E-01 1.424E-01

     total cpu time spent up to now is      491.6 secs

     total energy              =    -855.84350674 Ry
     estimated scf accuracy    <       0.10604351 Ry

     total magnetization       =     0.00 Bohr mag/cell
     absolute magnetization    =     0.00 Bohr mag/cell

     iteration #  2     ecut=    35.00 Ry     beta= 0.40
     Davidson diagonalization with overlap
     ethr =  1.41E-04,  avg # of iterations =  1.0

     negative rho (up, down):  1.424E-01 1.424E-01

     total cpu time spent up to now is      496.9 secs

     total energy              =    -855.84580047 Ry
     estimated scf accuracy    <       0.03739299 Ry

     total magnetization       =     0.00 Bohr mag/cell
     absolute magnetization    =     0.00 Bohr mag/cell

     iteration #  3     ecut=    35.00 Ry     beta= 0.40
     Davidson diagonalization with overlap
     ethr =  4.99E-05,  avg # of iterations =  1.0

     negative rho (up, down):  1.424E-01 1.424E-01

     total cpu time spent up to now is      502.2 secs

     total energy              =    -855.84665141 Ry
     estimated scf accuracy    <       0.00298330 Ry

     total magnetization       =    -0.00 Bohr mag/cell
     absolute magnetization    =     0.00 Bohr mag/cell

     iteration #  4     ecut=    35.00 Ry     beta= 0.40
     Davidson diagonalization with overlap
     ethr =  3.98E-06,  avg # of iterations =  1.4

     negative rho (up, down):  1.424E-01 1.424E-01

     total cpu time spent up to now is      507.6 secs

     total energy              =    -855.84668330 Ry
     estimated scf accuracy    <       0.00057689 Ry

     total magnetization       =     0.00 Bohr mag/cell
     absolute magnetization    =     0.00 Bohr mag/cell

     iteration #  5     ecut=    35.00 Ry     beta= 0.40
     Davidson diagonalization with overlap
     ethr =  7.69E-07,  avg # of iterations =  1.2

     negative rho (up, down):  1.424E-01 1.424E-01

     total cpu time spent up to now is      513.0 secs

     total energy              =    -855.84668923 Ry
     estimated scf accuracy    <       0.00003747 Ry

     total magnetization       =     0.00 Bohr mag/cell
     absolute magnetization    =     0.00 Bohr mag/cell

     iteration #  6     ecut=    35.00 Ry     beta= 0.40
     Davidson diagonalization with overlap
     ethr =  5.00E-08,  avg # of iterations =  1.0

     negative rho (up, down):  1.424E-01 1.424E-01

     total cpu time spent up to now is      518.5 secs

     total energy              =    -855.84668905 Ry
     estimated scf accuracy    <       0.00001420 Ry

     total magnetization       =     0.00 Bohr mag/cell
     absolute magnetization    =     0.00 Bohr mag/cell

     iteration #  7     ecut=    35.00 Ry     beta= 0.40
     Davidson diagonalization with overlap
     ethr =  1.89E-08,  avg # of iterations =  1.0

     negative rho (up, down):  1.424E-01 1.424E-01

     total cpu time spent up to now is      523.8 secs

     total energy              =    -855.84668551 Ry
     estimated scf accuracy    <       0.00001486 Ry

     total magnetization       =     0.00 Bohr mag/cell
     absolute magnetization    =     0.00 Bohr mag/cell

     iteration #  8     ecut=    35.00 Ry     beta= 0.40
     Davidson diagonalization with overlap
     ethr =  1.89E-08,  avg # of iterations =  1.8

     negative rho (up, down):  1.424E-01 1.424E-01

     total cpu time spent up to now is      529.4 secs

     total energy              =    -855.84668706 Ry
     estimated scf accuracy    <       0.00003782 Ry

     total magnetization       =     0.00 Bohr mag/cell
     absolute magnetization    =     0.00 Bohr mag/cell

     iteration #  9     ecut=    35.00 Ry     beta= 0.40
     Davidson diagonalization with overlap
     ethr =  1.89E-08,  avg # of iterations =  1.0

     negative rho (up, down):  1.424E-01 1.424E-01

     total cpu time spent up to now is      534.6 secs

     total energy              =    -855.84668951 Ry
     estimated scf accuracy    <       0.00000175 Ry

     total magnetization       =     0.00 Bohr mag/cell
     absolute magnetization    =     0.00 Bohr mag/cell

     iteration # 10     ecut=    35.00 Ry     beta= 0.40
     Davidson diagonalization with overlap
     ethr =  2.33E-09,  avg # of iterations =  1.8

     negative rho (up, down):  1.424E-01 1.424E-01

     total cpu time spent up to now is      540.3 secs

     total energy              =    -855.84669143 Ry
     estimated scf accuracy    <       0.00000471 Ry

     total magnetization       =     0.00 Bohr mag/cell
     absolute magnetization    =     0.00 Bohr mag/cell

     iteration # 11     ecut=    35.00 Ry     beta= 0.40
     Davidson diagonalization with overlap
     ethr =  2.33E-09,  avg # of iterations =  1.2

     negative rho (up, down):  1.424E-01 1.424E-01

     total cpu time spent up to now is      545.7 secs

     total energy              =    -855.84669219 Ry
     estimated scf accuracy    <       0.00000073 Ry

     total magnetization       =     0.00 Bohr mag/cell
     absolute magnetization    =     0.00 Bohr mag/cell

     iteration # 12     ecut=    35.00 Ry     beta= 0.40
     Davidson diagonalization with overlap
     ethr =  9.71E-10,  avg # of iterations =  1.2

     negative rho (up, down):  1.424E-01 1.424E-01
 
     Magnetic moment per site:
     atom:    1    charge:   13.1077    magn:    0.0000    constr:    0.0000
     atom:    2    charge:   13.1642    magn:    0.0000    constr:    0.0000
     atom:    3    charge:   13.1624    magn:    0.0000    constr:    0.0000
     atom:    4    charge:   13.1636    magn:    0.0000    constr:    0.0000
     atom:    5    charge:   13.1071    magn:   -0.0000    constr:    0.0000

     total cpu time spent up to now is      550.9 secs

     End of self-consistent calculation

 ------ SPIN UP ------------


          k = 0.0556 0.0962 0.0000 (  4451 PWs)   bands (ev):

   -42.5134 -42.3318 -42.0910 -42.0386 -42.0117 -41.9980 -41.9933 -41.9605
   -41.9286 -41.6398 -41.6348 -41.6100 -41.6088 -41.5782 -41.5781  -2.7117
    -1.8520  -1.1809  -0.8252  -0.7997   1.1248   1.1591   1.3023   1.5786
     1.6501   1.7107   1.7647   1.8312   1.9270   2.0276   2.1239   2.2522
     2.3625   2.5532   3.2569   3.3006   3.5885   3.6519   3.6944   3.9419
     4.2520   4.4598   4.9385   4.9429   6.1016   6.9694

          k = 0.0556 0.2245 0.0000 (  4420 PWs)   bands (ev):

   -42.4676 -42.3298 -42.1994 -42.1604 -42.0861 -42.0484 -42.0310 -42.0190
   -41.9581 -41.7361 -41.7354 -41.6268 -41.6241 -41.6112 -41.6108  -1.8175
    -1.0867  -0.5676  -0.2125  -0.0852   0.4333   0.7516   0.8572   1.0085
     1.5191   1.6893   1.8578   1.9430   2.0140   2.2642   2.4227   2.5378
     2.7147   2.7930   2.9897   3.1170   3.3650   3.4479   3.8050   4.0639
     4.3659   4.7290   4.9411   5.9495   7.6103   8.8878

          k = 0.0556 0.3528 0.0000 (  4467 PWs)   bands (ev):

   -42.4351 -42.3939 -42.3295 -42.3135 -42.1770 -42.0994 -42.0810 -42.0540
   -41.9961 -41.8895 -41.8861 -41.6549 -41.6548 -41.6182 -41.6163  -1.0576
    -0.8367  -0.6327  -0.4297  -0.1819   0.0888   0.2726   0.8622   1.2276
     1.5098   1.7372   1.8175   2.0514   2.3653   2.6008   2.7982   2.9581
     3.1944   3.5344   3.7403   3.8099   4.1142   4.2910   4.4495   4.6159
     4.6851   5.0205   5.3578   7.1764   9.1822  10.8262

          k = 0.0556 0.4811 0.0000 (  4463 PWs)   bands (ev):

   -42.5208 -42.4792 -42.4592 -42.2892 -42.2192 -42.1387 -42.1229 -42.0857
   -42.0274 -41.9892 -41.9811 -41.6878 -41.6876 -41.6120 -41.6109  -1.2620
    -1.1152  -0.9331  -0.8216  -0.4456  -0.2564  -0.1620   0.6952   1.2050
     1.5161   1.6946   2.0827   2.3991   2.5442   3.1574   3.5046   3.9493
     4.2036   4.3070   4.6026   4.7456   4.8173   4.9270   5.0744   5.2504
     5.8396   6.4980   6.9410   8.4390  10.2849  12.4551

          k = 0.0556-0.5453 0.0000 (  4486 PWs)   bands (ev):

   -42.5486 -42.4992 -42.4904 -42.2735 -42.2344 -42.1477 -42.1324 -42.0936
   -42.0363 -42.0096 -41.9985 -41.6954 -41.6951 -41.6107 -41.6101  -1.3726
    -1.1698  -1.0255  -0.9017  -0.5323  -0.3043  -0.2745   0.6428   1.1576
     1.4421   1.6519   2.1238   2.5343   2.6426   3.2344   3.7194   4.0958
     4.3335   4.6524   4.8071   4.9398   5.0138   5.1295   5.2272   5.3902
     6.5160   7.5894   8.0863   8.6130   9.4846  12.3230

          k = 0.0556-0.4170 0.0000 (  4465 PWs)   bands (ev):

   -42.4723 -42.4441 -42.4033 -42.3094 -42.2000 -42.1223 -42.1044 -42.0714
   -42.0137 -41.9488 -41.9441 -41.6740 -41.6738 -41.6145 -41.6131  -1.0726
    -1.0319  -0.7648  -0.6769  -0.3061  -0.1366   0.0295   0.7948   1.2509
     1.6529   1.7322   2.0151   2.0332   2.4982   2.8597   3.2953   3.5220
     3.6341   4.0415   4.1423   4.3157   4.5079   4.6797   4.7784   5.0306
     5.1921   5.4107   6.0146   7.8434   9.9207  11.7650

          k = 0.0556-0.2887 0.0000 (  4439 PWs)   bands (ev):

   -42.4423 -42.3470 -42.2723 -42.2438 -42.1402 -42.0729 -42.0551 -42.0369
   -41.9767 -41.8152 -41.8127 -41.6331 -41.6327 -41.6221 -41.6197  -1.3272
    -0.8149  -0.5282  -0.1205  -0.0665   0.3296   0.4826   0.7598   0.9992
     1.4088   1.7709   1.9254   1.9442   2.1601   2.3321   2.4346   2.7464
     2.8699   3.0689   3.2542   3.4689   3.6984   3.7939   4.0596   4.2168
     4.5080   4.9003   5.0210   6.5435   8.3971   9.8645

          k = 0.0556-0.1604 0.0000 (  4443 PWs)   bands (ev):

   -42.4937 -42.3288 -42.1334 -42.0900 -42.0305 -42.0287 -42.0119 -41.9941
   -41.9417 -41.6670 -41.6666 -41.6313 -41.6271 -41.5923 -41.5921  -2.3234
    -1.4963  -0.8694  -0.5075  -0.4755   0.7990   0.9486   1.0783   1.3606
     1.5018   1.7862   1.8972   1.9395   2.0427   2.1050   2.1758   2.2742
     2.5091   2.6599   3.0436   3.1899   3.2652   3.4605   3.7106   3.9263
     4.2976   4.5892   4.9175   5.4007   6.8342   7.9031

          k = 0.0556-0.0321 0.0000 (  4465 PWs)   bands (ev):

   -42.5241 -42.3350 -42.0750 -42.0110 -42.0006 -41.9865 -41.9807 -41.9343
   -41.9216 -41.6424 -41.6350 -41.5821 -41.5818 -41.5710 -41.5707  -2.9186
    -2.0493  -1.3578  -1.0151  -0.9770   1.3048   1.3406   1.4346   1.5638
     1.6485   1.6620   1.6814   1.7746   1.8704   2.0870   2.1188   2.1354
     2.2099   2.8452   3.3838   3.3845   3.6265   3.6485   4.0161   4.0634
     4.2425   4.5556   4.6460   4.9837   5.5260   6.2562

          k = 0.1667 0.2887 0.0000 (  4425 PWs)   bands (ev):

   -42.4264 -42.3584 -42.3010 -42.2809 -42.1665 -42.1061 -42.0738 -42.0510
   -42.0105 -41.8457 -41.8445 -41.6661 -41.6655 -41.6179 -41.6171  -0.8953
    -0.5354  -0.0891   0.0203   0.0863   0.2484   0.4023   0.5667   1.1305
     1.1638   1.4060   1.5655   1.6738   1.7126   2.3341   2.4439   2.6686
     2.8696   3.2878   3.5081   3.7306   4.0847   4.3529   4.3874   4.6873
     4.7356   4.8206   5.4465   7.1041   8.9760  10.5265

          k = 0.1667 0.4170 0.0000 (  4459 PWs)   bands (ev):

   -42.4573 -42.4250 -42.3964 -42.3164 -42.1935 -42.1730 -42.1558 -42.0878
   -42.0540 -41.9383 -41.9381 -41.7280 -41.7274 -41.6112 -41.6107  -0.7074
    -0.6251  -0.4154  -0.1861  -0.0653   0.1000   0.4577   0.7790   0.9899
     1.1574   1.4814   1.8131   2.0504   2.1588   2.4281   2.6658   2.8591
     3.2537   3.4817   3.8022   4.0173   4.3686   4.9436   4.9832   5.2160
     6.3710   6.6094   7.2851   8.7800  10.6597  12.3872

          k = 0.1667 0.5453 0.0000 (  4490 PWs)   bands (ev):

   -42.5113 -42.4621 -42.4558 -42.2828 -42.2150 -42.2091 -42.2009 -42.1031
   -42.0841 -41.9836 -41.9808 -41.7616 -41.7609 -41.6077 -41.6074  -0.9981
    -0.7090  -0.5992  -0.4095  -0.1806   0.0528   0.2412   0.6478   0.8138
     1.3636   1.6957   1.8925   2.1127   2.5290   2.5892   3.2474   3.4026
     3.4985   4.0204   4.2899   4.4539   4.6164   4.8628   4.9865   5.2340
     8.2957   8.8952   9.4500  10.1344  10.6083  12.6050

          k = 0.1667-0.4811 0.0000 (  4476 PWs)   bands (ev):

   -42.4914 -42.4495 -42.4352 -42.2970 -42.2023 -42.1964 -42.1886 -42.0985
   -42.0725 -41.9679 -41.9667 -41.7499 -41.7492 -41.6088 -41.6086  -0.8953
    -0.6763  -0.5358  -0.3311  -0.1211   0.0531   0.3325   0.6775   0.9359
     1.2508   1.6988   1.8838   2.0386   2.3220   2.6626   3.0063   3.1403
     3.3735   3.9039   4.0339   4.1182   4.4806   4.9665   5.0488   5.3145
     7.3622   7.7668   8.4455   9.7112  11.2787  12.9173

          k = 0.1667-0.3528 0.0000 (  4458 PWs)   bands (ev):

   -42.4276 -42.3909 -42.3436 -42.3269 -42.1840 -42.1418 -42.1137 -42.0711
   -42.0333 -41.8970 -41.8961 -41.6987 -41.6981 -41.6146 -41.6141  -0.6255
    -0.5152  -0.2546  -0.1146   0.0018   0.2721   0.4337   0.7413   0.9443
     1.1950   1.4093   1.5968   1.8726   1.9904   2.2431   2.3510   2.7828
     3.1044   3.2358   3.7049   3.9414   4.2306   4.6757   4.7869   4.9894
     5.4781   5.5645   6.2270   7.8663   9.7890  11.4428

          k = 0.1667-0.2245 0.0000 (  4433 PWs)   bands (ev):

   -42.4462 -42.3388 -42.2508 -42.2171 -42.1336 -42.0735 -42.0458 -42.0334
   -41.9837 -41.7901 -41.7888 -41.6358 -41.6356 -41.6224 -41.6205  -1.3684
    -0.7633  -0.2763   0.0060   0.0699   0.3112   0.5016   0.7290   0.9122
     1.3069   1.5093   1.6618   1.8005   1.9066   2.2587   2.5428   2.7105
     2.7356   3.0475   3.2490   3.3957   3.7310   3.7781   4.1653   4.1681
     4.3735   4.8113   4.9915   6.4792   8.2461   9.6657

          k = 0.1667-0.0962 0.0000 (  4427 PWs)   bands (ev):

   -42.4850 -42.3282 -42.1576 -42.1159 -42.0432 -42.0329 -42.0230 -42.0084
   -41.9433 -41.6924 -41.6920 -41.6300 -41.6263 -41.5969 -41.5968  -2.1494
    -1.3525  -0.7707  -0.4130  -0.3208   0.6228   0.9340   0.9913   1.1913
     1.5797   1.8116   1.9459   1.9635   2.0787   2.1576   2.2775   2.3536
     2.4923   2.7811   2.8481   3.1459   3.2234   3.4749   3.6502   4.0512
     4.2257   4.6654   5.0308   5.5338   7.1120   8.2638

          k = 0.2778 0.4811 0.0000 (  4485 PWs)   bands (ev):

   -42.4543 -42.4335 -42.3940 -42.3336 -42.2592 -42.2506 -42.1785 -42.1552
   -42.0831 -41.9476 -41.9457 -41.8204 -41.8192 -41.6065 -41.6061  -0.4842
    -0.4814  -0.1701   0.0920   0.2854   0.3505   0.4455   0.4986   0.9338
     1.1862   1.5078   1.6454   2.1154   2.2033   2.3437   2.4146   2.9544
     3.1607   3.5197   3.6691   4.0458   4.4879   4.8811   4.9991   5.1988
     8.6970   9.1790  10.0072  11.2333  12.6553  13.1390

          k = 0.2778 0.6094 0.0000 (  4491 PWs)   bands (ev):

   -42.4468 -42.4182 -42.3902 -42.3427 -42.2982 -42.2768 -42.1787 -42.1585
   -42.0939 -41.9397 -41.9388 -41.8518 -41.8506 -41.6052 -41.6049  -0.5102
    -0.2803  -0.0673   0.0636   0.1805   0.3213   0.4373   0.5943   0.8951
     1.3045   1.5094   1.6906   2.0566   2.1191   2.4119   2.4552   2.9351
     3.2415   3.5404   3.6953   4.3078   4.5136   4.7381   4.8555   4.9786
     9.9334  10.4861  11.1014  11.6161  12.2752  12.7558

          k = 0.2778-0.4170 0.0000 (  4462 PWs)   bands (ev):

   -42.4616 -42.4310 -42.4052 -42.3177 -42.2203 -42.2097 -42.1791 -42.1278
   -42.0693 -41.9487 -41.9465 -41.7755 -41.7742 -41.6084 -41.6077  -0.6283
    -0.4881  -0.2898  -0.0489   0.1291   0.2588   0.4572   0.8032   0.9057
     0.9988   1.5462   1.6513   2.0813   2.2520   2.3210   2.5104   2.8444
     3.1947   3.5106   3.7941   3.8683   4.4282   4.9788   5.0921   5.3057
     7.5031   7.8494   8.6092   9.9578  11.6710  13.2818

          k = 0.2778-0.2887 0.0000 (  4463 PWs)   bands (ev):

   -42.4438 -42.4153 -42.3682 -42.3187 -42.1881 -42.1298 -42.1176 -42.0622
   -42.0266 -41.9190 -41.9169 -41.6861 -41.6859 -41.6146 -41.6135  -0.8410
    -0.7611  -0.5470  -0.3885  -0.1263   0.0312   0.3523   0.7736   1.1050
     1.4545   1.5118   1.8312   2.0568   2.2134   2.5718   2.7900   2.9060
     3.2527   3.5021   3.8210   4.0519   4.4043   4.6082   4.7783   5.0217
     5.3506   5.5150   6.1421   7.8407   9.8285  11.5466

          k = 0.2778-0.1604 0.0000 (  4458 PWs)   bands (ev):

   -42.4366 -42.3664 -42.2981 -42.2841 -42.1585 -42.0819 -42.0554 -42.0512
   -41.9788 -41.8525 -41.8487 -41.6376 -41.6373 -41.6209 -41.6184  -1.2267
    -0.8582  -0.6527  -0.2924  -0.1829   0.1937   0.3359   0.8804   1.2294
     1.4936   1.7674   1.9562   2.0417   2.4435   2.5008   2.6463   2.8187
     3.0238   3.3518   3.4280   3.6808   3.7418   3.8700   4.0750   4.2485
     4.6839   4.9390   5.0900   6.7545   8.7079  10.2573

          k = 0.3889 0.6736 0.0000 (  4511 PWs)   bands (ev):

   -42.4828 -42.4352 -42.4293 -42.3050 -42.2665 -42.2378 -42.1962 -42.1382
   -42.0892 -41.9643 -41.9634 -41.8109 -41.8095 -41.6061 -41.6060  -0.7759
    -0.4087  -0.2370  -0.2100   0.1047   0.2192   0.3371   0.6507   0.8782
     1.1473   1.6309   1.8728   1.9711   2.2466   2.6533   2.8127   2.9438
     3.2968   3.7719   3.9860   4.4724   4.4934   4.7410   4.9253   5.0663
     9.4795   9.9203  10.3314  10.8452  11.3177  12.7761

          k = 0.3889-0.3528 0.0000 (  4485 PWs)   bands (ev):

   -42.5246 -42.4778 -42.4668 -42.2813 -42.2199 -42.1666 -42.1627 -42.0846
   -42.0609 -41.9915 -41.9863 -41.7187 -41.7184 -41.6100 -41.6093  -1.1660
    -0.9652  -0.8411  -0.6559  -0.3632  -0.1402  -0.0201   0.6452   1.0338
     1.4964   1.6982   1.9150   2.2973   2.5977   2.8855   3.4978   3.6828
     3.9269   4.2034   4.5032   4.5584   4.6815   4.9762   5.0413   5.3218
     7.0326   7.6753   8.1760   9.2227  10.4569  12.5502

          k = 0.3889-0.2245 0.0000 (  4444 PWs)   bands (ev):

   -42.5011 -42.4667 -42.4362 -42.2987 -42.2119 -42.1236 -42.0960 -42.0882
   -42.0104 -41.9749 -41.9665 -41.6729 -41.6726 -41.6135 -41.6121  -1.2385
    -1.1400  -0.8976  -0.8321  -0.4321  -0.2560  -0.1362   0.7580   1.2895
     1.5556   1.7212   2.1861   2.3670   2.3867   3.2945   3.3416   3.9443
     4.2079   4.2982   4.5580   4.7093   4.7610   4.7968   4.9625   5.0653
     5.2211   5.5283   6.1024   7.9924  10.0790  12.0973

          k =-0.5000-0.8660 0.0000 (  4492 PWs)   bands (ev):

   -42.5572 -42.5066 -42.4995 -42.2712 -42.2400 -42.1409 -42.1158 -42.1028
   -42.0230 -42.0203 -42.0024 -41.6871 -41.6867 -41.6113 -41.6105  -1.4496
    -1.2412  -1.0852  -0.9881  -0.5985  -0.3835  -0.3390   0.6361   1.2160
     1.4002   1.6177   2.2962   2.4596   2.7633   3.3452   3.7669   4.2651
     4.3708   4.8948   5.0296   5.0327   5.0946   5.2651   5.5020   5.5249
     6.0898   7.5358   8.1851   8.5314   8.7303  12.2354

 ------ SPIN DOWN ----------


          k = 0.0556 0.0962 0.0000 (  4451 PWs)   bands (ev):

   -42.5134 -42.3318 -42.0910 -42.0386 -42.0117 -41.9980 -41.9933 -41.9605
   -41.9286 -41.6398 -41.6348 -41.6100 -41.6088 -41.5782 -41.5781  -2.7117
    -1.8520  -1.1809  -0.8252  -0.7997   1.1248   1.1591   1.3023   1.5786
     1.6501   1.7107   1.7647   1.8312   1.9270   2.0276   2.1239   2.2522
     2.3625   2.5532   3.2569   3.3006   3.5885   3.6519   3.6944   3.9419
     4.2520   4.4598   4.9385   4.9429   6.1016   6.9694

          k = 0.0556 0.2245 0.0000 (  4420 PWs)   bands (ev):

   -42.4676 -42.3298 -42.1994 -42.1604 -42.0861 -42.0484 -42.0310 -42.0190
   -41.9581 -41.7361 -41.7354 -41.6268 -41.6241 -41.6112 -41.6108  -1.8175
    -1.0867  -0.5676  -0.2125  -0.0852   0.4333   0.7516   0.8572   1.0085
     1.5191   1.6893   1.8578   1.9430   2.0140   2.2642   2.4227   2.5378
     2.7147   2.7930   2.9897   3.1170   3.3650   3.4479   3.8050   4.0639
     4.3659   4.7290   4.9411   5.9495   7.6103   8.8878

          k = 0.0556 0.3528 0.0000 (  4467 PWs)   bands (ev):

   -42.4351 -42.3939 -42.3295 -42.3135 -42.1770 -42.0994 -42.0810 -42.0540
   -41.9961 -41.8895 -41.8861 -41.6549 -41.6548 -41.6182 -41.6163  -1.0576
    -0.8367  -0.6327  -0.4297  -0.1819   0.0888   0.2726   0.8622   1.2276
     1.5098   1.7372   1.8175   2.0514   2.3653   2.6008   2.7982   2.9581
     3.1944   3.5344   3.7403   3.8099   4.1142   4.2910   4.4495   4.6159
     4.6851   5.0205   5.3578   7.1764   9.1822  10.8262

          k = 0.0556 0.4811 0.0000 (  4463 PWs)   bands (ev):

   -42.5208 -42.4792 -42.4592 -42.2892 -42.2192 -42.1387 -42.1229 -42.0857
   -42.0274 -41.9892 -41.9811 -41.6878 -41.6876 -41.6120 -41.6109  -1.2620
    -1.1152  -0.9331  -0.8216  -0.4456  -0.2564  -0.1620   0.6952   1.2050
     1.5161   1.6946   2.0827   2.3991   2.5442   3.1574   3.5046   3.9493
     4.2036   4.3070   4.6026   4.7456   4.8173   4.9270   5.0744   5.2504
     5.8396   6.4980   6.9410   8.4390  10.2849  12.4551

          k = 0.0556-0.5453 0.0000 (  4486 PWs)   bands (ev):

   -42.5486 -42.4992 -42.4904 -42.2735 -42.2344 -42.1477 -42.1324 -42.0936
   -42.0363 -42.0096 -41.9985 -41.6954 -41.6951 -41.6107 -41.6101  -1.3726
    -1.1698  -1.0255  -0.9017  -0.5323  -0.3043  -0.2745   0.6428   1.1576
     1.4421   1.6519   2.1238   2.5343   2.6426   3.2344   3.7194   4.0958
     4.3335   4.6524   4.8071   4.9398   5.0138   5.1295   5.2272   5.3902
     6.5160   7.5894   8.0863   8.6130   9.4846  12.3271

          k = 0.0556-0.4170 0.0000 (  4465 PWs)   bands (ev):

   -42.4723 -42.4441 -42.4033 -42.3094 -42.2000 -42.1223 -42.1044 -42.0714
   -42.0137 -41.9488 -41.9441 -41.6740 -41.6738 -41.6145 -41.6131  -1.0726
    -1.0319  -0.7648  -0.6769  -0.3061  -0.1366   0.0295   0.7948   1.2509
     1.6529   1.7322   2.0151   2.0332   2.4982   2.8597   3.2953   3.5220
     3.6341   4.0415   4.1423   4.3157   4.5079   4.6797   4.7784   5.0306
     5.1921   5.4107   6.0146   7.8434   9.9207  11.7650

          k = 0.0556-0.2887 0.0000 (  4439 PWs)   bands (ev):

   -42.4423 -42.3470 -42.2723 -42.2438 -42.1402 -42.0729 -42.0551 -42.0369
   -41.9767 -41.8152 -41.8127 -41.6331 -41.6327 -41.6221 -41.6197  -1.3272
    -0.8149  -0.5282  -0.1205  -0.0665   0.3296   0.4826   0.7598   0.9992
     1.4088   1.7709   1.9254   1.9442   2.1601   2.3321   2.4346   2.7464
     2.8699   3.0689   3.2542   3.4689   3.6984   3.7939   4.0596   4.2168
     4.5080   4.9003   5.0210   6.5435   8.3971   9.8645

          k = 0.0556-0.1604 0.0000 (  4443 PWs)   bands (ev):

   -42.4937 -42.3288 -42.1334 -42.0900 -42.0305 -42.0287 -42.0119 -41.9941
   -41.9417 -41.6670 -41.6666 -41.6313 -41.6271 -41.5923 -41.5921  -2.3234
    -1.4963  -0.8694  -0.5075  -0.4755   0.7990   0.9486   1.0783   1.3606
     1.5018   1.7862   1.8972   1.9395   2.0427   2.1050   2.1758   2.2742
     2.5091   2.6599   3.0436   3.1899   3.2652   3.4605   3.7106   3.9263
     4.2976   4.5892   4.9175   5.4007   6.8342   7.9031

          k = 0.0556-0.0321 0.0000 (  4465 PWs)   bands (ev):

   -42.5241 -42.3350 -42.0750 -42.0110 -42.0006 -41.9865 -41.9807 -41.9343
   -41.9216 -41.6424 -41.6350 -41.5821 -41.5818 -41.5710 -41.5707  -2.9186
    -2.0493  -1.3578  -1.0151  -0.9770   1.3048   1.3406   1.4346   1.5638
     1.6485   1.6620   1.6814   1.7746   1.8704   2.0870   2.1188   2.1354
     2.2099   2.8452   3.3838   3.3845   3.6265   3.6485   4.0161   4.0634
     4.2425   4.5556   4.6460   4.9837   5.5260   6.2562

          k = 0.1667 0.2887 0.0000 (  4425 PWs)   bands (ev):

   -42.4264 -42.3584 -42.3010 -42.2809 -42.1665 -42.1061 -42.0738 -42.0510
   -42.0105 -41.8457 -41.8445 -41.6661 -41.6655 -41.6179 -41.6171  -0.8953
    -0.5354  -0.0891   0.0203   0.0863   0.2484   0.4023   0.5667   1.1305
     1.1638   1.4060   1.5655   1.6738   1.7126   2.3341   2.4439   2.6686
     2.8696   3.2878   3.5081   3.7306   4.0847   4.3529   4.3874   4.6873
     4.7356   4.8206   5.4465   7.1041   8.9760  10.5265

          k = 0.1667 0.4170 0.0000 (  4459 PWs)   bands (ev):

   -42.4573 -42.4250 -42.3964 -42.3164 -42.1935 -42.1730 -42.1558 -42.0878
   -42.0540 -41.9383 -41.9381 -41.7280 -41.7274 -41.6112 -41.6107  -0.7074
    -0.6251  -0.4154  -0.1861  -0.0653   0.1000   0.4577   0.7790   0.9899
     1.1574   1.4814   1.8131   2.0504   2.1588   2.4281   2.6658   2.8591
     3.2537   3.4817   3.8022   4.0173   4.3686   4.9436   4.9832   5.2160
     6.3710   6.6094   7.2851   8.7800  10.6597  12.3872

          k = 0.1667 0.5453 0.0000 (  4490 PWs)   bands (ev):

   -42.5113 -42.4621 -42.4558 -42.2828 -42.2150 -42.2091 -42.2009 -42.1031
   -42.0841 -41.9836 -41.9808 -41.7616 -41.7609 -41.6077 -41.6074  -0.9981
    -0.7090  -0.5992  -0.4095  -0.1806   0.0528   0.2412   0.6478   0.8138
     1.3636   1.6957   1.8925   2.1127   2.5290   2.5892   3.2474   3.4026
     3.4985   4.0204   4.2899   4.4539   4.6164   4.8628   4.9865   5.2340
     8.2957   8.8952   9.4500  10.1344  10.6083  12.6051

          k = 0.1667-0.4811 0.0000 (  4476 PWs)   bands (ev):

   -42.4914 -42.4495 -42.4352 -42.2970 -42.2023 -42.1964 -42.1886 -42.0985
   -42.0725 -41.9679 -41.9667 -41.7499 -41.7492 -41.6088 -41.6086  -0.8953
    -0.6763  -0.5358  -0.3311  -0.1211   0.0531   0.3325   0.6775   0.9359
     1.2508   1.6988   1.8838   2.0386   2.3220   2.6626   3.0063   3.1403
     3.3735   3.9039   4.0339   4.1182   4.4806   4.9665   5.0488   5.3145
     7.3622   7.7668   8.4455   9.7112  11.2787  12.9173

          k = 0.1667-0.3528 0.0000 (  4458 PWs)   bands (ev):

   -42.4276 -42.3909 -42.3436 -42.3269 -42.1840 -42.1418 -42.1137 -42.0711
   -42.0333 -41.8970 -41.8961 -41.6987 -41.6981 -41.6146 -41.6141  -0.6255
    -0.5152  -0.2546  -0.1146   0.0018   0.2721   0.4337   0.7413   0.9443
     1.1950   1.4093   1.5968   1.8726   1.9904   2.2431   2.3510   2.7828
     3.1044   3.2358   3.7049   3.9414   4.2306   4.6757   4.7869   4.9894
     5.4781   5.5645   6.2270   7.8663   9.7890  11.4428

          k = 0.1667-0.2245 0.0000 (  4433 PWs)   bands (ev):

   -42.4462 -42.3388 -42.2508 -42.2171 -42.1336 -42.0735 -42.0458 -42.0334
   -41.9837 -41.7901 -41.7888 -41.6358 -41.6356 -41.6224 -41.6205  -1.3684
    -0.7633  -0.2763   0.0060   0.0699   0.3112   0.5016   0.7290   0.9122
     1.3069   1.5093   1.6618   1.8005   1.9066   2.2587   2.5428   2.7105
     2.7356   3.0475   3.2490   3.3957   3.7310   3.7781   4.1653   4.1681
     4.3735   4.8113   4.9915   6.4792   8.2461   9.6657

          k = 0.1667-0.0962 0.0000 (  4427 PWs)   bands (ev):

   -42.4850 -42.3282 -42.1576 -42.1159 -42.0432 -42.0329 -42.0230 -42.0084
   -41.9433 -41.6924 -41.6920 -41.6300 -41.6263 -41.5969 -41.5968  -2.1494
    -1.3525  -0.7707  -0.4130  -0.3208   0.6228   0.9340   0.9913   1.1913
     1.5797   1.8116   1.9459   1.9635   2.0787   2.1576   2.2775   2.3536
     2.4923   2.7811   2.8481   3.1459   3.2234   3.4749   3.6502   4.0512
     4.2257   4.6654   5.0308   5.5338   7.1120   8.2638

          k = 0.2778 0.4811 0.0000 (  4485 PWs)   bands (ev):

   -42.4543 -42.4335 -42.3940 -42.3336 -42.2592 -42.2506 -42.1785 -42.1552
   -42.0831 -41.9476 -41.9457 -41.8204 -41.8192 -41.6065 -41.6061  -0.4842
    -0.4814  -0.1701   0.0920   0.2854   0.3505   0.4455   0.4986   0.9338
     1.1862   1.5078   1.6454   2.1154   2.2033   2.3437   2.4146   2.9544
     3.1607   3.5197   3.6691   4.0458   4.4879   4.8811   4.9991   5.1988
     8.6970   9.1790  10.0072  11.2333  12.6553  13.1390

          k = 0.2778 0.6094 0.0000 (  4491 PWs)   bands (ev):

   -42.4468 -42.4182 -42.3902 -42.3427 -42.2982 -42.2768 -42.1787 -42.1585
   -42.0939 -41.9397 -41.9388 -41.8518 -41.8506 -41.6052 -41.6049  -0.5102
    -0.2803  -0.0673   0.0636   0.1805   0.3213   0.4373   0.5943   0.8951
     1.3045   1.5094   1.6906   2.0566   2.1191   2.4119   2.4552   2.9351
     3.2415   3.5404   3.6953   4.3078   4.5136   4.7381   4.8555   4.9786
     9.9334  10.4861  11.1014  11.6161  12.2752  12.7558

          k = 0.2778-0.4170 0.0000 (  4462 PWs)   bands (ev):

   -42.4616 -42.4310 -42.4052 -42.3177 -42.2203 -42.2097 -42.1791 -42.1278
   -42.0693 -41.9487 -41.9465 -41.7755 -41.7742 -41.6084 -41.6077  -0.6283
    -0.4881  -0.2898  -0.0489   0.1291   0.2588   0.4572   0.8032   0.9057
     0.9988   1.5462   1.6513   2.0813   2.2520   2.3210   2.5104   2.8444
     3.1947   3.5106   3.7941   3.8683   4.4282   4.9788   5.0921   5.3057
     7.5031   7.8494   8.6092   9.9578  11.6710  13.2818

          k = 0.2778-0.2887 0.0000 (  4463 PWs)   bands (ev):

   -42.4438 -42.4153 -42.3682 -42.3187 -42.1881 -42.1298 -42.1176 -42.0622
   -42.0266 -41.9190 -41.9169 -41.6861 -41.6859 -41.6146 -41.6135  -0.8410
    -0.7611  -0.5470  -0.3885  -0.1263   0.0312   0.3523   0.7736   1.1050
     1.4545   1.5118   1.8312   2.0568   2.2134   2.5718   2.7900   2.9060
     3.2527   3.5021   3.8210   4.0519   4.4043   4.6082   4.7783   5.0217
     5.3506   5.5150   6.1421   7.8407   9.8285  11.5466

          k = 0.2778-0.1604 0.0000 (  4458 PWs)   bands (ev):

   -42.4366 -42.3664 -42.2981 -42.2841 -42.1585 -42.0819 -42.0554 -42.0512
   -41.9788 -41.8525 -41.8487 -41.6376 -41.6373 -41.6209 -41.6184  -1.2267
    -0.8582  -0.6527  -0.2924  -0.1829   0.1937   0.3359   0.8804   1.2294
     1.4936   1.7674   1.9562   2.0417   2.4435   2.5008   2.6463   2.8187
     3.0238   3.3518   3.4280   3.6808   3.7418   3.8700   4.0750   4.2485
     4.6839   4.9390   5.0900   6.7545   8.7079  10.2573

          k = 0.3889 0.6736 0.0000 (  4511 PWs)   bands (ev):

   -42.4828 -42.4352 -42.4293 -42.3050 -42.2665 -42.2378 -42.1962 -42.1382
   -42.0892 -41.9643 -41.9634 -41.8109 -41.8095 -41.6061 -41.6060  -0.7759
    -0.4087  -0.2370  -0.2100   0.1047   0.2192   0.3371   0.6507   0.8782
     1.1473   1.6309   1.8728   1.9711   2.2466   2.6533   2.8127   2.9438
     3.2968   3.7719   3.9860   4.4724   4.4934   4.7410   4.9253   5.0663
     9.4795   9.9203  10.3314  10.8452  11.3177  12.7761

          k = 0.3889-0.3528 0.0000 (  4485 PWs)   bands (ev):

   -42.5246 -42.4778 -42.4668 -42.2813 -42.2199 -42.1666 -42.1627 -42.0846
   -42.0609 -41.9915 -41.9863 -41.7187 -41.7184 -41.6100 -41.6093  -1.1660
    -0.9652  -0.8411  -0.6559  -0.3632  -0.1402  -0.0201   0.6452   1.0338
     1.4964   1.6982   1.9150   2.2973   2.5977   2.8855   3.4978   3.6828
     3.9269   4.2034   4.5032   4.5584   4.6815   4.9762   5.0413   5.3218
     7.0326   7.6753   8.1760   9.2227  10.4569  12.5502

          k = 0.3889-0.2245 0.0000 (  4444 PWs)   bands (ev):

   -42.5011 -42.4667 -42.4362 -42.2987 -42.2119 -42.1236 -42.0960 -42.0882
   -42.0104 -41.9749 -41.9665 -41.6729 -41.6726 -41.6135 -41.6121  -1.2385
    -1.1400  -0.8976  -0.8321  -0.4321  -0.2560  -0.1362   0.7580   1.2895
     1.5556   1.7212   2.1861   2.3670   2.3867   3.2945   3.3416   3.9443
     4.2079   4.2982   4.5580   4.7093   4.7610   4.7968   4.9625   5.0653
     5.2211   5.5283   6.1024   7.9924  10.0790  12.0973

          k =-0.5000-0.8660 0.0000 (  4492 PWs)   bands (ev):

   -42.5572 -42.5066 -42.4995 -42.2712 -42.2400 -42.1409 -42.1158 -42.1028
   -42.0230 -42.0203 -42.0024 -41.6871 -41.6867 -41.6113 -41.6105  -1.4496
    -1.2412  -1.0852  -0.9881  -0.5985  -0.3835  -0.3390   0.6361   1.2160
     1.4002   1.6177   2.2962   2.4596   2.7633   3.3452   3.7669   4.2651
     4.3708   4.8948   5.0296   5.0327   5.0946   5.2651   5.5020   5.5249
     6.0898   7.5358   8.1851   8.5314   8.7303  12.2352

     the Fermi energy is     4.4856 ev

!    total energy              =    -855.84669274 Ry
     estimated scf accuracy    <       0.00000008 Ry
     smearing contrib. (-TS)   =      -0.02213048 Ry
     internal energy E=F+TS    =    -855.82456226 Ry

     The total energy is F=E-TS. E is the sum of the following terms:
     one-electron contribution =  -11885.20756940 Ry
     hartree contribution      =    5964.75029488 Ry
     xc contribution           =    -149.52128177 Ry
     ewald contribution        =    5214.15399403 Ry

     total magnetization       =     0.00 Bohr mag/cell
     absolute magnetization    =     0.00 Bohr mag/cell

     convergence has been achieved in  12 iterations

     negative rho (up, down):  1.424E-01 1.424E-01

     Forces acting on atoms (cartesian axes, Ry/au):

     atom    1 type  1   force =     0.00000000    0.00000000   -0.00067306
     atom    2 type  1   force =     0.00000000    0.00000000    0.00090767
     atom    3 type  1   force =     0.00000000    0.00000000   -0.00001457
     atom    4 type  1   force =     0.00000000    0.00000000   -0.00092184
     atom    5 type  1   force =     0.00000000    0.00000000    0.00070180

     Total force =     0.001618     Total SCF correction =     0.000862
     SCF correction compared to forces is large: reduce conv_thr to get better values
     Energy error            =      4.1E-05
     Gradient error          =      9.2E-04
Begin final coordinates

ATOMIC_POSITIONS (angstrom)
Rh            0.0000000000        0.0000000000        0.0480215368
Rh            1.3554284000       -0.7825569000        2.2176197324
Rh            1.3554284000        0.7825569000        4.4268473508
Rh            0.0000000000        0.0000000000        6.6360250856
Rh            1.3554284000       -0.7825569000        8.8055392944
End final coordinates



     Writing output data file /home/STUDENTI/leonardo.razzai/Rh_work/surf_111/5-L.save/

     lsda relaxation :  a final configuration with zero
                        absolute magnetization has been found

     the program is checking if it is really the minimum energy structure
     by performing a new scf iteration without any "electronic" history

     Initial potential from superposition of free atoms

     starting charge   72.49951, renormalised to   75.00000

     negative rho (up, down):  1.404E-01 1.376E-01

     total cpu time spent up to now is      552.2 secs

     Self-consistent Calculation

     iteration #  1     ecut=    35.00 Ry     beta= 0.40
     Davidson diagonalization with overlap
     c_bands:  1 eigenvalues not converged
     c_bands:  1 eigenvalues not converged
     c_bands:  1 eigenvalues not converged
     c_bands:  1 eigenvalues not converged
     c_bands:  1 eigenvalues not converged
     c_bands:  1 eigenvalues not converged
     ethr =  1.00E-06,  avg # of iterations = 15.2

     negative rho (up, down):  1.433E-01 1.420E-01

     total cpu time spent up to now is      567.9 secs

     total energy              =    -855.94045003 Ry
     estimated scf accuracy    <       3.72063652 Ry

     total magnetization       =     0.28 Bohr mag/cell
     absolute magnetization    =     0.28 Bohr mag/cell

     iteration #  2     ecut=    35.00 Ry     beta= 0.40
     Davidson diagonalization with overlap
     ethr =  4.96E-03,  avg # of iterations =  1.0

     negative rho (up, down):  1.483E-01 1.485E-01

     total cpu time spent up to now is      573.0 secs

     total energy              =    -855.73199314 Ry
     estimated scf accuracy    <       0.87183430 Ry

     total magnetization       =     0.26 Bohr mag/cell
     absolute magnetization    =     0.27 Bohr mag/cell

     iteration #  3     ecut=    35.00 Ry     beta= 0.40
     Davidson diagonalization with overlap
     ethr =  1.16E-03,  avg # of iterations =  2.0

     negative rho (up, down):  1.495E-01 1.500E-01

     total cpu time spent up to now is      579.3 secs

     total energy              =    -855.84198762 Ry
     estimated scf accuracy    <       0.06599648 Ry

     total magnetization       =     0.21 Bohr mag/cell
     absolute magnetization    =     0.22 Bohr mag/cell

     iteration #  4     ecut=    35.00 Ry     beta= 0.40
     Davidson diagonalization with overlap
     ethr =  8.80E-05,  avg # of iterations =  5.3

     negative rho (up, down):  1.501E-01 1.507E-01

     total cpu time spent up to now is      586.2 secs

     total energy              =    -855.84739270 Ry
     estimated scf accuracy    <       0.01919597 Ry

     total magnetization       =     0.19 Bohr mag/cell
     absolute magnetization    =     0.20 Bohr mag/cell

     iteration #  5     ecut=    35.00 Ry     beta= 0.40
     Davidson diagonalization with overlap
     ethr =  2.56E-05,  avg # of iterations =  4.1

     negative rho (up, down):  1.505E-01 1.512E-01

     total cpu time spent up to now is      592.2 secs

     total energy              =    -855.84758406 Ry
     estimated scf accuracy    <       0.00228891 Ry

     total magnetization       =     0.15 Bohr mag/cell
     absolute magnetization    =     0.16 Bohr mag/cell

     iteration #  6     ecut=    35.00 Ry     beta= 0.40
     Davidson diagonalization with overlap
     c_bands:  1 eigenvalues not converged
     ethr =  3.05E-06,  avg # of iterations = 10.5

     negative rho (up, down):  1.497E-01 1.502E-01

     total cpu time spent up to now is      599.6 secs

     total energy              =    -855.84753181 Ry
     estimated scf accuracy    <       0.00118496 Ry

     total magnetization       =     0.11 Bohr mag/cell
     absolute magnetization    =     0.12 Bohr mag/cell

     iteration #  7     ecut=    35.00 Ry     beta= 0.40
     Davidson diagonalization with overlap
     c_bands:  1 eigenvalues not converged
     ethr =  1.58E-06,  avg # of iterations =  5.8

     negative rho (up, down):  1.485E-01 1.486E-01

     total cpu time spent up to now is      606.2 secs

     total energy              =    -855.84749164 Ry
     estimated scf accuracy    <       0.00158308 Ry

     total magnetization       =     0.07 Bohr mag/cell
     absolute magnetization    =     0.08 Bohr mag/cell

     iteration #  8     ecut=    35.00 Ry     beta= 0.40
     Davidson diagonalization with overlap
     ethr =  1.58E-06,  avg # of iterations =  5.3

     negative rho (up, down):  1.473E-01 1.471E-01

     total cpu time spent up to now is      612.3 secs

     total energy              =    -855.84718007 Ry
     estimated scf accuracy    <       0.00161766 Ry

     total magnetization       =     0.03 Bohr mag/cell
     absolute magnetization    =     0.04 Bohr mag/cell

     iteration #  9     ecut=    35.00 Ry     beta= 0.40
     Davidson diagonalization with overlap
     ethr =  1.58E-06,  avg # of iterations =  5.2

     negative rho (up, down):  1.458E-01 1.453E-01

     total cpu time spent up to now is      618.4 secs

     total energy              =    -855.84673051 Ry
     estimated scf accuracy    <       0.00070943 Ry

     total magnetization       =    -0.02 Bohr mag/cell
     absolute magnetization    =     0.02 Bohr mag/cell

     iteration # 10     ecut=    35.00 Ry     beta= 0.40
     Davidson diagonalization with overlap
     c_bands:  1 eigenvalues not converged
     c_bands:  1 eigenvalues not converged
     ethr =  9.46E-07,  avg # of iterations =  9.9

     negative rho (up, down):  1.447E-01 1.442E-01

     total cpu time spent up to now is      626.6 secs

     total energy              =    -855.84670941 Ry
     estimated scf accuracy    <       0.00027725 Ry

     total magnetization       =    -0.09 Bohr mag/cell
     absolute magnetization    =     0.09 Bohr mag/cell

     iteration # 11     ecut=    35.00 Ry     beta= 0.40
     Davidson diagonalization with overlap
     c_bands:  1 eigenvalues not converged
     ethr =  3.70E-07,  avg # of iterations =  4.6

     negative rho (up, down):  1.439E-01 1.434E-01

     total cpu time spent up to now is      633.1 secs

     total energy              =    -855.84670905 Ry
     estimated scf accuracy    <       0.00006769 Ry

     total magnetization       =    -0.09 Bohr mag/cell
     absolute magnetization    =     0.10 Bohr mag/cell

     iteration # 12     ecut=    35.00 Ry     beta= 0.40
     Davidson diagonalization with overlap
     ethr =  9.03E-08,  avg # of iterations =  3.1

     negative rho (up, down):  1.429E-01 1.427E-01

     total cpu time spent up to now is      638.8 secs

     total energy              =    -855.84667813 Ry
     estimated scf accuracy    <       0.00006670 Ry

     total magnetization       =    -0.08 Bohr mag/cell
     absolute magnetization    =     0.09 Bohr mag/cell

     iteration # 13     ecut=    35.00 Ry     beta= 0.40
     Davidson diagonalization with overlap
     ethr =  8.89E-08,  avg # of iterations =  4.8

     negative rho (up, down):  1.428E-01 1.425E-01

     total cpu time spent up to now is      645.3 secs

     total energy              =    -855.84668936 Ry
     estimated scf accuracy    <       0.00000356 Ry

     total magnetization       =    -0.05 Bohr mag/cell
     absolute magnetization    =     0.06 Bohr mag/cell

     iteration # 14     ecut=    35.00 Ry     beta= 0.40
     Davidson diagonalization with overlap
     ethr =  4.74E-09,  avg # of iterations =  2.2

     negative rho (up, down):  1.426E-01 1.424E-01

     total cpu time spent up to now is      651.1 secs

     total energy              =    -855.84668975 Ry
     estimated scf accuracy    <       0.00000185 Ry

     total magnetization       =    -0.04 Bohr mag/cell
     absolute magnetization    =     0.05 Bohr mag/cell

     iteration # 15     ecut=    35.00 Ry     beta= 0.40
     Davidson diagonalization with overlap
     ethr =  2.47E-09,  avg # of iterations =  1.8

     negative rho (up, down):  1.425E-01 1.424E-01

     total cpu time spent up to now is      656.9 secs

     total energy              =    -855.84669093 Ry
     estimated scf accuracy    <       0.00000070 Ry

     total magnetization       =    -0.03 Bohr mag/cell
     absolute magnetization    =     0.04 Bohr mag/cell

     iteration # 16     ecut=    35.00 Ry     beta= 0.40
     Davidson diagonalization with overlap
     ethr =  9.32E-10,  avg # of iterations =  2.0

     negative rho (up, down):  1.425E-01 1.424E-01

     total cpu time spent up to now is      662.8 secs

     total energy              =    -855.84669147 Ry
     estimated scf accuracy    <       0.00000040 Ry

     total magnetization       =    -0.02 Bohr mag/cell
     absolute magnetization    =     0.03 Bohr mag/cell

     iteration # 17     ecut=    35.00 Ry     beta= 0.40
     Davidson diagonalization with overlap
     ethr =  5.37E-10,  avg # of iterations =  2.0

     negative rho (up, down):  1.424E-01 1.424E-01

     total cpu time spent up to now is      668.7 secs

     total energy              =    -855.84669170 Ry
     estimated scf accuracy    <       0.00000022 Ry

     total magnetization       =    -0.02 Bohr mag/cell
     absolute magnetization    =     0.02 Bohr mag/cell

     iteration # 18     ecut=    35.00 Ry     beta= 0.40
     Davidson diagonalization with overlap
     ethr =  2.98E-10,  avg # of iterations =  2.3

     negative rho (up, down):  1.424E-01 1.424E-01
 
     Magnetic moment per site:
     atom:    1    charge:   13.1077    magn:   -0.0039    constr:    0.0000
     atom:    2    charge:   13.1643    magn:   -0.0014    constr:    0.0000
     atom:    3    charge:   13.1623    magn:    0.0011    constr:    0.0000
     atom:    4    charge:   13.1636    magn:   -0.0014    constr:    0.0000
     atom:    5    charge:   13.1070    magn:   -0.0039    constr:    0.0000

     total cpu time spent up to now is      675.1 secs

     End of self-consistent calculation

 ------ SPIN UP ------------


          k = 0.0556 0.0962 0.0000 (  4451 PWs)   bands (ev):

   -42.5107 -42.3285 -42.0882 -42.0356 -42.0088 -41.9949 -41.9901 -41.9581
   -41.9263 -41.6349 -41.6299 -41.6056 -41.6043 -41.5738 -41.5737  -2.7093
    -1.8497  -1.1785  -0.8223  -0.7968   1.1276   1.1621   1.3049   1.5817
     1.6534   1.7136   1.7673   1.8347   1.9301   2.0309   2.1275   2.2559
     2.3660   2.5565   3.2600   3.3037   3.5920   3.6556   3.6978   3.9456
     4.2554   4.4637   4.9420   4.9463   6.1048   6.9720

          k = 0.0556 0.2245 0.0000 (  4420 PWs)   bands (ev):

   -42.4649 -42.3267 -42.1962 -42.1571 -42.0839 -42.0455 -42.0282 -42.0158
   -41.9558 -41.7318 -41.7311 -41.6219 -41.6193 -41.6068 -41.6064  -1.8151
    -1.0844  -0.5652  -0.2096  -0.0824   0.4362   0.7544   0.8600   1.0117
     1.5221   1.6929   1.8613   1.9460   2.0168   2.2675   2.4256   2.5412
     2.7179   2.7963   2.9933   3.1204   3.3686   3.4514   3.8084   4.0674
     4.3696   4.7329   4.9444   5.9527   7.6131   8.8898

          k = 0.0556 0.3528 0.0000 (  4467 PWs)   bands (ev):

   -42.4323 -42.3912 -42.3262 -42.3102 -42.1743 -42.0965 -42.0780 -42.0512
   -41.9937 -41.8852 -41.8819 -41.6505 -41.6504 -41.6132 -41.6114  -1.0551
    -0.8341  -0.6301  -0.4270  -0.1789   0.0917   0.2758   0.8652   1.2306
     1.5127   1.7404   1.8203   2.0547   2.3687   2.6043   2.8015   2.9613
     3.1977   3.5377   3.7437   3.8133   4.1172   4.2942   4.4534   4.6195
     4.6887   5.0239   5.3611   7.1795   9.1849  10.8270

          k = 0.0556 0.4811 0.0000 (  4463 PWs)   bands (ev):

   -42.5178 -42.4766 -42.4560 -42.2859 -42.2161 -42.1358 -42.1199 -42.0828
   -42.0249 -41.9852 -41.9772 -41.6834 -41.6832 -41.6070 -41.6059  -1.2594
    -1.1126  -0.9305  -0.8188  -0.4425  -0.2533  -0.1587   0.6982   1.2083
     1.5190   1.6976   2.0861   2.4023   2.5477   3.1609   3.5080   3.9527
     4.2073   4.3103   4.6062   4.7486   4.8207   4.9299   5.0783   5.2538
     5.8428   6.5008   6.9438   8.4419  10.2875  12.4569

          k = 0.0556-0.5453 0.0000 (  4486 PWs)   bands (ev):

   -42.5456 -42.4967 -42.4872 -42.2701 -42.2313 -42.1449 -42.1295 -42.0907
   -42.0336 -42.0058 -41.9946 -41.6911 -41.6908 -41.6057 -41.6051  -1.3700
    -1.1671  -1.0230  -0.8988  -0.5293  -0.3011  -0.2712   0.6459   1.1610
     1.4450   1.6549   2.1272   2.5376   2.6458   3.2379   3.7232   4.0991
     4.3375   4.6555   4.8103   4.9432   5.0172   5.1324   5.2309   5.3939
     6.5189   7.5921   8.0890   8.6157   9.4873  12.3262

          k = 0.0556-0.4170 0.0000 (  4465 PWs)   bands (ev):

   -42.4693 -42.4416 -42.4001 -42.3063 -42.1971 -42.1194 -42.1014 -42.0685
   -42.0113 -41.9446 -41.9399 -41.6697 -41.6694 -41.6095 -41.6081  -1.0701
    -1.0293  -0.7622  -0.6741  -0.3030  -0.1336   0.0327   0.7979   1.2541
     1.6557   1.7353   2.0184   2.0364   2.5017   2.8631   3.2984   3.5251
     3.6376   4.0450   4.1460   4.3189   4.5110   4.6831   4.7821   5.0339
     5.1957   5.4139   6.0177   7.8464   9.9234  11.7660

          k = 0.0556-0.2887 0.0000 (  4439 PWs)   bands (ev):

   -42.4396 -42.3441 -42.2690 -42.2405 -42.1377 -42.0699 -42.0522 -42.0339
   -41.9744 -41.8108 -41.8084 -41.6287 -41.6283 -41.6172 -41.6148  -1.3248
    -0.8124  -0.5256  -0.1178  -0.0635   0.3323   0.4858   0.7627   1.0022
     1.4119   1.7741   1.9284   1.9472   2.1633   2.3356   2.4382   2.7500
     2.8729   3.0721   3.2573   3.4722   3.7017   3.7975   4.0634   4.2201
     4.5119   4.9040   5.0242   6.5466   8.3999   9.8658

          k = 0.0556-0.1604 0.0000 (  4443 PWs)   bands (ev):

   -42.4910 -42.3255 -42.1303 -42.0868 -42.0280 -42.0258 -42.0090 -41.9912
   -41.9394 -41.6625 -41.6622 -41.6265 -41.6223 -41.5879 -41.5877  -2.3210
    -1.4940  -0.8670  -0.5046  -0.4726   0.8019   0.9515   1.0809   1.3638
     1.5050   1.7897   1.9001   1.9427   2.0454   2.1083   2.1790   2.2773
     2.5128   2.6633   3.0471   3.1932   3.2690   3.4639   3.7140   3.9298
     4.3011   4.5932   4.9210   5.4039   6.8372   7.9055

          k = 0.0556-0.0321 0.0000 (  4465 PWs)   bands (ev):

   -42.5214 -42.3316 -42.0723 -42.0080 -41.9977 -41.9833 -41.9774 -41.9320
   -41.9193 -41.6375 -41.6302 -41.5777 -41.5774 -41.5666 -41.5662  -2.9163
    -2.0470  -1.3554  -1.0122  -0.9741   1.3074   1.3436   1.4373   1.5667
     1.6516   1.6645   1.6845   1.7777   1.8742   2.0906   2.1225   2.1392
     2.2135   2.8486   3.3868   3.3874   3.6298   3.6519   4.0196   4.0672
     4.2464   4.5584   4.6502   4.9872   5.5293   6.2589

          k = 0.1667 0.2887 0.0000 (  4425 PWs)   bands (ev):

   -42.4237 -42.3556 -42.2977 -42.2777 -42.1639 -42.1030 -42.0706 -42.0486
   -42.0081 -41.8414 -41.8402 -41.6617 -41.6611 -41.6129 -41.6121  -0.8928
    -0.5330  -0.0864   0.0229   0.0889   0.2512   0.4054   0.5698   1.1333
     1.1669   1.4094   1.5691   1.6773   1.7156   2.3371   2.4474   2.6721
     2.8731   3.2909   3.5114   3.7342   4.0882   4.3560   4.3913   4.6911
     4.7390   4.8238   5.4499   7.1072   8.9787  10.5273

          k = 0.1667 0.4170 0.0000 (  4459 PWs)   bands (ev):

   -42.4544 -42.4226 -42.3931 -42.3134 -42.1904 -42.1698 -42.1527 -42.0854
   -42.0514 -41.9341 -41.9339 -41.7236 -41.7230 -41.6062 -41.6057  -0.7048
    -0.6225  -0.4128  -0.1833  -0.0625   0.1031   0.4607   0.7822   0.9929
     1.1604   1.4843   1.8162   2.0540   2.1620   2.4315   2.6691   2.8626
     3.2569   3.4849   3.8060   4.0211   4.3725   4.9468   4.9869   5.2192
     6.3738   6.6127   7.2883   8.7830  10.6623  12.3878

          k = 0.1667 0.5453 0.0000 (  4490 PWs)   bands (ev):

   -42.5084 -42.4597 -42.4526 -42.2797 -42.2121 -42.2058 -42.1978 -42.1006
   -42.0815 -41.9795 -41.9767 -41.7572 -41.7565 -41.6027 -41.6024  -0.9955
    -0.7064  -0.5967  -0.4066  -0.1776   0.0560   0.2442   0.6509   0.8168
     1.3667   1.6992   1.8959   2.1157   2.5323   2.5925   3.2509   3.4060
     3.5018   4.0241   4.2931   4.4575   4.6207   4.8661   4.9899   5.2371
     8.2984   8.8981   9.4528  10.1372  10.6109  12.6616

          k = 0.1667-0.4811 0.0000 (  4476 PWs)   bands (ev):

   -42.4884 -42.4471 -42.4319 -42.2939 -42.1992 -42.1932 -42.1856 -42.0962
   -42.0699 -41.9638 -41.9626 -41.7456 -41.7448 -41.6038 -41.6036  -0.8927
    -0.6736  -0.5333  -0.3282  -0.1181   0.0562   0.3355   0.6807   0.9389
     1.2538   1.7020   1.8872   2.0417   2.3253   2.6658   3.0097   3.1436
     3.3769   3.9073   4.0375   4.1218   4.4846   4.9700   5.0522   5.3176
     7.3650   7.7699   8.4485   9.7141  11.2813  12.9199

          k = 0.1667-0.3528 0.0000 (  4458 PWs)   bands (ev):

   -42.4248 -42.3883 -42.3403 -42.3237 -42.1811 -42.1386 -42.1106 -42.0688
   -42.0308 -41.8927 -41.8919 -41.6943 -41.6937 -41.6096 -41.6091  -0.6228
    -0.5127  -0.2520  -0.1119   0.0046   0.2752   0.4365   0.7443   0.9474
     1.1981   1.4124   1.5999   1.8761   1.9938   2.2463   2.3545   2.7861
     3.1078   3.2389   3.7084   3.9453   4.2343   4.6790   4.7903   4.9926
     5.4811   5.5680   6.2302   7.8693   9.7916  11.4432

          k = 0.1667-0.2245 0.0000 (  4433 PWs)   bands (ev):

   -42.4435 -42.3358 -42.2476 -42.2138 -42.1312 -42.0705 -42.0428 -42.0306
   -41.9814 -41.7857 -41.7844 -41.6313 -41.6312 -41.6175 -41.6156  -1.3659
    -0.7610  -0.2738   0.0087   0.0727   0.3140   0.5046   0.7320   0.9153
     1.3098   1.5127   1.6654   1.8038   1.9095   2.2618   2.5463   2.7139
     2.7391   3.0506   3.2522   3.3992   3.7342   3.7815   4.1687   4.1718
     4.3775   4.8146   4.9950   6.4824   8.2489   9.6671

          k = 0.1667-0.0962 0.0000 (  4427 PWs)   bands (ev):

   -42.4823 -42.3250 -42.1545 -42.1127 -42.0409 -42.0300 -42.0202 -42.0051
   -41.9410 -41.6880 -41.6876 -41.6251 -41.6214 -41.5925 -41.5924  -2.1470
    -1.3502  -0.7683  -0.4101  -0.3180   0.6256   0.9369   0.9941   1.1945
     1.5828   1.8152   1.9487   1.9666   2.0819   2.1603   2.2808   2.3567
     2.4958   2.7845   2.8517   3.1497   3.2268   3.4785   3.6537   4.0545
     4.2292   4.6696   5.0343   5.5370   7.1150   8.2661

          k = 0.2778 0.4811 0.0000 (  4485 PWs)   bands (ev):

   -42.4512 -42.4309 -42.3909 -42.3308 -42.2560 -42.2473 -42.1755 -42.1529
   -42.0807 -41.9434 -41.9415 -41.8160 -41.8149 -41.6015 -41.6010  -0.4817
    -0.4786  -0.1673   0.0947   0.2883   0.3533   0.4486   0.5015   0.9367
     1.1892   1.5110   1.6484   2.1191   2.2069   2.3473   2.4182   2.9574
     3.1636   3.5229   3.6729   4.0495   4.4923   4.8847   5.0024   5.2019
     8.6997   9.1820  10.0102  11.2362  12.6578  13.1417

          k = 0.2778 0.6094 0.0000 (  4491 PWs)   bands (ev):

   -42.4439 -42.4155 -42.3872 -42.3398 -42.2950 -42.2736 -42.1757 -42.1558
   -42.0915 -41.9355 -41.9346 -41.8475 -41.8463 -41.6001 -41.5998  -0.5075
    -0.2776  -0.0645   0.0663   0.1832   0.3243   0.4403   0.5972   0.8981
     1.3075   1.5125   1.6936   2.0605   2.1228   2.4157   2.4588   2.9379
     3.2443   3.5439   3.6989   4.3118   4.5182   4.7413   4.8587   4.9816
     9.9360  10.4890  11.1042  11.6189  12.2780  12.7585

          k = 0.2778-0.4170 0.0000 (  4462 PWs)   bands (ev):

   -42.4586 -42.4286 -42.4020 -42.3147 -42.2170 -42.2065 -42.1761 -42.1256
   -42.0667 -41.9445 -41.9423 -41.7711 -41.7699 -41.6034 -41.6027  -0.6257
    -0.4855  -0.2870  -0.0461   0.1320   0.2619   0.4601   0.8061   0.9088
     1.0018   1.5491   1.6545   2.0850   2.2554   2.3245   2.5138   2.8476
     3.1977   3.5139   3.7979   3.8719   4.4323   4.9823   5.0955   5.3088
     7.5059   7.8525   8.6123   9.9607  11.6736  13.2826

          k = 0.2778-0.2887 0.0000 (  4463 PWs)   bands (ev):

   -42.4409 -42.4128 -42.3650 -42.3156 -42.1852 -42.1268 -42.1146 -42.0595
   -42.0242 -41.9148 -41.9128 -41.6817 -41.6815 -41.6096 -41.6085  -0.8385
    -0.7586  -0.5444  -0.3858  -0.1234   0.0343   0.3554   0.7767   1.1081
     1.4574   1.5148   1.8342   2.0602   2.2168   2.5752   2.7934   2.9093
     3.2560   3.5052   3.8247   4.0557   4.4078   4.6115   4.7817   5.0250
     5.3539   5.5183   6.1453   7.8437   9.8312  11.5472

          k = 0.2778-0.1604 0.0000 (  4458 PWs)   bands (ev):

   -42.4339 -42.3636 -42.2948 -42.2808 -42.1560 -42.0790 -42.0528 -42.0479
   -41.9765 -41.8482 -41.8444 -41.6332 -41.6329 -41.6159 -41.6135  -1.2243
    -0.8557  -0.6501  -0.2896  -0.1799   0.1966   0.3391   0.8834   1.2324
     1.4966   1.7706   1.9590   2.0450   2.4470   2.5042   2.6497   2.8220
     3.0268   3.3549   3.4313   3.6836   3.7454   3.8737   4.0789   4.2519
     4.6878   4.9424   5.0933   6.7576   8.7106  10.2585

          k = 0.3889 0.6736 0.0000 (  4511 PWs)   bands (ev):

   -42.4798 -42.4327 -42.4261 -42.3021 -42.2633 -42.2345 -42.1932 -42.1356
   -42.0867 -41.9602 -41.9592 -41.8065 -41.8052 -41.6011 -41.6010  -0.7732
    -0.4061  -0.2345  -0.2070   0.1076   0.2222   0.3400   0.6536   0.8813
     1.1503   1.6343   1.8757   1.9748   2.2499   2.6563   2.8164   2.9473
     3.3000   3.7754   3.9893   4.4764   4.4977   4.7441   4.9288   5.0693
     9.4822   9.9230  10.3342  10.8481  11.3205  12.7791

          k = 0.3889-0.3528 0.0000 (  4485 PWs)   bands (ev):

   -42.5217 -42.4753 -42.4636 -42.2780 -42.2168 -42.1636 -42.1596 -42.0819
   -42.0583 -41.9875 -41.9823 -41.7143 -41.7140 -41.6050 -41.6043  -1.1633
    -0.9626  -0.8386  -0.6530  -0.3602  -0.1369  -0.0169   0.6483   1.0369
     1.4993   1.7015   1.9184   2.3003   2.6010   2.8889   3.5012   3.6863
     3.9303   4.2074   4.5068   4.5614   4.6853   4.9795   5.0448   5.3251
     7.0354   7.6781   8.1788   9.2255  10.4595  12.5532

          k = 0.3889-0.2245 0.0000 (  4444 PWs)   bands (ev):

   -42.4982 -42.4642 -42.4330 -42.2956 -42.2089 -42.1208 -42.0933 -42.0849
   -42.0080 -41.9707 -41.9625 -41.6685 -41.6682 -41.6085 -41.6071  -1.2359
    -1.1375  -0.8950  -0.8293  -0.4290  -0.2529  -0.1329   0.7611   1.2928
     1.5586   1.7240   2.1894   2.3705   2.3899   3.2981   3.3449   3.9477
     4.2116   4.3013   4.5609   4.7124   4.7642   4.8004   4.9661   5.0693
     5.2247   5.5310   6.1053   7.9953  10.0817  12.0986

          k =-0.5000-0.8660 0.0000 (  4492 PWs)   bands (ev):

   -42.5543 -42.5043 -42.4962 -42.2677 -42.2370 -42.1380 -42.1132 -42.0995
   -42.0206 -42.0162 -41.9985 -41.6827 -41.6823 -41.6063 -41.6055  -1.4470
    -1.2386  -1.0827  -0.9853  -0.5954  -0.3804  -0.3357   0.6391   1.2195
     1.4031   1.6205   2.2997   2.4629   2.7666   3.3486   3.7711   4.2682
     4.3749   4.8980   5.0332   5.0353   5.0978   5.2679   5.5062   5.5290
     6.0926   7.5383   8.1878   8.5340   8.7329  12.2389

 ------ SPIN DOWN ----------


          k = 0.0556 0.0962 0.0000 (  4451 PWs)   bands (ev):

   -42.5111 -42.3302 -42.0888 -42.0367 -42.0097 -41.9961 -41.9915 -41.9578
   -41.9258 -41.6398 -41.6347 -41.6094 -41.6082 -41.5776 -41.5775  -2.7093
    -1.8498  -1.1785  -0.8233  -0.7979   1.1269   1.1609   1.3046   1.5803
     1.6517   1.7125   1.7669   1.8326   1.9287   2.0291   2.1252   2.2533
     2.3639   2.5547   3.2588   3.3023   3.5899   3.6532   3.6957   3.9430
     4.2535   4.4608   4.9399   4.9444   6.1029   6.9710

          k = 0.0556 0.2245 0.0000 (  4420 PWs)   bands (ev):

   -42.4652 -42.3280 -42.1976 -42.1587 -42.0833 -42.0463 -42.0287 -42.0172
   -41.9554 -41.7355 -41.7348 -41.6269 -41.6241 -41.6105 -41.6102  -1.8152
    -1.0845  -0.5654  -0.2106  -0.0833   0.4353   0.7534   0.8593   1.0100
     1.5209   1.6907   1.8592   1.9448   2.0160   2.2659   2.4246   2.5391
     2.7162   2.7946   2.9911   3.1185   3.3663   3.4493   3.8065   4.0653
     4.3670   4.7300   4.9426   5.9512   7.6116   8.8889

          k = 0.0556 0.3528 0.0000 (  4467 PWs)   bands (ev):

   -42.4328 -42.3915 -42.3278 -42.3117 -42.1747 -42.0973 -42.0790 -42.0518
   -41.9934 -41.8888 -41.8853 -41.6543 -41.6542 -41.6183 -41.6164  -1.0554
    -0.8344  -0.6307  -0.4277  -0.1802   0.0905   0.2743   0.8639   1.2294
     1.5116   1.7387   1.8196   2.0529   2.3667   2.6021   2.7998   2.9597
     3.1959   3.5360   3.7418   3.8114   4.1160   4.2927   4.4506   4.6171
     4.6864   5.0220   5.3594   7.1781   9.1836  10.8262

          k = 0.0556 0.4811 0.0000 (  4463 PWs)   bands (ev):

   -42.5187 -42.4766 -42.4574 -42.2873 -42.2173 -42.1366 -42.1208 -42.0836
   -42.0248 -41.9882 -41.9801 -41.6872 -41.6870 -41.6122 -41.6110  -1.2598
    -1.1131  -0.9308  -0.8199  -0.4440  -0.2548  -0.1604   0.6969   1.2065
     1.5181   1.6964   2.0840   2.4008   2.5456   3.1588   3.5060   3.9507
     4.2048   4.3086   4.6039   4.7473   4.8187   4.9290   5.0755   5.2519
     5.8412   6.5000   6.9429   8.4409  10.2868  12.4557

          k = 0.0556-0.5453 0.0000 (  4486 PWs)   bands (ev):

   -42.5466 -42.4966 -42.4887 -42.2719 -42.2324 -42.1456 -42.1303 -42.0915
   -42.0339 -42.0084 -41.9973 -41.6948 -41.6945 -41.6109 -41.6102  -1.3704
    -1.1678  -1.0232  -0.8999  -0.5307  -0.3027  -0.2729   0.6445   1.1591
     1.4441   1.6538   2.1252   2.5357   2.6442   3.2358   3.7204   4.0974
     4.3344   4.6543   4.8088   4.9412   5.0154   5.1314   5.2284   5.3913
     6.5179   7.5915   8.0884   8.6149   9.4868  12.3281

          k = 0.0556-0.4170 0.0000 (  4465 PWs)   bands (ev):

   -42.4702 -42.4416 -42.4015 -42.3075 -42.1980 -42.1202 -42.1024 -42.0692
   -42.0110 -41.9480 -41.9431 -41.6734 -41.6732 -41.6146 -41.6132  -1.0705
    -1.0296  -0.7627  -0.6751  -0.3045  -0.1350   0.0311   0.7965   1.2525
     1.6549   1.7339   2.0166   2.0349   2.4996   2.8610   3.2970   3.5238
     3.6354   4.0429   4.1434   4.3174   4.5097   4.6813   4.7797   5.0322
     5.1935   5.4125   6.0163   7.8452   9.9222  11.7651

          k = 0.0556-0.2887 0.0000 (  4439 PWs)   bands (ev):

   -42.4399 -42.3449 -42.2706 -42.2421 -42.1375 -42.0708 -42.0530 -42.0348
   -41.9740 -41.8145 -41.8120 -41.6325 -41.6321 -41.6222 -41.6197  -1.3250
    -0.8127  -0.5260  -0.1186  -0.0647   0.3316   0.4843   0.7616   1.0010
     1.4105   1.7725   1.9272   1.9461   2.1618   2.3335   2.4360   2.7476
     2.8718   3.0704   3.2559   3.4705   3.7001   3.7952   4.0608   4.2183
     4.5090   4.9015   5.0226   6.5451   8.3984   9.8649

          k = 0.0556-0.1604 0.0000 (  4443 PWs)   bands (ev):

   -42.4914 -42.3271 -42.1314 -42.0881 -42.0281 -42.0265 -42.0098 -41.9921
   -41.9389 -41.6664 -41.6660 -41.6313 -41.6270 -41.5917 -41.5915  -2.3211
    -1.4941  -0.8670  -0.5056  -0.4737   0.8009   0.9505   1.0805   1.3622
     1.5034   1.7874   1.8992   1.9413   2.0449   2.1066   2.1774   2.2758
     2.5104   2.6614   3.0449   3.1915   3.2663   3.4620   3.7121   3.9277
     4.2989   4.5901   4.9190   5.4023   6.8355   7.9045

          k = 0.0556-0.0321 0.0000 (  4465 PWs)   bands (ev):

   -42.5218 -42.3333 -42.0726 -42.0090 -41.9986 -41.9848 -41.9790 -41.9314
   -41.9188 -41.6424 -41.6350 -41.5815 -41.5812 -41.5703 -41.5700  -2.9163
    -2.0471  -1.3554  -1.0132  -0.9753   1.3070   1.3424   1.4369   1.5657
     1.6502   1.6645   1.6832   1.7763   1.8714   2.0885   2.1200   2.1366
     2.2112   2.8467   3.3858   3.3865   3.6280   3.6499   4.0176   4.0644
     4.2435   4.5577   4.6467   4.9852   5.5273   6.2579

          k = 0.1667 0.2887 0.0000 (  4425 PWs)   bands (ev):

   -42.4240 -42.3561 -42.2993 -42.2792 -42.1641 -42.1041 -42.0720 -42.0483
   -42.0077 -41.8450 -41.8438 -41.6655 -41.6649 -41.6179 -41.6171  -0.8930
    -0.5331  -0.0873   0.0225   0.0886   0.2503   0.4039   0.5684   1.1326
     1.1655   1.4076   1.5668   1.6751   1.7145   2.3359   2.4453   2.6700
     2.8709   3.2896   3.5096   3.7318   4.0862   4.3547   4.3884   4.6884
     4.7372   4.8223   5.4480   7.1058   8.9773  10.5265

          k = 0.1667 0.4170 0.0000 (  4459 PWs)   bands (ev):

   -42.4553 -42.4224 -42.3947 -42.3145 -42.1915 -42.1712 -42.1538 -42.0850
   -42.0515 -41.9375 -41.9372 -41.7274 -41.7267 -41.6113 -41.6108  -0.7052
    -0.6229  -0.4133  -0.1843  -0.0635   0.1015   0.4596   0.7806   0.9916
     1.1592   1.4833   1.8147   2.0517   2.1604   2.4296   2.6674   2.8606
     3.2555   3.4834   3.8033   4.0184   4.3697   4.9453   4.9845   5.2178
     6.3729   6.6110   7.2869   8.7817  10.6612  12.3869

          k = 0.1667 0.5453 0.0000 (  4490 PWs)   bands (ev):

   -42.5093 -42.4595 -42.4542 -42.2810 -42.2128 -42.2074 -42.1991 -42.1004
   -42.0815 -41.9826 -41.9799 -41.7609 -41.7602 -41.6078 -41.6076  -0.9960
    -0.7069  -0.5969  -0.4078  -0.1790   0.0543   0.2431   0.6494   0.8158
     1.3653   1.6971   1.8939   2.1147   2.5306   2.5908   3.2488   3.4042
     3.5000   4.0215   4.2916   4.4552   4.6171   4.8645   4.9880   5.2358
     8.2977   8.8972   9.4520  10.1363  10.6104  12.6063

          k = 0.1667-0.4811 0.0000 (  4476 PWs)   bands (ev):

   -42.4894 -42.4468 -42.4335 -42.2950 -42.2004 -42.1945 -42.1867 -42.0958
   -42.0700 -41.9670 -41.9658 -41.7493 -41.7486 -41.6089 -41.6087  -0.8932
    -0.6741  -0.5336  -0.3293  -0.1194   0.0547   0.3343   0.6792   0.9378
     1.2525   1.7004   1.8853   2.0403   2.3235   2.6641   3.0078   3.1419
     3.3751   3.9052   4.0353   4.1195   4.4815   4.9681   5.0502   5.3162
     7.3642   7.7686   8.4474   9.7130  11.2805  12.9190

          k = 0.1667-0.3528 0.0000 (  4458 PWs)   bands (ev):

   -42.4254 -42.3884 -42.3419 -42.3251 -42.1818 -42.1399 -42.1119 -42.0684
   -42.0307 -41.8962 -41.8954 -41.6981 -41.6974 -41.6147 -41.6141  -0.6233
    -0.5129  -0.2526  -0.1126   0.0037   0.2736   0.4356   0.7431   0.9461
     1.1967   1.4111   1.5985   1.8740   1.9919   2.2447   2.3524   2.7842
     3.1058   3.2376   3.7063   3.9424   4.2318   4.6772   4.7884   4.9911
     5.4799   5.5659   6.2286   7.8680   9.7904  11.4424

          k = 0.1667-0.2245 0.0000 (  4433 PWs)   bands (ev):

   -42.4438 -42.3368 -42.2491 -42.2155 -42.1309 -42.0715 -42.0439 -42.0311
   -41.9809 -41.7894 -41.7881 -41.6352 -41.6350 -41.6224 -41.6205  -1.3661
    -0.7612  -0.2741   0.0081   0.0718   0.3132   0.5033   0.7308   0.9140
     1.3088   1.5107   1.6631   1.8021   1.9085   2.2605   2.5442   2.7119
     2.7369   3.0494   3.2507   3.3972   3.7326   3.7796   4.1667   4.1693
     4.3743   4.8130   4.9928   6.4808   8.2474   9.6662

          k = 0.1667-0.0962 0.0000 (  4427 PWs)   bands (ev):

   -42.4827 -42.3265 -42.1557 -42.1142 -42.0403 -42.0308 -42.0206 -42.0067
   -41.9406 -41.6918 -41.6914 -41.6300 -41.6262 -41.5963 -41.5961  -2.1470
    -1.3504  -0.7684  -0.4112  -0.3189   0.6247   0.9358   0.9935   1.1928
     1.5814   1.8128   1.9479   1.9653   2.0803   2.1598   2.2791   2.3552
     2.4936   2.7826   2.8493   3.1470   3.2249   3.4763   3.6516   4.0528
     4.2270   4.6662   5.0324   5.5355   7.1133   8.2651

          k = 0.2778 0.4811 0.0000 (  4485 PWs)   bands (ev):

   -42.4523 -42.4309 -42.3921 -42.3314 -42.2575 -42.2489 -42.1766 -42.1524
   -42.0804 -41.9468 -41.9449 -41.8197 -41.8186 -41.6067 -41.6062  -0.4818
    -0.4795  -0.1682   0.0939   0.2873   0.3525   0.4471   0.5004   0.9355
     1.1880   1.5094   1.6473   2.1166   2.2045   2.3451   2.4160   2.9563
     3.1628   3.5212   3.6702   4.0470   4.4884   4.8826   5.0007   5.2007
     8.6992   9.1807  10.0091  11.2350  12.6570  13.1412

          k = 0.2778 0.6094 0.0000 (  4491 PWs)   bands (ev):

   -42.4448 -42.4158 -42.3882 -42.3405 -42.2963 -42.2750 -42.1766 -42.1561
   -42.0911 -41.9390 -41.9380 -41.8511 -41.8499 -41.6053 -41.6050  -0.5080
    -0.2781  -0.0654   0.0657   0.1825   0.3229   0.4390   0.5961   0.8968
     1.3064   1.5110   1.6926   2.0577   2.1202   2.4132   2.4565   2.9372
     3.2436   3.5418   3.6966   4.3088   4.5138   4.7399   4.8572   4.9804
     9.9356  10.4879  11.1035  11.6180  12.2771  12.7580

          k = 0.2778-0.4170 0.0000 (  4462 PWs)   bands (ev):

   -42.4596 -42.4284 -42.4035 -42.3156 -42.2186 -42.2080 -42.1771 -42.1249
   -42.0667 -41.9478 -41.9457 -41.7748 -41.7736 -41.6085 -41.6078  -0.6262
    -0.4859  -0.2878  -0.0471   0.1310   0.2604   0.4591   0.8051   0.9074
     1.0005   1.5480   1.6529   2.0826   2.2535   2.3225   2.5120   2.8460
     3.1966   3.5121   3.7951   3.8696   4.4290   4.9801   5.0936   5.3076
     7.5052   7.8510   8.6110   9.9595  11.6725  13.2817

          k = 0.2778-0.2887 0.0000 (  4463 PWs)   bands (ev):

   -42.4417 -42.4128 -42.3665 -42.3169 -42.1860 -42.1279 -42.1157 -42.0598
   -42.0239 -41.9183 -41.9161 -41.6855 -41.6852 -41.6147 -41.6135  -0.8389
    -0.7589  -0.5448  -0.3867  -0.1245   0.0328   0.3541   0.7753   1.1068
     1.4564   1.5136   1.8331   2.0582   2.2149   2.5733   2.7915   2.9075
     3.2542   3.5038   3.8222   4.0530   4.4057   4.6097   4.7798   5.0234
     5.3522   5.5166   6.1438   7.8424   9.8300  11.5464

          k = 0.2778-0.1604 0.0000 (  4458 PWs)   bands (ev):

   -42.4342 -42.3642 -42.2965 -42.2824 -42.1560 -42.0798 -42.0529 -42.0495
   -41.9761 -41.8519 -41.8480 -41.6370 -41.6367 -41.6210 -41.6185  -1.2245
    -0.8561  -0.6506  -0.2904  -0.1812   0.1955   0.3376   0.8822   1.2313
     1.4953   1.7691   1.9583   2.0433   2.4448   2.5022   2.6478   2.8202
     3.0255   3.3535   3.4296   3.6830   3.7432   3.8713   4.0760   4.2500
     4.6848   4.9404   5.0915   6.7562   8.7093  10.2576

          k = 0.3889 0.6736 0.0000 (  4511 PWs)   bands (ev):

   -42.4807 -42.4326 -42.4276 -42.3029 -42.2646 -42.2361 -42.1941 -42.1356
   -42.0864 -41.9635 -41.9625 -41.8102 -41.8089 -41.6063 -41.6062  -0.7737
    -0.4065  -0.2348  -0.2083   0.1064   0.2208   0.3388   0.6526   0.8799
     1.1490   1.6324   1.8746   1.9723   2.2480   2.6552   2.8140   2.9453
     3.2986   3.7732   3.9876   4.4732   4.4941   4.7427   4.9268   5.0683
     9.4817   9.9223  10.3334  10.8471  11.3197  12.7772

          k = 0.3889-0.3528 0.0000 (  4485 PWs)   bands (ev):

   -42.5226 -42.4752 -42.4650 -42.2795 -42.2179 -42.1646 -42.1607 -42.0822
   -42.0583 -41.9905 -41.9853 -41.7181 -41.7177 -41.6101 -41.6094  -1.1638
    -0.9632  -0.8388  -0.6542  -0.3616  -0.1387  -0.0183   0.6469   1.0355
     1.4984   1.6997   1.9164   2.2991   2.5991   2.8869   3.4994   3.6842
     3.9285   4.2044   4.5046   4.5602   4.6826   4.9779   5.0427   5.3234
     7.0345   7.6772   8.1780   9.2245  10.4590  12.5513

          k = 0.3889-0.2245 0.0000 (  4444 PWs)   bands (ev):

   -42.4991 -42.4642 -42.4344 -42.2969 -42.2099 -42.1215 -42.0935 -42.0865
   -42.0077 -41.9740 -41.9655 -41.6722 -41.6720 -41.6136 -41.6122  -1.2363
    -1.1378  -0.8954  -0.8303  -0.4305  -0.2543  -0.1346   0.7597   1.2910
     1.5574   1.7233   2.1875   2.3683   2.3883   3.2957   3.3431   3.9458
     4.2091   4.3001   4.5600   4.7112   4.7626   4.7980   4.9639   5.0662
     5.2225   5.5304   6.1043   7.9942  10.0807  12.0976

          k =-0.5000-0.8660 0.0000 (  4492 PWs)   bands (ev):

   -42.5552 -42.5039 -42.4979 -42.2697 -42.2380 -42.1387 -42.1132 -42.1011
   -42.0203 -42.0194 -42.0012 -41.6865 -41.6861 -41.6115 -41.6106  -1.4474
    -1.2391  -1.0829  -0.9864  -0.5969  -0.3818  -0.3376   0.6378   1.2173
     1.4021   1.6197   2.2975   2.4611   2.7648   3.3467   3.7676   4.2668
     4.3716   4.8965   5.0309   5.0349   5.0962   5.2673   5.5028   5.5258
     6.0918   7.5380   8.1871   8.5335   8.7325  12.2363

     the Fermi energy is     4.4881 ev

!    total energy              =    -855.84669254 Ry
     estimated scf accuracy    <       0.00000007 Ry
     smearing contrib. (-TS)   =      -0.02213025 Ry
     internal energy E=F+TS    =    -855.82456228 Ry

     The total energy is F=E-TS. E is the sum of the following terms:
     one-electron contribution =  -11885.20761981 Ry
     hartree contribution      =    5964.75008677 Ry
     xc contribution           =    -149.52102327 Ry
     ewald contribution        =    5214.15399403 Ry

     total magnetization       =    -0.01 Bohr mag/cell
     absolute magnetization    =     0.01 Bohr mag/cell

     convergence has been achieved in  18 iterations

     negative rho (up, down):  1.424E-01 1.424E-01

     Forces acting on atoms (cartesian axes, Ry/au):

     atom    1 type  1   force =     0.00000000    0.00000000   -0.00078826
     atom    2 type  1   force =     0.00000000    0.00000000    0.00082100
     atom    3 type  1   force =     0.00000000    0.00000000   -0.00000685
     atom    4 type  1   force =     0.00000000    0.00000000   -0.00082836
     atom    5 type  1   force =     0.00000000    0.00000000    0.00080247

     Total force =     0.001620     Total SCF correction =     0.000950
     SCF correction compared to forces is large: reduce conv_thr to get better values
     Energy error            =      4.1E-05
     Gradient error          =      8.3E-04

     bfgs converged in   8 scf cycles and   7 bfgs steps
     (criteria: energy <  1.0E-04 Ry, force <  1.0E-03 Ry/Bohr)

     End of BFGS Geometry Optimization

     Final energy   =    -855.8466925368 Ry

     File /home/STUDENTI/leonardo.razzai/Rh_work/surf_111/5-L.bfgs deleted, as requested
Begin final coordinates

ATOMIC_POSITIONS (angstrom)
Rh            0.0000000000        0.0000000000        0.0480215368
Rh            1.3554284000       -0.7825569000        2.2176197324
Rh            1.3554284000        0.7825569000        4.4268473508
Rh            0.0000000000        0.0000000000        6.6360250856
Rh            1.3554284000       -0.7825569000        8.8055392944
End final coordinates


 
     init_run     :      2.91s CPU      3.01s WALL (       1 calls)
     electrons    :    645.44s CPU    659.96s WALL (       9 calls)
     update_pot   :      1.81s CPU      1.84s WALL (       7 calls)
     forces       :      8.85s CPU      9.04s WALL (       9 calls)

     Called by init_run:
     wfcinit      :      2.12s CPU      2.19s WALL (       1 calls)
     potinit      :      0.23s CPU      0.23s WALL (       2 calls)
     hinit0       :      0.29s CPU      0.31s WALL (       1 calls)

     Called by electrons:
     c_bands      :    503.63s CPU    510.95s WALL (     108 calls)
     sum_band     :    103.25s CPU    108.01s WALL (     108 calls)
     v_of_rho     :      7.00s CPU      7.11s WALL (     117 calls)
     newd         :     13.70s CPU     15.73s WALL (     117 calls)
     mix_rho      :     18.78s CPU     19.04s WALL (     108 calls)

     Called by c_bands:
     init_us_2    :      7.78s CPU      7.90s WALL (   11300 calls)
     cegterg      :    440.22s CPU    447.06s WALL (    5400 calls)

     Called by *egterg:
     cdiaghg      :     48.48s CPU     48.74s WALL (   18791 calls)
     h_psi        :    312.21s CPU    318.57s WALL (   19241 calls)
     s_psi        :     17.65s CPU     17.77s WALL (   19241 calls)
     g_psi        :      2.20s CPU      2.21s WALL (   13791 calls)

     Called by h_psi:
     h_psi:calbec :     22.15s CPU     22.53s WALL (   19241 calls)
     vloc_psi     :    269.93s CPU    275.70s WALL (   19241 calls)
     add_vuspsi   :     18.20s CPU     18.43s WALL (   19241 calls)

     General routines
     calbec       :     32.90s CPU     33.46s WALL (   26441 calls)
     fft          :      3.61s CPU      3.67s WALL (    3047 calls)
     ffts         :     10.21s CPU     10.34s WALL (   29195 calls)
     fftw         :    299.34s CPU    305.66s WALL ( 1390044 calls)
     interpolate  :      0.37s CPU      0.37s WALL (     234 calls)
 
     Parallel routines
     fft_scatt_xy :     39.20s CPU     39.82s WALL ( 1422286 calls)
     fft_scatt_yz :     68.13s CPU     69.66s WALL ( 1422286 calls)
 
     PWSCF        :  11m 0.43s CPU  11m16.19s WALL

 
   This run was terminated on:  19:41:38   5Apr2023            

=------------------------------------------------------------------------------=
   JOB DONE.
=------------------------------------------------------------------------------=
