MPI startup(): shm:dapl fabric is unknown or has been removed from the product, please use ofi or shm:ofi instead.

     Program PWSCF v.6.7MaX starts on  4Apr2023 at 22:29:34 

     This program is part of the open-source Quantum ESPRESSO suite
     for quantum simulation of materials; please cite
         "P. Giannozzi et al., J. Phys.:Condens. Matter 21 395502 (2009);
         "P. Giannozzi et al., J. Phys.:Condens. Matter 29 465901 (2017);
          URL http://www.quantum-espresso.org", 
     in publications or presentations arising from this work. More details at
     http://www.quantum-espresso.org/quote

     Parallel version (MPI), running on     8 processors

     MPI processes distributed on     1 nodes
     R & G space division:  proc/nbgrp/npool/nimage =       8
     Reading input from n_layers4.pwi

     Current dimensions of program PWSCF are:
     Max number of different atomic species (ntypx) = 10
     Max number of k-points (npk) =  40000
     Max angular momentum in pseudopotentials (lmaxx) =  3

     Subspace diagonalization in iterative solution of the eigenvalue problem:
     a serial algorithm will be used

 
     Parallelization info
     --------------------
     sticks:   dense  smooth     PW     G-vecs:    dense   smooth      PW
     Min          63      31     11                12632     4451     972
     Max          65      32     12                12645     4494     987
     Sum         511     253     91               101117    35839    7825
 


     bravais-lattice index     =            4
     lattice parameter (alat)  =       5.1228  a.u.
     unit-cell volume          =    1276.0194 (a.u.)^3
     number of atoms/cell      =            4
     number of atomic types    =            1
     number of electrons       =        60.00
     number of Kohn-Sham states=           36
     kinetic-energy cutoff     =      35.0000  Ry
     charge density cutoff     =     280.0000  Ry
     scf convergence threshold =      1.0E-06
     mixing beta               =       0.4000
     number of iterations used =            8  local-TF  mixing
     energy convergence thresh.=      1.0E-04
     force convergence thresh. =      1.0E-03
     Exchange-correlation=  SLA  PW   PBX  PBC
                           (   1   4   3   4   0   0   0)
     nstep                     =           50


     celldm(1)=   5.122776  celldm(2)=   0.000000  celldm(3)=  10.960000
     celldm(4)=   0.000000  celldm(5)=   0.000000  celldm(6)=   0.000000

     crystal axes: (cart. coord. in units of alat)
               a(1) = (   1.000000   0.000000   0.000000 )  
               a(2) = (  -0.500000   0.866025   0.000000 )  
               a(3) = (   0.000000   0.000000  10.960000 )  

     reciprocal axes: (cart. coord. in units 2 pi/alat)
               b(1) = (  1.000000  0.577350  0.000000 )  
               b(2) = (  0.000000  1.154701  0.000000 )  
               b(3) = (  0.000000  0.000000  0.091241 )  


     PseudoPot. # 1 for Rh read from file:
     /home/software/materia/pseudo/rh_pbe_v1.4.uspp.F.UPF
     MD5 check sum: 761627e959a2e3a1f56b0b5fe687810e
     Pseudo is Ultrasoft + core correction, Zval = 15.0
     Generated by new atomic code, or converted to UPF format
     Using radial grid of  969 points,  7 beta functions with: 
                l(1) =   0
                l(2) =   0
                l(3) =   1
                l(4) =   1
                l(5) =   2
                l(6) =   2
                l(7) =   2
     Q(r) pseudized with  8 coefficients,  rinner =    1.200   1.200   1.200
                                                       1.200   1.200

     atomic species   valence    mass     pseudopotential
        Rh            15.00   102.90500     Rh( 1.00)

     Starting magnetic structure 
     atomic species   magnetization
        Rh           0.010

      6 Sym. Ops. (no inversion) found



   Cartesian axes

     site n.     atom                  positions (alat units)
         1           Rh  tau(   1) = (   0.0000000   0.0000000   0.0000000  )
         2           Rh  tau(   2) = (   1.0000002   0.5773504   0.8164967  )
         3           Rh  tau(   3) = (   0.5000001   0.2886752   1.6329934  )
         4           Rh  tau(   4) = (   0.0000000   0.0000000   2.4494902  )

     number of k points=    25  Gaussian smearing, width (Ry)=  0.0200
                       cart. coord. in units 2pi/alat
        k(    1) = (   0.0555556   0.0962250   0.0000000), wk =   0.0246914
        k(    2) = (   0.0555556   0.2245251   0.0000000), wk =   0.0493827
        k(    3) = (   0.0555556   0.3528252   0.0000000), wk =   0.0493827
        k(    4) = (   0.0555556   0.4811252   0.0000000), wk =   0.0493827
        k(    5) = (   0.0555556  -0.5452753   0.0000000), wk =   0.0493827
        k(    6) = (   0.0555556  -0.4169752   0.0000000), wk =   0.0493827
        k(    7) = (   0.0555556  -0.2886751   0.0000000), wk =   0.0493827
        k(    8) = (   0.0555556  -0.1603751   0.0000000), wk =   0.0493827
        k(    9) = (   0.0555556  -0.0320750   0.0000000), wk =   0.0246914
        k(   10) = (   0.1666667   0.2886751   0.0000000), wk =   0.0246914
        k(   11) = (   0.1666667   0.4169752   0.0000000), wk =   0.0493827
        k(   12) = (   0.1666667   0.5452753   0.0000000), wk =   0.0493827
        k(   13) = (   0.1666667  -0.4811252   0.0000000), wk =   0.0493827
        k(   14) = (   0.1666667  -0.3528252   0.0000000), wk =   0.0493827
        k(   15) = (   0.1666667  -0.2245251   0.0000000), wk =   0.0493827
        k(   16) = (   0.1666667  -0.0962250   0.0000000), wk =   0.0246914
        k(   17) = (   0.2777778   0.4811252   0.0000000), wk =   0.0246914
        k(   18) = (   0.2777778   0.6094253   0.0000000), wk =   0.0493827
        k(   19) = (   0.2777778  -0.4169752   0.0000000), wk =   0.0493827
        k(   20) = (   0.2777778  -0.2886751   0.0000000), wk =   0.0493827
        k(   21) = (   0.2777778  -0.1603751   0.0000000), wk =   0.0246914
        k(   22) = (   0.3888889   0.6735753   0.0000000), wk =   0.0246914
        k(   23) = (   0.3888889  -0.3528252   0.0000000), wk =   0.0493827
        k(   24) = (   0.3888889  -0.2245251   0.0000000), wk =   0.0246914
        k(   25) = (  -0.5000000  -0.8660254   0.0000000), wk =   0.0123457

     Dense  grid:   101117 G-vectors     FFT dimensions: (  27,  27, 300)

     Smooth grid:    35839 G-vectors     FFT dimensions: (  20,  20, 216)

     Estimated max dynamical RAM per process >      88.48 MB

     Estimated total dynamical RAM >     707.84 MB
     Generating pointlists ...
     new r_m :   0.4125 (alat units)  2.1131 (a.u.) for type    1

     Initial potential from superposition of free atoms

     starting charge   57.99961, renormalised to   60.00000

     negative rho (up, down):  1.142E-01 1.119E-01
     Starting wfcs are   48 randomized atomic wfcs

     total cpu time spent up to now is        4.8 secs

     Self-consistent Calculation

     iteration #  1     ecut=    35.00 Ry     beta= 0.40
     Davidson diagonalization with overlap
     ethr =  1.00E-02,  avg # of iterations =  2.0

     negative rho (up, down):  1.172E-01 1.162E-01

     total cpu time spent up to now is       13.5 secs

     total energy              =    -684.76825384 Ry
     estimated scf accuracy    <       2.82140148 Ry

     total magnetization       =     0.22 Bohr mag/cell
     absolute magnetization    =     0.23 Bohr mag/cell

     iteration #  2     ecut=    35.00 Ry     beta= 0.40
     Davidson diagonalization with overlap
     ethr =  4.70E-03,  avg # of iterations =  1.0

     negative rho (up, down):  1.226E-01 1.229E-01

     total cpu time spent up to now is       20.3 secs

     total energy              =    -684.50536095 Ry
     estimated scf accuracy    <       0.81132323 Ry

     total magnetization       =     0.21 Bohr mag/cell
     absolute magnetization    =     0.22 Bohr mag/cell

     iteration #  3     ecut=    35.00 Ry     beta= 0.40
     Davidson diagonalization with overlap
     ethr =  1.35E-03,  avg # of iterations =  2.4

     negative rho (up, down):  1.231E-01 1.237E-01

     total cpu time spent up to now is       28.7 secs

     total energy              =    -684.65048368 Ry
     estimated scf accuracy    <       0.02359663 Ry

     total magnetization       =     0.17 Bohr mag/cell
     absolute magnetization    =     0.18 Bohr mag/cell

     iteration #  4     ecut=    35.00 Ry     beta= 0.40
     Davidson diagonalization with overlap
     ethr =  3.93E-05,  avg # of iterations =  2.9

     negative rho (up, down):  1.233E-01 1.238E-01

     total cpu time spent up to now is       36.8 secs

     total energy              =    -684.65212943 Ry
     estimated scf accuracy    <       0.01513848 Ry

     total magnetization       =     0.16 Bohr mag/cell
     absolute magnetization    =     0.17 Bohr mag/cell

     iteration #  5     ecut=    35.00 Ry     beta= 0.40
     Davidson diagonalization with overlap
     ethr =  2.52E-05,  avg # of iterations =  2.1

     negative rho (up, down):  1.235E-01 1.241E-01

     total cpu time spent up to now is       44.5 secs

     total energy              =    -684.65256743 Ry
     estimated scf accuracy    <       0.00796237 Ry

     total magnetization       =     0.13 Bohr mag/cell
     absolute magnetization    =     0.13 Bohr mag/cell

     iteration #  6     ecut=    35.00 Ry     beta= 0.40
     Davidson diagonalization with overlap
     ethr =  1.33E-05,  avg # of iterations =  1.1

     negative rho (up, down):  1.233E-01 1.239E-01

     total cpu time spent up to now is       51.7 secs

     total energy              =    -684.65285434 Ry
     estimated scf accuracy    <       0.00146318 Ry

     total magnetization       =     0.10 Bohr mag/cell
     absolute magnetization    =     0.11 Bohr mag/cell

     iteration #  7     ecut=    35.00 Ry     beta= 0.40
     Davidson diagonalization with overlap
     ethr =  2.44E-06,  avg # of iterations =  2.7

     negative rho (up, down):  1.225E-01 1.229E-01

     total cpu time spent up to now is       60.1 secs

     total energy              =    -684.65366893 Ry
     estimated scf accuracy    <       0.00184989 Ry

     total magnetization       =     0.08 Bohr mag/cell
     absolute magnetization    =     0.09 Bohr mag/cell

     iteration #  8     ecut=    35.00 Ry     beta= 0.40
     Davidson diagonalization with overlap
     ethr =  2.44E-06,  avg # of iterations =  2.1

     negative rho (up, down):  1.205E-01 1.203E-01

     total cpu time spent up to now is       67.5 secs

     total energy              =    -684.65202635 Ry
     estimated scf accuracy    <       0.00410444 Ry

     total magnetization       =     0.05 Bohr mag/cell
     absolute magnetization    =     0.06 Bohr mag/cell

     iteration #  9     ecut=    35.00 Ry     beta= 0.40
     Davidson diagonalization with overlap
     ethr =  2.44E-06,  avg # of iterations =  2.1

     negative rho (up, down):  1.192E-01 1.189E-01

     total cpu time spent up to now is       76.1 secs

     total energy              =    -684.65234044 Ry
     estimated scf accuracy    <       0.00045365 Ry

     total magnetization       =    -0.03 Bohr mag/cell
     absolute magnetization    =     0.03 Bohr mag/cell

     iteration # 10     ecut=    35.00 Ry     beta= 0.40
     Davidson diagonalization with overlap
     ethr =  7.56E-07,  avg # of iterations =  2.4

     negative rho (up, down):  1.186E-01 1.180E-01

     total cpu time spent up to now is       84.5 secs

     total energy              =    -684.65208412 Ry
     estimated scf accuracy    <       0.00095391 Ry

     total magnetization       =    -0.05 Bohr mag/cell
     absolute magnetization    =     0.05 Bohr mag/cell

     iteration # 11     ecut=    35.00 Ry     beta= 0.40
     Davidson diagonalization with overlap
     ethr =  7.56E-07,  avg # of iterations =  2.3

     negative rho (up, down):  1.180E-01 1.175E-01

     total cpu time spent up to now is       93.0 secs

     total energy              =    -684.65216252 Ry
     estimated scf accuracy    <       0.00007886 Ry

     total magnetization       =    -0.09 Bohr mag/cell
     absolute magnetization    =     0.10 Bohr mag/cell

     iteration # 12     ecut=    35.00 Ry     beta= 0.40
     Davidson diagonalization with overlap
     ethr =  1.31E-07,  avg # of iterations =  1.2

     negative rho (up, down):  1.166E-01 1.163E-01

     total cpu time spent up to now is       99.8 secs

     total energy              =    -684.65210753 Ry
     estimated scf accuracy    <       0.00006836 Ry

     total magnetization       =    -0.08 Bohr mag/cell
     absolute magnetization    =     0.09 Bohr mag/cell

     iteration # 13     ecut=    35.00 Ry     beta= 0.40
     Davidson diagonalization with overlap
     ethr =  1.14E-07,  avg # of iterations =  2.0

     negative rho (up, down):  1.162E-01 1.160E-01

     total cpu time spent up to now is      107.2 secs

     total energy              =    -684.65211146 Ry
     estimated scf accuracy    <       0.00000951 Ry

     total magnetization       =    -0.05 Bohr mag/cell
     absolute magnetization    =     0.05 Bohr mag/cell

     iteration # 14     ecut=    35.00 Ry     beta= 0.40
     Davidson diagonalization with overlap
     ethr =  1.58E-08,  avg # of iterations =  2.1

     negative rho (up, down):  1.158E-01 1.157E-01

     total cpu time spent up to now is      114.8 secs

     total energy              =    -684.65211000 Ry
     estimated scf accuracy    <       0.00000361 Ry

     total magnetization       =    -0.04 Bohr mag/cell
     absolute magnetization    =     0.04 Bohr mag/cell

     iteration # 15     ecut=    35.00 Ry     beta= 0.40
     Davidson diagonalization with overlap
     ethr =  6.02E-09,  avg # of iterations =  2.1

     negative rho (up, down):  1.157E-01 1.156E-01
 
     Magnetic moment per site:
     atom:    1    charge:   13.1769    magn:   -0.0076    constr:    0.0000
     atom:    2    charge:   13.2351    magn:   -0.0028    constr:    0.0000
     atom:    3    charge:   13.2353    magn:   -0.0028    constr:    0.0000
     atom:    4    charge:   13.1771    magn:   -0.0076    constr:    0.0000

     total cpu time spent up to now is      122.4 secs

     End of self-consistent calculation

 ------ SPIN UP ------------


          k = 0.0556 0.0962 0.0000 (  4451 PWs)   bands (ev):

   -44.4022 -44.1073 -43.9625 -43.9436 -43.9228 -43.8902 -43.5327 -43.5189
   -43.5047 -43.5014 -43.4714 -43.4710  -4.4345  -3.3026  -2.8280  -2.5730
    -0.7118  -0.5590  -0.5359  -0.1291  -0.0738  -0.0585   0.0155   0.0982
     0.3644   0.4689   0.5053   1.4065   1.5008   1.5977   1.9332   2.0627
     2.2363   2.7218   2.9541   3.8333

          k = 0.0556 0.2245 0.0000 (  4420 PWs)   bands (ev):

   -44.3647 -44.1608 -44.0642 -44.0311 -43.9739 -43.9212 -43.6316 -43.6294
   -43.5169 -43.5083 -43.5045 -43.5037  -3.5541  -2.5866  -2.2326  -1.8773
    -1.3004  -0.9975  -0.9297  -0.2226  -0.2050  -0.0902   0.2037   0.3418
     0.5881   0.8558   0.9546   1.0492   1.2501   1.5253   1.8246   2.0157
     2.4791   2.9258   3.3138   5.1951

          k = 0.0556 0.3528 0.0000 (  4467 PWs)   bands (ev):

   -44.3416 -44.3039 -44.1964 -44.0707 -44.0251 -43.9613 -43.7935 -43.7841
   -43.5487 -43.5484 -43.5021 -43.4975  -2.8379  -2.6111  -2.2903  -1.9958
    -1.6978  -1.3096  -0.5793  -0.5141  -0.0639   0.0856   0.4898   0.7960
     0.9706   1.1389   1.5275   1.7481   2.1274   2.2298   2.5318   2.6408
     2.7540   3.0212   4.3163   6.6689

          k = 0.0556 0.4811 0.0000 (  4463 PWs)   bands (ev):

   -44.4313 -44.4017 -44.2062 -44.1097 -44.0609 -43.9923 -43.9039 -43.8916
   -43.5819 -43.5816 -43.4922 -43.4885  -3.0403  -2.8816  -2.7025  -2.3064
    -2.0305  -1.6352  -0.7660  -0.4225  -0.0660   0.4064   0.7649   1.1558
     1.9344   2.0609   2.4201   2.6144   2.8198   2.8881   3.0798   3.3181
     4.0181   4.6963   5.7541   7.8775

          k = 0.0556-0.5453 0.0000 (  4486 PWs)   bands (ev):

   -44.4596 -44.4259 -44.1988 -44.1231 -44.0695 -43.9997 -43.9247 -43.9165
   -43.5895 -43.5893 -43.4900 -43.4869  -3.1432  -2.9346  -2.8038  -2.3796
    -2.1144  -1.7126  -0.7936  -0.5237  -0.1084   0.5954   0.7789   1.2659
     2.0700   2.2452   2.6400   2.8266   2.9355   3.1345   3.3461   3.4426
     4.7468   5.9424   6.3519   7.3817

          k = 0.0556-0.4170 0.0000 (  4465 PWs)   bands (ev):

   -44.3799 -44.3627 -44.2129 -44.0900 -44.0458 -43.9792 -43.8591 -43.8469
   -43.5679 -43.5677 -43.4965 -43.4921  -2.8667  -2.7963  -2.5144  -2.1774
    -1.8781  -1.4928  -0.6954  -0.2578  -0.0450   0.0839   0.6537   1.0655
     1.3818   1.8535   1.9480   2.2074   2.4236   2.6923   2.7257   3.1109
     3.2692   3.5758   4.9959   7.4012

          k = 0.0556-0.2887 0.0000 (  4439 PWs)   bands (ev):

   -44.3452 -44.2277 -44.1392 -44.0532 -43.9998 -43.9410 -43.7138 -43.7084
   -43.5265 -43.5261 -43.5087 -43.5028  -3.0868  -2.4621  -2.1588  -1.6934
    -1.6188  -1.1206  -0.9512  -0.3999  -0.1058   0.1545   0.2147   0.4462
     0.6606   0.9797   1.1042   1.2840   1.6974   1.9730   2.0102   2.2128
     2.5171   2.9687   3.7637   5.9230

          k = 0.0556-0.1604 0.0000 (  4443 PWs)   bands (ev):

   -44.3860 -44.1222 -44.0019 -43.9888 -43.9494 -43.9038 -43.5598 -43.5591
   -43.5252 -43.5117 -43.4854 -43.4853  -4.0498  -2.9540  -2.5273  -2.2424
    -0.9726  -0.7702  -0.7348  -0.1729  -0.1012   0.0407   0.0959   0.1894
     0.2688   0.6757   0.7838   1.2009   1.3155   1.3568   1.7351   2.0324
     2.3828   2.8728   3.0000   4.4907

          k = 0.0556-0.0321 0.0000 (  4465 PWs)   bands (ev):

   -44.4113 -44.1034 -43.9392 -43.9304 -43.8960 -43.8829 -43.5372 -43.5187
   -43.4754 -43.4749 -43.4639 -43.4637  -4.6404  -3.4986  -3.0004  -2.7623
    -0.5192  -0.4838  -0.4200  -0.2786  -0.1896  -0.1156   0.1214   0.2058
     0.2500   0.3568   0.5827   1.5278   1.5309   1.9007   1.9393   2.1272
     2.5144   2.5683   3.0027   3.3120

          k = 0.1667 0.2887 0.0000 (  4425 PWs)   bands (ev):

   -44.3346 -44.2522 -44.1819 -44.0586 -44.0230 -43.9798 -43.7467 -43.7411
   -43.5596 -43.5592 -43.5027 -43.4994  -2.6687  -2.1538  -1.8281  -1.7391
    -1.5600  -1.2523  -0.8417  -0.6229  -0.3421  -0.2763  -0.1862   0.4128
     0.5115   0.9790   1.1396   1.5742   2.0589   2.3060   2.4455   2.7393
     2.8212   2.8812   4.3113   6.4879

          k = 0.1667 0.4170 0.0000 (  4459 PWs)   bands (ev):

   -44.3674 -44.3480 -44.2165 -44.1110 -44.0732 -44.0341 -43.8467 -43.8403
   -43.6232 -43.6213 -43.4918 -43.4900  -2.4807  -2.3745  -2.1841  -1.8369
    -1.3994  -1.3415  -0.9589  -0.5258  -0.3295   0.0751   0.3440   0.5767
     0.7317   1.1111   1.6200   1.7841   2.0484   2.6822   3.0256   3.2242
     4.5042   4.8813   6.0797   8.1769

          k = 0.1667 0.5453 0.0000 (  4490 PWs)   bands (ev):

   -44.4233 -44.3900 -44.1886 -44.1691 -44.0849 -44.0690 -43.8935 -43.8912
   -43.6577 -43.6556 -43.4858 -43.4850  -2.7472  -2.4597  -2.3977  -1.9239
    -1.5608  -1.4915  -1.1446  -0.3707  -0.0658   0.1095   0.2758   1.0864
     1.3248   1.5549   1.8921   2.3141   2.5078   2.7710   2.9525   3.2278
     6.4883   7.2013   7.9231   8.5985

          k = 0.1667-0.4811 0.0000 (  4476 PWs)   bands (ev):

   -44.4027 -44.3757 -44.2040 -44.1438 -44.0828 -44.0547 -43.8782 -43.8732
   -43.6457 -43.6436 -43.4881 -43.4865  -2.6522  -2.4278  -2.3208  -1.8910
    -1.4983  -1.4360  -1.0668  -0.3932  -0.1036  -0.0167   0.3467   0.9431
     1.0988   1.3464   1.8166   2.0610   2.1852   2.7234   3.0655   3.3137
     5.5204   6.0730   7.1562   8.9291

          k = 0.1667-0.3528 0.0000 (  4458 PWs)   bands (ev):

   -44.3388 -44.3047 -44.2154 -44.0781 -44.0545 -44.0094 -43.8019 -43.7950
   -43.5929 -43.5920 -43.4968 -43.4952  -2.4125  -2.2470  -2.0286  -1.7685
    -1.3864  -1.2902  -0.9130  -0.6460  -0.3648  -0.0461   0.1181   0.2655
     0.5430   0.9812   1.3271   1.7751   1.9999   2.5823   2.7712   2.9874
     3.5911   3.7789   5.0843   7.2881

          k = 0.1667-0.2245 0.0000 (  4433 PWs)   bands (ev):

   -44.3482 -44.2025 -44.1244 -44.0462 -43.9942 -43.9481 -43.6876 -43.6841
   -43.5290 -43.5288 -43.5102 -43.5038  -3.1177  -2.2874  -2.0196  -1.6695
    -1.4560  -1.2017  -0.9734  -0.4695  -0.3226  -0.2278   0.0504   0.3554
     0.6885   0.9416   1.0321   1.2009   1.7010   2.0070   2.0858   2.2579
     2.3860   2.8203   3.7509   5.7900

          k = 0.1667-0.0962 0.0000 (  4427 PWs)   bands (ev):

   -44.3788 -44.1336 -44.0233 -44.0049 -43.9616 -43.9060 -43.5863 -43.5852
   -43.5222 -43.5104 -43.4904 -43.4898  -3.8790  -2.8270  -2.4236  -2.1118
    -1.1181  -0.8272  -0.8019  -0.1682  -0.1062   0.0501   0.1687   0.3066
     0.3140   0.7205   0.9010   1.0110   1.2459   1.4132   1.7097   1.9133
     2.5559   2.9365   3.0358   4.7370

          k = 0.2778 0.4811 0.0000 (  4485 PWs)   bands (ev):

   -44.3703 -44.3473 -44.2442 -44.1668 -44.1290 -44.0808 -43.8524 -43.8491
   -43.7193 -43.7152 -43.4845 -43.4839  -2.3092  -2.1685  -1.8456  -1.5244
    -1.3890  -1.2012  -1.1097  -0.5415  -0.2936   0.1454   0.3251   0.4053
     0.5485   1.0727   1.5779   1.6605   2.1126   2.7016   2.9751   3.2027
     6.8640   7.5556   8.7124  10.3452

          k = 0.2778 0.6094 0.0000 (  4491 PWs)   bands (ev):

   -44.3604 -44.3361 -44.2689 -44.1983 -44.1214 -44.0946 -43.8443 -43.8386
   -43.7530 -43.7483 -43.4827 -43.4821  -2.2746  -2.0295  -1.7837  -1.5743
    -1.5368  -1.0915  -1.0635  -0.4399  -0.3035   0.0988   0.2332   0.4878
     0.5884   1.0892   1.5785   1.6799   2.3333   2.7015   2.8056   2.9851
     8.1211   8.8563   9.5203  10.1869

          k = 0.2778-0.4170 0.0000 (  4462 PWs)   bands (ev):

   -44.3745 -44.3529 -44.2225 -44.1365 -44.1089 -44.0631 -43.8542 -43.8519
   -43.6720 -43.6691 -43.4872 -43.4864  -2.4051  -2.2362  -2.0029  -1.6713
    -1.2903  -1.2170  -1.1277  -0.5988  -0.3434   0.1575   0.3369   0.4471
     0.5865   1.0366   1.6342   1.7557   1.9421   2.7049   3.0882   3.3140
     5.6482   6.1826   7.3495   9.2370

          k = 0.2778-0.2887 0.0000 (  4463 PWs)   bands (ev):

   -44.3517 -44.3327 -44.2124 -44.0861 -44.0478 -43.9943 -43.8261 -43.8170
   -43.5802 -43.5797 -43.4969 -43.4936  -2.6184  -2.5314  -2.3029  -1.9507
    -1.5732  -1.3781  -0.7747  -0.4908  -0.1494  -0.0119   0.4331   0.7163
     0.8880   1.1755   1.5315   1.8603   2.1524   2.6495   2.7359   3.0179
     3.4758   3.7043   5.0349   7.3178

          k = 0.2778-0.1604 0.0000 (  4458 PWs)   bands (ev):

   -44.3413 -44.2653 -44.1677 -44.0613 -44.0090 -43.9433 -43.7531 -43.7454
   -43.5313 -43.5308 -43.5060 -43.5007  -2.9998  -2.5959  -2.2410  -1.8988
    -1.7087  -1.2017  -0.6720  -0.4296  -0.0313   0.2028   0.4514   0.7031
     0.9017   0.9916   1.3727   1.4805   1.7949   2.0715   2.1072   2.2148
     2.5504   3.0777   3.9084   6.2101

          k = 0.3889 0.6736 0.0000 (  4511 PWs)   bands (ev):

   -44.3952 -44.3633 -44.2239 -44.1812 -44.1094 -44.0900 -43.8727 -43.8674
   -43.7092 -43.7053 -43.4839 -43.4834  -2.5255  -2.1684  -2.0403  -1.7141
    -1.4792  -1.2541  -1.1555  -0.4153  -0.2125   0.0301   0.2086   0.8843
     0.9649   1.0778   1.7062   1.9997   2.4400   2.7298   2.8220   3.0773
     7.6672   8.1933   8.7354   9.2899

          k = 0.3889-0.3528 0.0000 (  4485 PWs)   bands (ev):

   -44.4359 -44.4039 -44.1971 -44.1330 -44.0752 -44.0258 -43.9052 -43.8983
   -43.6134 -43.6126 -43.4892 -43.4868  -2.9280  -2.7203  -2.6293  -2.1571
    -1.8553  -1.6137  -0.9249  -0.4005  -0.0912   0.3246   0.4993   1.2019
     1.7021   1.9310   2.1034   2.5287   2.6482   2.7912   3.0997   3.3241
     5.2238   5.9384   6.7804   8.2524

          k = 0.3889-0.2245 0.0000 (  4444 PWs)   bands (ev):

   -44.4107 -44.3861 -44.2113 -44.0967 -44.0494 -43.9764 -43.8875 -43.8734
   -43.5669 -43.5664 -43.4947 -43.4902  -3.0269  -2.9100  -2.6536  -2.3153
    -2.0408  -1.5855  -0.6840  -0.3749  -0.0199   0.3207   0.9293   0.9875
     1.8763   2.0818   2.4739   2.6848   2.7222   2.8272   3.0047   3.1347
     3.2596   3.6788   5.1471   7.5783

          k =-0.5000-0.8660 0.0000 (  4492 PWs)   bands (ev):

   -44.4681 -44.4340 -44.2003 -44.1210 -44.0658 -43.9895 -43.9324 -43.9226
   -43.5813 -43.5805 -43.4908 -43.4869  -3.2226  -3.0106  -2.8598  -2.4602
    -2.2060  -1.7462  -0.7475  -0.5716  -0.1186   0.6860   0.9381   1.2350
     2.1536   2.3396   2.8620   2.8979   3.1148   3.2741   3.5987   3.6187
     4.3869   5.9224   6.4247   6.7307

 ------ SPIN DOWN ----------


          k = 0.0556 0.0962 0.0000 (  4451 PWs)   bands (ev):

   -44.4055 -44.1110 -43.9657 -43.9469 -43.9261 -43.8934 -43.5430 -43.5286
   -43.5122 -43.5092 -43.4790 -43.4786  -4.4346  -3.3031  -2.8302  -2.5756
    -0.7162  -0.5616  -0.5386  -0.1321  -0.0768  -0.0629   0.0102   0.0924
     0.3591   0.4637   0.4999   1.4020   1.4964   1.5914   1.9272   2.0572
     2.2305   2.7156   2.9484   3.8284

          k = 0.0556 0.2245 0.0000 (  4420 PWs)   bands (ev):

   -44.3679 -44.1643 -44.0676 -44.0345 -43.9772 -43.9245 -43.6391 -43.6368
   -43.5272 -43.5181 -43.5121 -43.5115  -3.5543  -2.5875  -2.2346  -1.8801
    -1.3036  -1.0010  -0.9328  -0.2270  -0.2090  -0.0958   0.1999   0.3374
     0.5846   0.8505   0.9502   1.0431   1.2445   1.5195   1.8191   2.0098
     2.4722   2.9203   3.3086   5.1908

          k = 0.0556 0.3528 0.0000 (  4467 PWs)   bands (ev):

   -44.3448 -44.3072 -44.1999 -44.0743 -44.0284 -43.9646 -43.8008 -43.7913
   -43.5562 -43.5559 -43.5125 -43.5078  -2.8391  -2.6131  -2.2926  -1.9989
    -1.7010  -1.3137  -0.5835  -0.5173  -0.0685   0.0817   0.4845   0.7917
     0.9662   1.1337   1.5225   1.7433   2.1206   2.2256   2.5255   2.6354
     2.7489   3.0159   4.3120   6.6653

          k = 0.0556 0.4811 0.0000 (  4463 PWs)   bands (ev):

   -44.4345 -44.4050 -44.2097 -44.1135 -44.0642 -43.9957 -43.9109 -43.8983
   -43.5894 -43.5891 -43.5028 -43.4989  -3.0424  -2.8835  -2.7049  -2.3099
    -2.0340  -1.6393  -0.7707  -0.4265  -0.0697   0.4014   0.7596   1.1506
     1.9288   2.0544   2.4155   2.6084   2.8141   2.8839   3.0748   3.3124
     4.0142   4.6937   5.7516   7.8751

          k = 0.0556-0.5453 0.0000 (  4486 PWs)   bands (ev):

   -44.4629 -44.4291 -44.2024 -44.1271 -44.0728 -44.0031 -43.9315 -43.9230
   -43.5971 -43.5968 -43.5005 -43.4974  -3.1454  -2.9365  -2.8063  -2.3832
    -2.1180  -1.7168  -0.7986  -0.5274  -0.1122   0.5901   0.7736   1.2606
     2.0630   2.2384   2.6359   2.8216   2.9296   3.1305   3.3401   3.4366
     4.7442   5.9406   6.3501   7.3800

          k = 0.0556-0.4170 0.0000 (  4465 PWs)   bands (ev):

   -44.3832 -44.3660 -44.2164 -44.0937 -44.0491 -43.9825 -43.8664 -43.8539
   -43.5754 -43.5752 -43.5070 -43.5025  -2.8686  -2.7981  -2.5168  -2.1807
    -1.8815  -1.4969  -0.6998  -0.2620  -0.0489   0.0798   0.6483   1.0603
     1.3774   1.8492   1.9420   2.2008   2.4183   2.6872   2.7209   3.1058
     3.2639   3.5719   4.9923   7.3980

          k = 0.0556-0.2887 0.0000 (  4439 PWs)   bands (ev):

   -44.3484 -44.2311 -44.1426 -44.0567 -44.0031 -43.9443 -43.7212 -43.7158
   -43.5340 -43.5336 -43.5190 -43.5130  -3.0874  -2.4638  -2.1608  -1.6967
    -1.6213  -1.1241  -0.9548  -0.4040  -0.1102   0.1504   0.2103   0.4414
     0.6556   0.9754   1.0986   1.2796   1.6927   1.9668   2.0041   2.2073
     2.5105   2.9633   3.7588   5.9190

          k = 0.0556-0.1604 0.0000 (  4443 PWs)   bands (ev):

   -44.3892 -44.1258 -44.0052 -43.9921 -43.9526 -43.9071 -43.5674 -43.5668
   -43.5354 -43.5216 -43.4930 -43.4928  -4.0499  -2.9545  -2.5294  -2.2451
    -0.9766  -0.7732  -0.7372  -0.1776  -0.1062   0.0350   0.0925   0.1863
     0.2643   0.6709   0.7784   1.1954   1.3091   1.3516   1.7301   2.0266
     2.3760   2.8672   2.9944   4.4862

          k = 0.0556-0.0321 0.0000 (  4465 PWs)   bands (ev):

   -44.4146 -44.1072 -43.9424 -43.9337 -43.8993 -43.8861 -43.5475 -43.5286
   -43.4829 -43.4824 -43.4715 -43.4713  -4.6405  -3.4990  -3.0026  -2.7649
    -0.5238  -0.4868  -0.4229  -0.2814  -0.1924  -0.1203   0.1160   0.2003
     0.2447   0.3514   0.5768   1.5237   1.5268   1.8951   1.9331   2.1211
     2.5100   2.5608   2.9969   3.3070

          k = 0.1667 0.2887 0.0000 (  4425 PWs)   bands (ev):

   -44.3378 -44.2556 -44.1853 -44.0621 -44.0263 -43.9831 -43.7541 -43.7484
   -43.5671 -43.5668 -43.5130 -43.5097  -2.6694  -2.1555  -1.8303  -1.7410
    -1.5629  -1.2559  -0.8448  -0.6271  -0.3473  -0.2810  -0.1905   0.4088
     0.5062   0.9731   1.1334   1.5699   2.0524   2.3010   2.4391   2.7347
     2.8162   2.8759   4.3068   6.4841

          k = 0.1667 0.4170 0.0000 (  4459 PWs)   bands (ev):

   -44.3706 -44.3513 -44.2199 -44.1145 -44.0767 -44.0375 -43.8539 -43.8473
   -43.6307 -43.6288 -43.5023 -43.5004  -2.4829  -2.3765  -2.1865  -1.8397
    -1.4027  -1.3454  -0.9629  -0.5295  -0.3328   0.0703   0.3389   0.5726
     0.7269   1.1058   1.6144   1.7778   2.0419   2.6753   3.0199   3.2196
     4.5006   4.8774   6.0763   8.1737

          k = 0.1667 0.5453 0.0000 (  4490 PWs)   bands (ev):

   -44.4266 -44.3933 -44.1921 -44.1726 -44.0885 -44.0725 -43.9004 -43.8980
   -43.6652 -43.6630 -43.4963 -43.4955  -2.7495  -2.4618  -2.4000  -1.9273
    -1.5643  -1.4957  -1.1485  -0.3744  -0.0705   0.1051   0.2707   1.0815
     1.3202   1.5501   1.8853   2.3095   2.5011   2.7626   2.9476   3.2231
     6.4860   7.1989   7.9208   8.5967

          k = 0.1667-0.4811 0.0000 (  4476 PWs)   bands (ev):

   -44.4059 -44.3789 -44.2075 -44.1473 -44.0863 -44.0581 -43.8853 -43.8801
   -43.6532 -43.6510 -43.4986 -43.4970  -2.6546  -2.4298  -2.3231  -1.8942
    -1.5017  -1.4401  -1.0708  -0.3968  -0.1070  -0.0219   0.3414   0.9388
     1.0938   1.3417   1.8098   2.0561   2.1787   2.7159   3.0598   3.3090
     5.5175   6.0699   7.1533   8.9266

          k = 0.1667-0.3528 0.0000 (  4458 PWs)   bands (ev):

   -44.3420 -44.3080 -44.2188 -44.0816 -44.0579 -44.0128 -43.8092 -43.8022
   -43.6004 -43.5995 -43.5072 -43.5055  -2.4140  -2.2491  -2.0309  -1.7709
    -1.3891  -1.2939  -0.9167  -0.6500  -0.3688  -0.0507   0.1137   0.2607
     0.5383   0.9755   1.3209   1.7698   1.9931   2.5757   2.7659   2.9830
     3.5867   3.7744   5.0804   7.2846

          k = 0.1667-0.2245 0.0000 (  4433 PWs)   bands (ev):

   -44.3515 -44.2060 -44.1278 -44.0496 -43.9975 -43.9515 -43.6950 -43.6915
   -43.5365 -43.5363 -43.5205 -43.5140  -3.1181  -2.2886  -2.0216  -1.6718
    -1.4593  -1.2052  -0.9767  -0.4736  -0.3275  -0.2330   0.0462   0.3511
     0.6834   0.9357   1.0268   1.1967   1.6963   2.0017   2.0792   2.2523
     2.3795   2.8150   3.7459   5.7860

          k = 0.1667-0.0962 0.0000 (  4427 PWs)   bands (ev):

   -44.3820 -44.1372 -44.0267 -44.0082 -43.9649 -43.9093 -43.5938 -43.5927
   -43.5325 -43.5205 -43.4979 -43.4973  -3.8791  -2.8277  -2.4256  -2.1146
    -1.1217  -0.8307  -0.8046  -0.1730  -0.1109   0.0449   0.1654   0.3037
     0.3091   0.7160   0.8956   1.0055   1.2392   1.4079   1.7040   1.9077
     2.5487   2.9314   3.0302   4.7325

          k = 0.2778 0.4811 0.0000 (  4485 PWs)   bands (ev):

   -44.3736 -44.3506 -44.2475 -44.1702 -44.1325 -44.0843 -43.8596 -43.8562
   -43.7267 -43.7225 -43.4950 -43.4944  -2.3115  -2.1712  -1.8479  -1.5272
    -1.3924  -1.2041  -1.1134  -0.5452  -0.2971   0.1396   0.3199   0.4006
     0.5437   1.0683   1.5723   1.6553   2.1052   2.6933   2.9691   3.1985
     6.8615   7.5525   8.7095  10.3426

          k = 0.2778 0.6094 0.0000 (  4491 PWs)   bands (ev):

   -44.3637 -44.3393 -44.2722 -44.2016 -44.1249 -44.0980 -43.8515 -43.8457
   -43.7604 -43.7556 -43.4933 -43.4926  -2.2771  -2.0321  -1.7859  -1.5777
    -1.5398  -1.0946  -1.0670  -0.4435  -0.3070   0.0930   0.2275   0.4827
     0.5836   1.0853   1.5729   1.6750   2.3246   2.6929   2.8006   2.9810
     8.1190   8.8538   9.5182  10.1846

          k = 0.2778-0.4170 0.0000 (  4462 PWs)   bands (ev):

   -44.3777 -44.3562 -44.2259 -44.1400 -44.1124 -44.0665 -43.8613 -43.8590
   -43.6795 -43.6765 -43.4977 -43.4969  -2.4074  -2.2385  -2.0053  -1.6742
    -1.2933  -1.2208  -1.1312  -0.6026  -0.3470   0.1521   0.3321   0.4428
     0.5816   1.0316   1.6285   1.7502   1.9350   2.6972   3.0820   3.3097
     5.6452   6.1791   7.3463   9.2340

          k = 0.2778-0.2887 0.0000 (  4463 PWs)   bands (ev):

   -44.3549 -44.3360 -44.2159 -44.0896 -44.0511 -43.9977 -43.8334 -43.8241
   -43.5877 -43.5872 -43.5073 -43.5040  -2.6199  -2.5335  -2.3053  -1.9536
    -1.5765  -1.3822  -0.7789  -0.4943  -0.1526  -0.0170   0.4278   0.7122
     0.8835   1.1699   1.5263   1.8543   2.1454   2.6436   2.7309   3.0131
     3.4712   3.6999   5.0311   7.3144

          k = 0.2778-0.1604 0.0000 (  4458 PWs)   bands (ev):

   -44.3445 -44.2687 -44.1711 -44.0648 -44.0123 -43.9466 -43.7605 -43.7527
   -43.5389 -43.5383 -43.5164 -43.5109  -3.0007  -2.5978  -2.2431  -1.9020
    -1.7117  -1.2057  -0.6753  -0.4335  -0.0362   0.1993   0.4462   0.6983
     0.8973   0.9871   1.3688   1.4752   1.7906   2.0654   2.1009   2.2088
     2.5441   3.0724   3.9037   6.2063

          k = 0.3889 0.6736 0.0000 (  4511 PWs)   bands (ev):

   -44.3985 -44.3666 -44.2273 -44.1846 -44.1130 -44.0935 -43.8797 -43.8744
   -43.7167 -43.7126 -43.4944 -43.4939  -2.5279  -2.1706  -2.0425  -1.7174
    -1.4825  -1.2581  -1.1588  -0.4191  -0.2161   0.0244   0.2035   0.8796
     0.9603   1.0731   1.6999   1.9951   2.4316   2.7217   2.8171   3.0730
     7.6652   8.1911   8.7330   9.2878

          k = 0.3889-0.3528 0.0000 (  4485 PWs)   bands (ev):

   -44.4391 -44.4071 -44.2006 -44.1367 -44.0788 -44.0293 -43.9121 -43.9050
   -43.6209 -43.6201 -43.4997 -43.4972  -2.9302  -2.7223  -2.6317  -2.1605
    -1.8588  -1.6179  -0.9293  -0.4041  -0.0956   0.3200   0.4942   1.1968
     1.6971   1.9252   2.0975   2.5229   2.6434   2.7842   3.0944   3.3189
     5.2210   5.9358   6.7780   8.2504

          k = 0.3889-0.2245 0.0000 (  4444 PWs)   bands (ev):

   -44.4140 -44.3893 -44.2148 -44.1006 -44.0527 -43.9796 -43.8947 -43.8802
   -43.5744 -43.5739 -43.5052 -43.5006  -3.0289  -2.9118  -2.6560  -2.3188
    -2.0443  -1.5896  -0.6886  -0.3792  -0.0233   0.3158   0.9240   0.9822
     1.8708   2.0754   2.4679   2.6809   2.7180   2.8234   2.9996   3.1280
     3.2537   3.6765   5.1441   7.5754

          k =-0.5000-0.8660 0.0000 (  4492 PWs)   bands (ev):

   -44.4714 -44.4373 -44.2040 -44.1251 -44.0691 -43.9928 -43.9392 -43.9291
   -43.5888 -43.5880 -43.5014 -43.4974  -3.2248  -3.0125  -2.8622  -2.4638
    -2.2096  -1.7503  -0.7528  -0.5753  -0.1220   0.6804   0.9327   1.2296
     2.1465   2.3323   2.8563   2.8927   3.1117   3.2704   3.5918   3.6121
     4.3848   5.9214   6.4229   6.7291

     the Fermi energy is     2.5528 ev

!    total energy              =    -684.65211227 Ry
     estimated scf accuracy    <       0.00000085 Ry
     smearing contrib. (-TS)   =      -0.01886950 Ry
     internal energy E=F+TS    =    -684.63324277 Ry

     The total energy is F=E-TS. E is the sum of the following terms:
     one-electron contribution =   -9442.66740847 Ry
     hartree contribution      =    4734.92026294 Ry
     xc contribution           =    -119.54561751 Ry
     ewald contribution        =    4142.65952027 Ry

     total magnetization       =    -0.02 Bohr mag/cell
     absolute magnetization    =     0.02 Bohr mag/cell

     convergence has been achieved in  15 iterations

     negative rho (up, down):  1.157E-01 1.156E-01

     Forces acting on atoms (cartesian axes, Ry/au):

     atom    1 type  1   force =     0.00000000    0.00000000    0.01027179
     atom    2 type  1   force =     0.00000000    0.00000000    0.00022946
     atom    3 type  1   force =     0.00000000    0.00000000   -0.00021164
     atom    4 type  1   force =     0.00000000    0.00000000   -0.01028960

     Total force =     0.014542     Total SCF correction =     0.004228
     SCF correction compared to forces is large: reduce conv_thr to get better values

     BFGS Geometry Optimization
     Energy error            =      0.0E+00
     Gradient error          =      1.0E-02

     number of scf cycles    =   1
     number of bfgs steps    =   0

     energy   new            =    -684.6521122725 Ry

     new trust radius        =       0.0102896011 bohr
     new conv_thr            =       0.0000010000 Ry


ATOMIC_POSITIONS (angstrom)
Rh            0.0000000000        0.0000000000        0.0054355953
Rh            2.7108568000        1.5651139000        2.2135267229
Rh            1.3554284000        0.7825569000        4.4266986042
Rh            0.0000000000        0.0000000000        6.6347708776



     Writing output data file /home/STUDENTI/leonardo.razzai/WORK/relax_surf/4-L.save/
     NEW-OLD atomic charge density approx. for the potential

     negative rho (up, down):  1.157E-01 1.156E-01
     Generating pointlists ...

     total cpu time spent up to now is      124.9 secs

     Self-consistent Calculation

     iteration #  1     ecut=    35.00 Ry     beta= 0.40
     Davidson diagonalization with overlap
     ethr =  1.00E-06,  avg # of iterations =  5.3

     negative rho (up, down):  1.157E-01 1.156E-01

     total cpu time spent up to now is      137.4 secs

     total energy              =    -684.65217883 Ry
     estimated scf accuracy    <       0.00414035 Ry

     total magnetization       =    -0.02 Bohr mag/cell
     absolute magnetization    =     0.02 Bohr mag/cell

     iteration #  2     ecut=    35.00 Ry     beta= 0.40
     Davidson diagonalization with overlap
     ethr =  6.90E-06,  avg # of iterations =  1.0

     negative rho (up, down):  1.157E-01 1.156E-01

     total cpu time spent up to now is      144.3 secs

     total energy              =    -684.65228272 Ry
     estimated scf accuracy    <       0.00167593 Ry

     total magnetization       =    -0.01 Bohr mag/cell
     absolute magnetization    =     0.02 Bohr mag/cell

     iteration #  3     ecut=    35.00 Ry     beta= 0.40
     Davidson diagonalization with overlap
     ethr =  2.79E-06,  avg # of iterations =  1.0

     negative rho (up, down):  1.157E-01 1.156E-01

     total cpu time spent up to now is      151.2 secs

     total energy              =    -684.65231605 Ry
     estimated scf accuracy    <       0.00027065 Ry

     total magnetization       =    -0.01 Bohr mag/cell
     absolute magnetization    =     0.01 Bohr mag/cell

     iteration #  4     ecut=    35.00 Ry     beta= 0.40
     Davidson diagonalization with overlap
     ethr =  4.51E-07,  avg # of iterations =  1.0

     negative rho (up, down):  1.156E-01 1.156E-01

     total cpu time spent up to now is      158.1 secs

     total energy              =    -684.65230858 Ry
     estimated scf accuracy    <       0.00010983 Ry

     total magnetization       =    -0.01 Bohr mag/cell
     absolute magnetization    =     0.01 Bohr mag/cell

     iteration #  5     ecut=    35.00 Ry     beta= 0.40
     Davidson diagonalization with overlap
     ethr =  1.83E-07,  avg # of iterations =  1.2

     negative rho (up, down):  1.156E-01 1.156E-01

     total cpu time spent up to now is      165.1 secs

     total energy              =    -684.65231230 Ry
     estimated scf accuracy    <       0.00000308 Ry

     total magnetization       =    -0.01 Bohr mag/cell
     absolute magnetization    =     0.01 Bohr mag/cell

     iteration #  6     ecut=    35.00 Ry     beta= 0.40
     Davidson diagonalization with overlap
     ethr =  5.13E-09,  avg # of iterations =  2.6

     negative rho (up, down):  1.156E-01 1.156E-01

     total cpu time spent up to now is      172.9 secs

     total energy              =    -684.65231251 Ry
     estimated scf accuracy    <       0.00000336 Ry

     total magnetization       =    -0.01 Bohr mag/cell
     absolute magnetization    =     0.01 Bohr mag/cell

     iteration #  7     ecut=    35.00 Ry     beta= 0.40
     Davidson diagonalization with overlap
     ethr =  5.13E-09,  avg # of iterations =  1.0

     negative rho (up, down):  1.157E-01 1.156E-01
 
     Magnetic moment per site:
     atom:    1    charge:   13.1791    magn:   -0.0016    constr:    0.0000
     atom:    2    charge:   13.2368    magn:   -0.0007    constr:    0.0000
     atom:    3    charge:   13.2371    magn:   -0.0007    constr:    0.0000
     atom:    4    charge:   13.1791    magn:   -0.0016    constr:    0.0000

     total cpu time spent up to now is      179.6 secs

     End of self-consistent calculation

 ------ SPIN UP ------------


          k = 0.0556 0.0962 0.0000 (  4451 PWs)   bands (ev):

   -44.4292 -44.1348 -43.9868 -43.9679 -43.9471 -43.9143 -43.5621 -43.5476
   -43.5319 -43.5287 -43.4986 -43.4983  -4.4616  -3.3296  -2.8577  -2.6021
    -0.7374  -0.5837  -0.5633  -0.1561  -0.1033  -0.0818  -0.0151   0.0736
     0.3356   0.4441   0.4755   1.3812   1.4766   1.5709   1.9099   2.0363
     2.2098   2.6990   2.9345   3.8152

          k = 0.0556 0.2245 0.0000 (  4420 PWs)   bands (ev):

   -44.3914 -44.1869 -44.0890 -44.0565 -43.9982 -43.9454 -43.6587 -43.6564
   -43.5462 -43.5371 -43.5317 -43.5311  -3.5814  -2.6148  -2.2619  -1.9075
    -1.3295  -1.0293  -0.9580  -0.2460  -0.2329  -0.1141   0.1737   0.3173
     0.5605   0.8303   0.9227   1.0237   1.2219   1.5008   1.8042   1.9902
     2.4564   2.9066   3.2939   5.1802

          k = 0.0556 0.3528 0.0000 (  4467 PWs)   bands (ev):

   -44.3674 -44.3289 -44.2220 -44.0973 -44.0494 -43.9856 -43.8203 -43.8106
   -43.5759 -43.5756 -43.5317 -43.5269  -2.8659  -2.6409  -2.3199  -2.0280
    -1.7260  -1.3428  -0.6035  -0.5435  -0.0867   0.0536   0.4619   0.7675
     0.9394   1.1108   1.5044   1.7231   2.1060   2.2025   2.5112   2.6162
     2.7313   3.0032   4.3003   6.6563

          k = 0.0556 0.4811 0.0000 (  4463 PWs)   bands (ev):

   -44.4560 -44.4267 -44.2328 -44.1367 -44.0854 -44.0167 -43.9302 -43.9175
   -43.6090 -43.6087 -43.5222 -43.5183  -3.0702  -2.9104  -2.7330  -2.3390
    -2.0587  -1.6692  -0.7914  -0.4430  -0.0984   0.3782   0.7317   1.1259
     1.9072   2.0373   2.3959   2.5925   2.8002   2.8653   3.0552   3.2959
     3.9943   4.6748   5.7379   7.8636

          k = 0.0556-0.5453 0.0000 (  4486 PWs)   bands (ev):

   -44.4843 -44.4508 -44.2256 -44.1503 -44.0940 -44.0241 -43.9507 -43.9423
   -43.6167 -43.6164 -43.5200 -43.5168  -3.1734  -2.9634  -2.8342  -2.4123
    -2.1428  -1.7469  -0.8195  -0.5434  -0.1409   0.5678   0.7437   1.2378
     2.0467   2.2215   2.6144   2.8064   2.9133   3.1117   3.3216   3.4191
     4.7236   5.9217   6.3349   7.3650

          k = 0.0556-0.4170 0.0000 (  4465 PWs)   bands (ev):

   -44.4047 -44.3880 -44.2392 -44.1168 -44.0703 -44.0035 -43.8857 -43.8731
   -43.5951 -43.5948 -43.5263 -43.5217  -2.8954  -2.8258  -2.5448  -2.2098
    -1.9061  -1.5264  -0.7204  -0.2796  -0.0755   0.0534   0.6248   1.0314
     1.3533   1.8288   1.9222   2.1870   2.4016   2.6722   2.6995   3.0920
     3.2448   3.5528   4.9804   7.3887

          k = 0.0556-0.2887 0.0000 (  4439 PWs)   bands (ev):

   -44.3716 -44.2530 -44.1642 -44.0794 -44.0241 -43.9652 -43.7408 -43.7352
   -43.5537 -43.5533 -43.5381 -43.5320  -3.1145  -2.4915  -2.1877  -1.7257
    -1.6471  -1.1519  -0.9816  -0.4237  -0.1303   0.1220   0.1883   0.4209
     0.6337   0.9494   1.0807   1.2562   1.6688   1.9515   1.9847   2.1902
     2.4963   2.9503   3.7458   5.9095

          k = 0.0556-0.1604 0.0000 (  4443 PWs)   bands (ev):

   -44.4128 -44.1492 -44.0266 -44.0132 -43.9736 -43.9280 -43.5871 -43.5864
   -43.5544 -43.5405 -43.5126 -43.5125  -4.0769  -2.9813  -2.5570  -2.2721
    -0.9996  -0.8011  -0.7612  -0.2016  -0.1263   0.0193   0.0657   0.1625
     0.2453   0.6452   0.7530   1.1753   1.2906   1.3319   1.7144   2.0056
     2.3573   2.8518   2.9799   4.4743

          k = 0.0556-0.0321 0.0000 (  4465 PWs)   bands (ev):

   -44.4383 -44.1310 -43.9634 -43.9546 -43.9202 -43.9070 -43.5665 -43.5474
   -43.5026 -43.5021 -43.4911 -43.4910  -4.6675  -3.5253  -3.0301  -2.7911
    -0.5434  -0.5047  -0.4474  -0.3058  -0.2184  -0.1389   0.0904   0.1777
     0.2190   0.3274   0.5599   1.5036   1.5064   1.8701   1.9106   2.1023
     2.4950   2.5436   2.9830   3.2925

          k = 0.1667 0.2887 0.0000 (  4425 PWs)   bands (ev):

   -44.3608 -44.2775 -44.2070 -44.0849 -44.0474 -44.0042 -43.7736 -43.7678
   -43.5868 -43.5864 -43.5321 -43.5288  -2.6970  -2.1831  -1.8570  -1.7681
    -1.5934  -1.2861  -0.8700  -0.6507  -0.3665  -0.3043  -0.2175   0.3913
     0.4861   0.9507   1.1147   1.5478   2.0348   2.2794   2.4250   2.7160
     2.7987   2.8602   4.2952   6.4748

          k = 0.1667 0.4170 0.0000 (  4459 PWs)   bands (ev):

   -44.3922 -44.3731 -44.2427 -44.1367 -44.0986 -44.0589 -43.8732 -43.8666
   -43.6503 -43.6484 -43.5216 -43.5197  -2.5109  -2.4042  -2.2142  -1.8700
    -1.4297  -1.3750  -0.9891  -0.5540  -0.3582   0.0518   0.3163   0.5459
     0.7054   1.0854   1.5985   1.7624   2.0280   2.6619   3.0025   3.2035
     4.4810   4.8575   6.0625   8.1634

          k = 0.1667 0.5453 0.0000 (  4490 PWs)   bands (ev):

   -44.4480 -44.4149 -44.2149 -44.1949 -44.1108 -44.0938 -43.9197 -43.9172
   -43.6848 -43.6826 -43.5157 -43.5150  -2.7783  -2.4893  -2.4273  -1.9584
    -1.5911  -1.5254  -1.1743  -0.3962  -0.0933   0.0812   0.2478   1.0582
     1.2974   1.5297   1.8698   2.2933   2.4873   2.7501   2.9323   3.2081
     6.4655   7.1788   7.9043   8.5805

          k = 0.1667-0.4811 0.0000 (  4476 PWs)   bands (ev):

   -44.4274 -44.4006 -44.2303 -44.1695 -44.1084 -44.0796 -43.9045 -43.8993
   -43.6728 -43.6706 -43.5180 -43.5164  -2.6830  -2.4573  -2.3506  -1.9252
    -1.5284  -1.4694  -1.0970  -0.4212  -0.1301  -0.0431   0.3184   0.9135
     1.0709   1.3212   1.7952   2.0400   2.1660   2.7026   3.0441   3.2933
     5.4973   6.0502   7.1381   8.9138

          k = 0.1667-0.3528 0.0000 (  4458 PWs)   bands (ev):

   -44.3643 -44.3298 -44.2412 -44.1043 -44.0792 -44.0340 -43.8286 -43.8215
   -43.6201 -43.6191 -43.5265 -43.5247  -2.4418  -2.2768  -2.0582  -1.8001
    -1.4176  -1.3243  -0.9424  -0.6721  -0.3958  -0.0742   0.0911   0.2423
     0.5169   0.9552   1.3034   1.7511   1.9778   2.5622   2.7457   2.9673
     3.5681   3.7543   5.0682   7.2752

          k = 0.1667-0.2245 0.0000 (  4433 PWs)   bands (ev):

   -44.3747 -44.2281 -44.1492 -44.0721 -44.0185 -43.9725 -43.7146 -43.7110
   -43.5562 -43.5560 -43.5396 -43.5330  -3.1453  -2.3165  -2.0482  -1.6992
    -1.4889  -1.2328  -1.0015  -0.4971  -0.3490  -0.2530   0.0205   0.3323
     0.6622   0.9153   1.0050   1.1731   1.6728   1.9816   2.0624   2.2354
     2.3642   2.8017   3.7332   5.7762

          k = 0.1667-0.0962 0.0000 (  4427 PWs)   bands (ev):

   -44.4055 -44.1603 -44.0482 -44.0294 -43.9859 -43.9302 -43.6135 -43.6124
   -43.5514 -43.5393 -43.5176 -43.5170  -3.9062  -2.8546  -2.4532  -2.1416
    -1.1458  -0.8595  -0.8291  -0.1901  -0.1356   0.0287   0.1370   0.2794
     0.2915   0.6884   0.8702   0.9853   1.2219   1.3881   1.6894   1.8861
     2.5331   2.9136   3.0171   4.7211

          k = 0.2778 0.4811 0.0000 (  4485 PWs)   bands (ev):

   -44.3951 -44.3722 -44.2695 -44.1918 -44.1549 -44.1069 -43.8789 -43.8754
   -43.7463 -43.7420 -43.5145 -43.5138  -2.3391  -2.2012  -1.8762  -1.5578
    -1.4234  -1.2323  -1.1448  -0.5698  -0.3195   0.1170   0.3001   0.3765
     0.5223   1.0508   1.5589   1.6421   2.0918   2.6798   2.9553   3.1832
     6.8410   7.5335   8.6936  10.3283

          k = 0.2778 0.6094 0.0000 (  4491 PWs)   bands (ev):

   -44.3851 -44.3610 -44.2938 -44.2231 -44.1476 -44.1208 -43.8709 -43.8650
   -43.7799 -43.7749 -43.5128 -43.5121  -2.3055  -2.0621  -1.8123  -1.6101
    -1.5713  -1.1239  -1.0977  -0.4686  -0.3300   0.0708   0.2074   0.4602
     0.5623   1.0666   1.5619   1.6619   2.3118   2.6796   2.7862   2.9658
     8.0986   8.8345   9.4990  10.1678

          k = 0.2778-0.4170 0.0000 (  4462 PWs)   bands (ev):

   -44.3992 -44.3778 -44.2485 -44.1620 -44.1342 -44.0887 -43.8805 -43.8783
   -43.6991 -43.6961 -43.5171 -43.5163  -2.4355  -2.2670  -2.0337  -1.7044
    -1.3220  -1.2519  -1.1592  -0.6276  -0.3692   0.1304   0.3119   0.4175
     0.5600   1.0133   1.6136   1.7347   1.9227   2.6838   3.0671   3.2939
     5.6251   6.1595   7.3313   9.2224

          k = 0.2778-0.2887 0.0000 (  4463 PWs)   bands (ev):

   -44.3769 -44.3579 -44.2384 -44.1124 -44.0726 -44.0188 -43.8528 -43.8434
   -43.6073 -43.6069 -43.5266 -43.5232  -2.6469  -2.5615  -2.3329  -1.9832
    -1.6021  -1.4113  -0.8026  -0.5191  -0.1782  -0.0361   0.4041   0.6857
     0.8611   1.1474   1.5105   1.8365   2.1303   2.6302   2.7102   2.9979
     3.4523   3.6803   5.0190   7.3051

          k = 0.2778-0.1604 0.0000 (  4458 PWs)   bands (ev):

   -44.3675 -44.2905 -44.1929 -44.0878 -44.0333 -43.9676 -43.7801 -43.7721
   -43.5585 -43.5579 -43.5356 -43.5300  -3.0276  -2.6255  -2.2702  -1.9308
    -1.7367  -1.2346  -0.7012  -0.4523  -0.0550   0.1693   0.4252   0.6757
     0.8772   0.9559   1.3432   1.4607   1.7663   2.0525   2.0814   2.1910
     2.5300   3.0602   3.8909   6.1971

          k = 0.3889 0.6736 0.0000 (  4511 PWs)   bands (ev):

   -44.4199 -44.3882 -44.2490 -44.2070 -44.1348 -44.1162 -43.8991 -43.8936
   -43.7362 -43.7321 -43.5139 -43.5133  -2.5567  -2.1989  -2.0696  -1.7500
    -1.5122  -1.2880  -1.1856  -0.4446  -0.2386   0.0012   0.1846   0.8567
     0.9385   1.0529   1.6869   1.9799   2.4191   2.7090   2.8020   3.0581
     7.6450   8.1700   8.7149   9.2723

          k = 0.3889-0.3528 0.0000 (  4485 PWs)   bands (ev):

   -44.4606 -44.4288 -44.2238 -44.1593 -44.1005 -44.0504 -43.9313 -43.9242
   -43.6406 -43.6397 -43.5192 -43.5166  -2.9584  -2.7494  -2.6594  -2.1903
    -1.8841  -1.6478  -0.9532  -0.4218  -0.1210   0.2962   0.4673   1.1728
     1.6750   1.9074   2.0786   2.5079   2.6266   2.7712   3.0773   3.3031
     5.2006   5.9163   6.7626   8.2361

          k = 0.3889-0.2245 0.0000 (  4444 PWs)   bands (ev):

   -44.4355 -44.4112 -44.2378 -44.1239 -44.0737 -44.0006 -43.9140 -43.8994
   -43.5940 -43.5935 -43.5246 -43.5199  -3.0562  -2.9390  -2.6841  -2.3477
    -2.0688  -1.6193  -0.7075  -0.3961  -0.0535   0.2928   0.9037   0.9494
     1.8490   2.0564   2.4532   2.6628   2.6967   2.8043   2.9826   3.1082
     3.2382   3.6586   5.1321   7.5655

          k =-0.5000-0.8660 0.0000 (  4492 PWs)   bands (ev):

   -44.4929 -44.4589 -44.2272 -44.1484 -44.0901 -44.0138 -43.9583 -43.9484
   -43.6085 -43.6076 -43.5209 -43.5168  -3.2527  -3.0393  -2.8902  -2.4927
    -2.2343  -1.7805  -0.7722  -0.5910  -0.1523   0.6588   0.9000   1.2092
     2.1307   2.3169   2.8384   2.8783   3.0904   3.2503   3.5719   3.5931
     4.3646   5.9038   6.4062   6.7149

 ------ SPIN DOWN ----------


          k = 0.0556 0.0962 0.0000 (  4451 PWs)   bands (ev):

   -44.4300 -44.1357 -43.9876 -43.9687 -43.9479 -43.9152 -43.5642 -43.5497
   -43.5335 -43.5303 -43.5002 -43.4999  -4.4616  -3.3297  -2.8582  -2.6026
    -0.7384  -0.5843  -0.5640  -0.1568  -0.1040  -0.0828  -0.0163   0.0724
     0.3345   0.4430   0.4743   1.3802   1.4756   1.5695   1.9086   2.0351
     2.2085   2.6977   2.9332   3.8142

          k = 0.0556 0.2245 0.0000 (  4420 PWs)   bands (ev):

   -44.3922 -44.1878 -44.0898 -44.0573 -43.9990 -43.9462 -43.6603 -43.6580
   -43.5483 -43.5392 -43.5333 -43.5327  -3.5815  -2.6151  -2.2623  -1.9081
    -1.3303  -1.0301  -0.9587  -0.2470  -0.2338  -0.1153   0.1728   0.3164
     0.5597   0.8292   0.9217   1.0224   1.2207   1.4996   1.8030   1.9889
     2.4549   2.9054   3.2928   5.1793

          k = 0.0556 0.3528 0.0000 (  4467 PWs)   bands (ev):

   -44.3682 -44.3298 -44.2228 -44.0982 -44.0503 -43.9865 -43.8219 -43.8121
   -43.5774 -43.5772 -43.5339 -43.5291  -2.8662  -2.6414  -2.3205  -2.0287
    -1.7267  -1.3436  -0.6044  -0.5442  -0.0877   0.0527   0.4607   0.7666
     0.9385   1.1097   1.5033   1.7221   2.1046   2.2015   2.5098   2.6151
     2.7302   3.0020   4.2994   6.6555

          k = 0.0556 0.4811 0.0000 (  4463 PWs)   bands (ev):

   -44.4569 -44.4276 -44.2337 -44.1377 -44.0863 -44.0176 -43.9316 -43.9189
   -43.6106 -43.6103 -43.5243 -43.5204  -3.0707  -2.9109  -2.7335  -2.3398
    -2.0595  -1.6701  -0.7925  -0.4439  -0.0993   0.3772   0.7306   1.1248
     1.9060   2.0359   2.3949   2.5912   2.7990   2.8644   3.0541   3.2947
     3.9934   4.6742   5.7374   7.8631

          k = 0.0556-0.5453 0.0000 (  4486 PWs)   bands (ev):

   -44.4852 -44.4516 -44.2265 -44.1513 -44.0949 -44.0249 -43.9521 -43.9437
   -43.6183 -43.6180 -43.5222 -43.5189  -3.1739  -2.9638  -2.8348  -2.4130
    -2.1436  -1.7478  -0.8206  -0.5443  -0.1418   0.5667   0.7426   1.2367
     2.0452   2.2201   2.6135   2.8052   2.9120   3.1108   3.3203   3.4178
     4.7230   5.9213   6.3345   7.3646

          k = 0.0556-0.4170 0.0000 (  4465 PWs)   bands (ev):

   -44.4056 -44.3888 -44.2401 -44.1177 -44.0711 -44.0044 -43.8873 -43.8746
   -43.5966 -43.5964 -43.5285 -43.5239  -2.8959  -2.8263  -2.5453  -2.2105
    -1.9068  -1.5273  -0.7213  -0.2805  -0.0764   0.0525   0.6237   1.0302
     1.3523   1.8279   1.9209   2.1856   2.4005   2.6711   2.6984   3.0909
     3.2437   3.5520   4.9797   7.3880

          k = 0.0556-0.2887 0.0000 (  4439 PWs)   bands (ev):

   -44.3725 -44.2539 -44.1651 -44.0803 -44.0250 -43.9661 -43.7424 -43.7368
   -43.5553 -43.5549 -43.5403 -43.5341  -3.1146  -2.4919  -2.1882  -1.7264
    -1.6476  -1.1527  -0.9824  -0.4246  -0.1313   0.1211   0.1874   0.4199
     0.6326   0.9484   1.0795   1.2552   1.6677   1.9502   1.9834   2.1890
     2.4949   2.9491   3.7448   5.9086

          k = 0.0556-0.1604 0.0000 (  4443 PWs)   bands (ev):

   -44.4136 -44.1501 -44.0274 -44.0141 -43.9744 -43.9288 -43.5887 -43.5880
   -43.5565 -43.5425 -43.5142 -43.5141  -4.0770  -2.9814  -2.5575  -2.2726
    -1.0005  -0.8018  -0.7618  -0.2026  -0.1273   0.0181   0.0649   0.1617
     0.2443   0.6441   0.7519   1.1741   1.2892   1.3308   1.7133   2.0043
     2.3559   2.8506   2.9787   4.4734

          k = 0.0556-0.0321 0.0000 (  4465 PWs)   bands (ev):

   -44.4391 -44.1319 -43.9642 -43.9555 -43.9211 -43.9079 -43.5687 -43.5495
   -43.5042 -43.5037 -43.4927 -43.4925  -4.6675  -3.5255  -3.0305  -2.7917
    -0.5444  -0.5054  -0.4481  -0.3065  -0.2192  -0.1400   0.0893   0.1766
     0.2179   0.3262   0.5587   1.5027   1.5054   1.8689   1.9093   2.1011
     2.4940   2.5420   2.9817   3.2915

          k = 0.1667 0.2887 0.0000 (  4425 PWs)   bands (ev):

   -44.3616 -44.2783 -44.2079 -44.0857 -44.0482 -44.0051 -43.7752 -43.7693
   -43.5883 -43.5880 -43.5343 -43.5310  -2.6972  -2.1835  -1.8575  -1.7686
    -1.5941  -1.2869  -0.8707  -0.6516  -0.3676  -0.3053  -0.2184   0.3903
     0.4850   0.9494   1.1134   1.5468   2.0334   2.2782   2.4236   2.7150
     2.7975   2.8591   4.2943   6.4740

          k = 0.1667 0.4170 0.0000 (  4459 PWs)   bands (ev):

   -44.3931 -44.3739 -44.2436 -44.1376 -44.0995 -44.0598 -43.8747 -43.8681
   -43.6519 -43.6500 -43.5238 -43.5219  -2.5114  -2.4047  -2.2147  -1.8706
    -1.4305  -1.3758  -0.9899  -0.5548  -0.3590   0.0508   0.3152   0.5450
     0.7044   1.0842   1.5973   1.7610   2.0266   2.6605   3.0012   3.2024
     4.4802   4.8567   6.0618   8.1628

          k = 0.1667 0.5453 0.0000 (  4490 PWs)   bands (ev):

   -44.4489 -44.4158 -44.2157 -44.1958 -44.1117 -44.0947 -43.9211 -43.9186
   -43.6864 -43.6841 -43.5179 -43.5171  -2.7788  -2.4897  -2.4279  -1.9592
    -1.5918  -1.5263  -1.1752  -0.3970  -0.0943   0.0802   0.2467   1.0571
     1.2965   1.5287   1.8683   2.2922   2.4859   2.7483   2.9311   3.2071
     6.4650   7.1783   7.9038   8.5800

          k = 0.1667-0.4811 0.0000 (  4476 PWs)   bands (ev):

   -44.4282 -44.4015 -44.2312 -44.1704 -44.1093 -44.0805 -43.9060 -43.9008
   -43.6744 -43.6722 -43.5201 -43.5185  -2.6836  -2.4578  -2.3512  -1.9259
    -1.5291  -1.4703  -1.0979  -0.4220  -0.1309  -0.0442   0.3173   0.9126
     1.0698   1.3202   1.7938   2.0389   2.1646   2.7010   3.0429   3.2923
     5.4967   6.0495   7.1375   8.9133

          k = 0.1667-0.3528 0.0000 (  4458 PWs)   bands (ev):

   -44.3651 -44.3306 -44.2420 -44.1051 -44.0801 -44.0349 -43.8302 -43.8230
   -43.6216 -43.6207 -43.5286 -43.5269  -2.4421  -2.2773  -2.0588  -1.8006
    -1.4182  -1.3251  -0.9432  -0.6729  -0.3967  -0.0751   0.0902   0.2412
     0.5158   0.9539   1.3021   1.7499   1.9764   2.5608   2.7445   2.9663
     3.5671   3.7534   5.0674   7.2745

          k = 0.1667-0.2245 0.0000 (  4433 PWs)   bands (ev):

   -44.3756 -44.2290 -44.1501 -44.0730 -44.0193 -43.9733 -43.7162 -43.7125
   -43.5578 -43.5576 -43.5417 -43.5351  -3.1454  -2.3168  -2.0487  -1.6997
    -1.4896  -1.2335  -1.0023  -0.4980  -0.3501  -0.2541   0.0196   0.3313
     0.6611   0.9141   1.0039   1.1722   1.6718   1.9805   2.0610   2.2341
     2.3628   2.8005   3.7321   5.7753

          k = 0.1667-0.0962 0.0000 (  4427 PWs)   bands (ev):

   -44.4064 -44.1612 -44.0491 -44.0303 -43.9867 -43.9311 -43.6151 -43.6140
   -43.5536 -43.5414 -43.5192 -43.5186  -3.9062  -2.8548  -2.4537  -2.1422
    -1.1466  -0.8603  -0.8298  -0.1912  -0.1366   0.0276   0.1362   0.2787
     0.2904   0.6874   0.8691   0.9841   1.2205   1.3869   1.6882   1.8849
     2.5316   2.9126   3.0158   4.7202

          k = 0.2778 0.4811 0.0000 (  4485 PWs)   bands (ev):

   -44.3959 -44.3730 -44.2704 -44.1927 -44.1558 -44.1078 -43.8804 -43.8769
   -43.7478 -43.7435 -43.5166 -43.5159  -2.3397  -2.2018  -1.8768  -1.5585
    -1.4242  -1.2330  -1.1456  -0.5706  -0.3203   0.1157   0.2990   0.3755
     0.5212   1.0498   1.5576   1.6409   2.0903   2.6781   2.9540   3.1822
     6.8405   7.5328   8.6930  10.3277

          k = 0.2778 0.6094 0.0000 (  4491 PWs)   bands (ev):

   -44.3860 -44.3618 -44.2947 -44.2240 -44.1485 -44.1217 -43.8725 -43.8665
   -43.7814 -43.7765 -43.5149 -43.5142  -2.3061  -2.0627  -1.8129  -1.6109
    -1.5720  -1.1246  -1.0984  -0.4694  -0.3308   0.0696   0.2062   0.4591
     0.5613   1.0657   1.5607   1.6607   2.3101   2.6778   2.7851   2.9649
     8.0981   8.8340   9.4986  10.1673

          k = 0.2778-0.4170 0.0000 (  4462 PWs)   bands (ev):

   -44.4001 -44.3786 -44.2494 -44.1628 -44.1350 -44.0896 -43.8820 -43.8797
   -43.7006 -43.6976 -43.5193 -43.5184  -2.4361  -2.2675  -2.0343  -1.7051
    -1.3226  -1.2528  -1.1600  -0.6284  -0.3700   0.1292   0.3108   0.4166
     0.5590   1.0122   1.6124   1.7335   1.9212   2.6822   3.0658   3.2929
     5.6244   6.1588   7.3306   9.2218

          k = 0.2778-0.2887 0.0000 (  4463 PWs)   bands (ev):

   -44.3777 -44.3587 -44.2393 -44.1133 -44.0734 -44.0196 -43.8543 -43.8449
   -43.6089 -43.6084 -43.5287 -43.5253  -2.6473  -2.5620  -2.3335  -1.9838
    -1.6028  -1.4122  -0.8035  -0.5198  -0.1789  -0.0372   0.4029   0.6848
     0.8602   1.1462   1.5094   1.8352   2.1289   2.6289   2.7091   2.9968
     3.4513   3.6793   5.0182   7.3044

          k = 0.2778-0.1604 0.0000 (  4458 PWs)   bands (ev):

   -44.3683 -44.2913 -44.1938 -44.0886 -44.0341 -43.9684 -43.7816 -43.7737
   -43.5601 -43.5595 -43.5377 -43.5321  -3.0279  -2.6259  -2.2707  -1.9315
    -1.7373  -1.2355  -0.7020  -0.4531  -0.0560   0.1685   0.4241   0.6747
     0.8763   0.9548   1.3422   1.4596   1.7653   2.0513   2.0801   2.1897
     2.5286   3.0590   3.8899   6.1963

          k = 0.3889 0.6736 0.0000 (  4511 PWs)   bands (ev):

   -44.4208 -44.3891 -44.2499 -44.2079 -44.1357 -44.1171 -43.9006 -43.8950
   -43.7378 -43.7337 -43.5161 -43.5155  -2.5573  -2.1994  -2.0702  -1.7508
    -1.5130  -1.2888  -1.1863  -0.4454  -0.2394  -0.0001   0.1835   0.8557
     0.9374   1.0519   1.6855   1.9788   2.4174   2.7073   2.8009   3.0571
     7.6445   8.1695   8.7144   9.2719

          k = 0.3889-0.3528 0.0000 (  4485 PWs)   bands (ev):

   -44.4614 -44.4297 -44.2247 -44.1602 -44.1014 -44.0512 -43.9328 -43.9256
   -43.6421 -43.6413 -43.5213 -43.5188  -2.9590  -2.7498  -2.6600  -2.1911
    -1.8848  -1.6487  -0.9542  -0.4226  -0.1220   0.2953   0.4662   1.1717
     1.6739   1.9062   2.0773   2.5066   2.6255   2.7697   3.0762   3.3020
     5.1999   5.9158   6.7621   8.2357

          k = 0.3889-0.2245 0.0000 (  4444 PWs)   bands (ev):

   -44.4363 -44.4120 -44.2387 -44.1248 -44.0745 -44.0015 -43.9155 -43.9008
   -43.5956 -43.5951 -43.5267 -43.5220  -3.0568  -2.9394  -2.6847  -2.3485
    -2.0696  -1.6202  -0.7085  -0.3971  -0.0544   0.2918   0.9026   0.9482
     1.8478   2.0550   2.4520   2.6618   2.6956   2.8035   2.9814   3.1068
     3.2370   3.6580   5.1314   7.5649

          k =-0.5000-0.8660 0.0000 (  4492 PWs)   bands (ev):

   -44.4937 -44.4598 -44.2281 -44.1494 -44.0910 -44.0147 -43.9597 -43.9498
   -43.6100 -43.6092 -43.5230 -43.5190  -3.2532  -3.0398  -2.8908  -2.4935
    -2.2351  -1.7815  -0.7734  -0.5918  -0.1532   0.6577   0.8988   1.2081
     2.1292   2.3154   2.8372   2.8771   3.0896   3.2494   3.5705   3.5917
     4.3642   5.9036   6.4058   6.7145

     the Fermi energy is     2.5333 ev

!    total energy              =    -684.65231342 Ry
     estimated scf accuracy    <       0.00000075 Ry
     smearing contrib. (-TS)   =      -0.01883947 Ry
     internal energy E=F+TS    =    -684.63347394 Ry

     The total energy is F=E-TS. E is the sum of the following terms:
     one-electron contribution =   -9453.46033270 Ry
     hartree contribution      =    4740.31124759 Ry
     xc contribution           =    -119.55131477 Ry
     ewald contribution        =    4148.06692594 Ry

     total magnetization       =    -0.00 Bohr mag/cell
     absolute magnetization    =     0.00 Bohr mag/cell

     convergence has been achieved in   7 iterations

     negative rho (up, down):  1.157E-01 1.156E-01

     Forces acting on atoms (cartesian axes, Ry/au):

     atom    1 type  1   force =     0.00000000    0.00000000    0.00900799
     atom    2 type  1   force =     0.00000000    0.00000000    0.00123689
     atom    3 type  1   force =     0.00000000    0.00000000   -0.00121884
     atom    4 type  1   force =     0.00000000    0.00000000   -0.00902603

     Total force =     0.012870     Total SCF correction =     0.002441
     SCF correction compared to forces is large: reduce conv_thr to get better values
     Energy error            =      2.0E-04
     Gradient error          =      9.0E-03

     number of scf cycles    =   2
     number of bfgs steps    =   1

     energy   old            =    -684.6521122725 Ry
     energy   new            =    -684.6523134160 Ry

     CASE: energy  _new < energy  _old


     WARNING: bfgs curvature condition failed, Theta= 0.910
     new trust radius        =       0.0113185612 bohr
     new conv_thr            =       0.0000002011 Ry


ATOMIC_POSITIONS (angstrom)
Rh            0.0000000000        0.0000000000        0.0114134439
Rh            2.7108568000        1.5651139000        2.2142191176
Rh            1.3554284000        0.7825569000        4.4260178856
Rh            0.0000000000        0.0000000000        6.6287813530



     Writing output data file /home/STUDENTI/leonardo.razzai/WORK/relax_surf/4-L.save/
     NEW-OLD atomic charge density approx. for the potential

     negative rho (up, down):  1.152E-01 1.152E-01
     Generating pointlists ...

     total cpu time spent up to now is      181.9 secs

     Self-consistent Calculation

     iteration #  1     ecut=    35.00 Ry     beta= 0.40
     Davidson diagonalization with overlap
     ethr =  1.00E-06,  avg # of iterations =  5.9

     negative rho (up, down):  1.152E-01 1.152E-01

     total cpu time spent up to now is      195.1 secs

     total energy              =    -684.65221455 Ry
     estimated scf accuracy    <       0.00824578 Ry

     total magnetization       =    -0.00 Bohr mag/cell
     absolute magnetization    =     0.00 Bohr mag/cell

     iteration #  2     ecut=    35.00 Ry     beta= 0.40
     Davidson diagonalization with overlap
     ethr =  1.37E-05,  avg # of iterations =  1.0

     negative rho (up, down):  1.152E-01 1.152E-01

     total cpu time spent up to now is      201.9 secs

     total energy              =    -684.65243920 Ry
     estimated scf accuracy    <       0.00308560 Ry

     total magnetization       =    -0.00 Bohr mag/cell
     absolute magnetization    =     0.00 Bohr mag/cell

     iteration #  3     ecut=    35.00 Ry     beta= 0.40
     Davidson diagonalization with overlap
     ethr =  5.14E-06,  avg # of iterations =  1.0

     negative rho (up, down):  1.152E-01 1.152E-01

     total cpu time spent up to now is      208.8 secs

     total energy              =    -684.65250938 Ry
     estimated scf accuracy    <       0.00048153 Ry

     total magnetization       =    -0.00 Bohr mag/cell
     absolute magnetization    =     0.00 Bohr mag/cell

     iteration #  4     ecut=    35.00 Ry     beta= 0.40
     Davidson diagonalization with overlap
     ethr =  8.03E-07,  avg # of iterations =  1.0

     negative rho (up, down):  1.152E-01 1.152E-01

     total cpu time spent up to now is      215.7 secs

     total energy              =    -684.65249629 Ry
     estimated scf accuracy    <       0.00019412 Ry

     total magnetization       =    -0.00 Bohr mag/cell
     absolute magnetization    =     0.00 Bohr mag/cell

     iteration #  5     ecut=    35.00 Ry     beta= 0.40
     Davidson diagonalization with overlap
     ethr =  3.24E-07,  avg # of iterations =  1.1

     negative rho (up, down):  1.152E-01 1.152E-01

     total cpu time spent up to now is      222.6 secs

     total energy              =    -684.65250286 Ry
     estimated scf accuracy    <       0.00000486 Ry

     total magnetization       =    -0.00 Bohr mag/cell
     absolute magnetization    =     0.00 Bohr mag/cell

     iteration #  6     ecut=    35.00 Ry     beta= 0.40
     Davidson diagonalization with overlap
     ethr =  8.09E-09,  avg # of iterations =  2.7

     negative rho (up, down):  1.152E-01 1.152E-01

     total cpu time spent up to now is      230.5 secs

     total energy              =    -684.65250313 Ry
     estimated scf accuracy    <       0.00000540 Ry

     total magnetization       =    -0.00 Bohr mag/cell
     absolute magnetization    =     0.00 Bohr mag/cell

     iteration #  7     ecut=    35.00 Ry     beta= 0.40
     Davidson diagonalization with overlap
     ethr =  8.09E-09,  avg # of iterations =  1.0

     negative rho (up, down):  1.152E-01 1.152E-01

     total cpu time spent up to now is      237.4 secs

     total energy              =    -684.65250297 Ry
     estimated scf accuracy    <       0.00000105 Ry

     total magnetization       =    -0.00 Bohr mag/cell
     absolute magnetization    =     0.00 Bohr mag/cell

     iteration #  8     ecut=    35.00 Ry     beta= 0.40
     Davidson diagonalization with overlap
     ethr =  1.75E-09,  avg # of iterations =  2.4

     negative rho (up, down):  1.152E-01 1.152E-01

     total cpu time spent up to now is      245.5 secs

     total energy              =    -684.65250326 Ry
     estimated scf accuracy    <       0.00000069 Ry

     total magnetization       =    -0.00 Bohr mag/cell
     absolute magnetization    =     0.00 Bohr mag/cell

     iteration #  9     ecut=    35.00 Ry     beta= 0.40
     Davidson diagonalization with overlap
     ethr =  1.15E-09,  avg # of iterations =  1.0

     negative rho (up, down):  1.152E-01 1.152E-01

     total cpu time spent up to now is      252.4 secs

     total energy              =    -684.65250385 Ry
     estimated scf accuracy    <       0.00000029 Ry

     total magnetization       =    -0.00 Bohr mag/cell
     absolute magnetization    =     0.00 Bohr mag/cell

     iteration # 10     ecut=    35.00 Ry     beta= 0.40
     Davidson diagonalization with overlap
     ethr =  4.85E-10,  avg # of iterations =  1.9

     negative rho (up, down):  1.152E-01 1.152E-01

     total cpu time spent up to now is      259.6 secs

     total energy              =    -684.65250419 Ry
     estimated scf accuracy    <       0.00000046 Ry

     total magnetization       =     0.00 Bohr mag/cell
     absolute magnetization    =     0.00 Bohr mag/cell

     iteration # 11     ecut=    35.00 Ry     beta= 0.40
     Davidson diagonalization with overlap
     ethr =  4.85E-10,  avg # of iterations =  1.2

     negative rho (up, down):  1.152E-01 1.153E-01
 
     Magnetic moment per site:
     atom:    1    charge:   13.1806    magn:    0.0001    constr:    0.0000
     atom:    2    charge:   13.2390    magn:    0.0001    constr:    0.0000
     atom:    3    charge:   13.2392    magn:    0.0001    constr:    0.0000
     atom:    4    charge:   13.1809    magn:    0.0001    constr:    0.0000

     total cpu time spent up to now is      266.4 secs

     End of self-consistent calculation

 ------ SPIN UP ------------


          k = 0.0556 0.0962 0.0000 (  4451 PWs)   bands (ev):

   -44.4218 -44.1268 -43.9757 -43.9567 -43.9358 -43.9029 -43.5532 -43.5384
   -43.5214 -43.5182 -43.4882 -43.4878  -4.4562  -3.3228  -2.8530  -2.5957
    -0.7288  -0.5745  -0.5548  -0.1490  -0.0992  -0.0694  -0.0091   0.0857
     0.3432   0.4562   0.4824   1.3911   1.4880   1.5806   1.9232   2.0461
     2.2198   2.7128   2.9520   3.8323

          k = 0.0556 0.2245 0.0000 (  4420 PWs)   bands (ev):

   -44.3838 -44.1779 -44.0782 -44.0463 -43.9871 -43.9340 -43.6482 -43.6458
   -43.5373 -43.5280 -43.5213 -43.5207  -3.5761  -2.6095  -2.2573  -1.9027
    -1.3244  -1.0261  -0.9518  -0.2332  -0.2248  -0.1015   0.1774   0.3293
     0.5674   0.8409   0.9267   1.0350   1.2307   1.5129   1.8195   2.0017
     2.4703   2.9244   3.3104   5.2006

          k = 0.0556 0.3528 0.0000 (  4467 PWs)   bands (ev):

   -44.3588 -44.3189 -44.2120 -44.0884 -44.0385 -43.9743 -43.8096 -43.7996
   -43.5654 -43.5651 -43.5232 -43.5182  -2.8611  -2.6374  -2.3163  -2.0247
    -1.7183  -1.3404  -0.5920  -0.5390  -0.0734   0.0556   0.4700   0.7754
     0.9442   1.1191   1.5173   1.7340   2.1213   2.2114   2.5270   2.6285
     2.7452   3.0223   4.3203   6.6790

          k = 0.0556 0.4811 0.0000 (  4463 PWs)   bands (ev):

   -44.4456 -44.4167 -44.2243 -44.1282 -44.0746 -44.0054 -43.9190 -43.9062
   -43.5985 -43.5982 -43.5139 -43.5098  -3.0671  -2.9061  -2.7303  -2.3356
    -2.0509  -1.6674  -0.7813  -0.4274  -0.0973   0.3850   0.7346   1.1322
     1.9170   2.0501   2.4079   2.6067   2.8174   2.8786   3.0671   3.3109
     4.0061   4.6891   5.7570   7.8849

          k = 0.0556-0.5453 0.0000 (  4486 PWs)   bands (ev):

   -44.4739 -44.4406 -44.2172 -44.1419 -44.0832 -44.0128 -43.9394 -43.9310
   -43.6062 -43.6059 -43.5118 -43.5084  -3.1706  -2.9590  -2.8314  -2.4088
    -2.1351  -1.7453  -0.8100  -0.5270  -0.1398   0.5754   0.7449   1.2457
     2.0600   2.2351   2.6249   2.8225   2.9274   3.1251   3.3340   3.4327
     4.7354   5.9367   6.3530   7.3835

          k = 0.0556-0.4170 0.0000 (  4465 PWs)   bands (ev):

   -44.3945 -44.3783 -44.2302 -44.1082 -44.0594 -43.9922 -43.8748 -43.8619
   -43.5846 -43.5843 -43.5179 -43.5131  -2.8914  -2.8220  -2.5420  -2.2064
    -1.8981  -1.5242  -0.7097  -0.2654  -0.0723   0.0572   0.6318   1.0337
     1.3614   1.8401   1.9326   2.2034   2.4159   2.6882   2.7098   3.1103
     3.2569   3.5661   5.0007   7.4115

          k = 0.0556-0.2887 0.0000 (  4439 PWs)   bands (ev):

   -44.3638 -44.2433 -44.1536 -44.0700 -44.0131 -43.9539 -43.7302 -43.7244
   -43.5432 -43.5428 -43.5294 -43.5231  -3.1095  -2.4874  -2.1830  -1.7230
    -1.6403  -1.1483  -0.9775  -0.4116  -0.1184   0.1239   0.1977   0.4324
     0.6427   0.9540   1.0936   1.2643   1.6766   1.9662   1.9963   2.2043
     2.5121   2.9689   3.7642   5.9312

          k = 0.0556-0.1604 0.0000 (  4443 PWs)   bands (ev):

   -44.4054 -44.1410 -44.0158 -44.0021 -43.9624 -43.9166 -43.5767 -43.5760
   -43.5455 -43.5311 -43.5022 -43.5020  -4.0716  -2.9750  -2.5525  -2.2664
    -0.9925  -0.7970  -0.7532  -0.1941  -0.1148   0.0344   0.0690   0.1697
     0.2583   0.6511   0.7590   1.1861   1.3022   1.3430   1.7293   2.0154
     2.3687   2.8675   2.9966   4.4930

          k = 0.0556-0.0321 0.0000 (  4465 PWs)   bands (ev):

   -44.4310 -44.1232 -43.9523 -43.9435 -43.9089 -43.8956 -43.5577 -43.5381
   -43.4921 -43.4916 -43.4807 -43.4805  -4.6621  -3.5184  -3.0253  -2.7844
    -0.5330  -0.4897  -0.4406  -0.2990  -0.2136  -0.1268   0.0962   0.1865
     0.2247   0.3348   0.5736   1.5146   1.5170   1.8762   1.9184   2.1137
     2.5115   2.5559   3.0005   3.3082

          k = 0.1667 0.2887 0.0000 (  4425 PWs)   bands (ev):

   -44.3526 -44.2676 -44.1967 -44.0756 -44.0363 -43.9931 -43.7629 -43.7569
   -43.5763 -43.5759 -43.5234 -43.5201  -2.6926  -2.1790  -1.8526  -1.7643
    -1.5922  -1.2845  -0.8625  -0.6425  -0.3545  -0.2957  -0.2138   0.4058
     0.4973   0.9588   1.1260   1.5565   2.0473   2.2893   2.4412   2.7292
     2.8125   2.8762   4.3152   6.4970

          k = 0.1667 0.4170 0.0000 (  4459 PWs)   bands (ev):

   -44.3822 -44.3631 -44.2338 -44.1270 -44.0884 -44.0480 -43.8622 -43.8555
   -43.6398 -43.6378 -43.5132 -43.5112  -2.5082  -2.4008  -2.2109  -1.8681
    -1.4245  -1.3727  -0.9844  -0.5480  -0.3522   0.0650   0.3249   0.5515
     0.7157   1.0964   1.6136   1.7768   2.0440   2.6790   3.0161   3.2192
     4.4934   4.8698   6.0810   8.1853

          k = 0.1667 0.5453 0.0000 (  4490 PWs)   bands (ev):

   -44.4377 -44.4048 -44.2060 -44.1854 -44.1011 -44.0829 -43.9085 -43.9059
   -43.6742 -43.6719 -43.5074 -43.5066  -2.7765  -2.4856  -2.4238  -1.9573
    -1.5854  -1.5231  -1.1702  -0.3861  -0.0856   0.0879   0.2563   1.0662
     1.3066   1.5413   1.8840   2.3089   2.5036   2.7669   2.9487   3.2250
     6.4777   7.1918   7.9206   8.5977

          k = 0.1667-0.4811 0.0000 (  4476 PWs)   bands (ev):

   -44.4171 -44.3905 -44.2216 -44.1599 -44.0985 -44.0688 -43.8934 -43.8881
   -43.6623 -43.6600 -43.5097 -43.5080  -2.6810  -2.4537  -2.3473  -1.9240
    -1.5227  -1.4669  -1.0929  -0.4143  -0.1223  -0.0331   0.3265   0.9204
     1.0798   1.3326   1.8102   2.0554   2.1833   2.7193   3.0596   3.3095
     5.5094   6.0631   7.1554   8.9336

          k = 0.1667-0.3528 0.0000 (  4458 PWs)   bands (ev):

   -44.3552 -44.3197 -44.2316 -44.0950 -44.0685 -44.0230 -43.8178 -43.8105
   -43.6096 -43.6085 -43.5179 -43.5161  -2.4382  -2.2734  -2.0546  -1.7973
    -1.4146  -1.3227  -0.9361  -0.6629  -0.3921  -0.0656   0.1005   0.2555
     0.5269   0.9659   1.3162   1.7627   1.9923   2.5791   2.7568   2.9836
     3.5811   3.7661   5.0879   7.2978

          k = 0.1667-0.2245 0.0000 (  4433 PWs)   bands (ev):

   -44.3670 -44.2186 -44.1385 -44.0626 -44.0074 -43.9612 -43.7040 -43.7002
   -43.5457 -43.5455 -43.5308 -43.5240  -3.1403  -2.3119  -2.0438  -1.6950
    -1.4868  -1.2290  -0.9942  -0.4888  -0.3390  -0.2417   0.0253   0.3454
     0.6722   0.9248   1.0137   1.1808   1.6810   1.9929   2.0756   2.2496
     2.3789   2.8200   3.7518   5.7976

          k = 0.1667-0.0962 0.0000 (  4427 PWs)   bands (ev):

   -44.3981 -44.1518 -44.0376 -44.0184 -43.9748 -43.9188 -43.6030 -43.6019
   -43.5426 -43.5301 -43.5071 -43.5065  -3.9009  -2.8487  -2.4486  -2.1361
    -1.1394  -0.8566  -0.8221  -0.1756  -0.1285   0.0436   0.1385   0.2862
     0.3058   0.6925   0.8764   0.9962   1.2346   1.3991   1.7046   1.8959
     2.5472   2.9270   3.0355   4.7404

          k = 0.2778 0.4811 0.0000 (  4485 PWs)   bands (ev):

   -44.3848 -44.3619 -44.2599 -44.1814 -44.1453 -44.0975 -43.8680 -43.8643
   -43.7356 -43.7312 -43.5062 -43.5054  -2.3365  -2.2005  -1.8736  -1.5568
    -1.4238  -1.2291  -1.1443  -0.5625  -0.3103   0.1255   0.3117   0.3845
     0.5328   1.0658   1.5763   1.6597   2.1079   2.6959   2.9722   3.2001
     6.8531   7.5470   8.7100  10.3461

          k = 0.2778 0.6094 0.0000 (  4491 PWs)   bands (ev):

   -44.3748 -44.3509 -44.2837 -44.2126 -44.1383 -44.1117 -43.8601 -43.8539
   -43.7691 -43.7640 -43.5045 -43.5037  -2.3037  -2.0614  -1.8086  -1.6114
    -1.5711  -1.1216  -1.0965  -0.4617  -0.3215   0.0799   0.2184   0.4696
     0.5731   1.0808   1.5814   1.6800   2.3277   2.6956   2.8034   2.9830
     8.1108   8.8481   9.5125  10.1840

          k = 0.2778-0.4170 0.0000 (  4462 PWs)   bands (ev):

   -44.3890 -44.3676 -44.2395 -44.1520 -44.1239 -44.0788 -43.8694 -43.8672
   -43.6885 -43.6854 -43.5088 -43.5079  -2.4331  -2.2646  -2.0312  -1.7029
    -1.3187  -1.2511  -1.1565  -0.6213  -0.3600   0.1397   0.3232   0.4246
     0.5703   1.0268   1.6295   1.7498   1.9399   2.7003   3.0829   3.3102
     5.6372   6.1723   7.3486   9.2428

          k = 0.2778-0.2887 0.0000 (  4463 PWs)   bands (ev):

   -44.3674 -44.3479 -44.2291 -44.1033 -44.0619 -44.0076 -43.8419 -43.8323
   -43.5968 -43.5963 -43.5181 -43.5146  -2.6426  -2.5584  -2.3298  -1.9803
    -1.5951  -1.4088  -0.7952  -0.5132  -0.1730  -0.0236   0.4112   0.6914
     0.8707   1.1557   1.5259   1.8487   2.1449   2.6474   2.7210   3.0147
     3.4650   3.6926   5.0389   7.3278

          k = 0.2778-0.1604 0.0000 (  4458 PWs)   bands (ev):

   -44.3594 -44.2805 -44.1825 -44.0787 -44.0222 -43.9562 -43.7694 -43.7613
   -43.5481 -43.5474 -43.5269 -43.5212  -3.0227  -2.6217  -2.2658  -1.9278
    -1.7290  -1.2322  -0.6966  -0.4390  -0.0422   0.1687   0.4352   0.6851
     0.8890   0.9556   1.3488   1.4775   1.7739   2.0698   2.0928   2.2041
     2.5461   3.0798   3.9096   6.2194

          k = 0.3889 0.6736 0.0000 (  4511 PWs)   bands (ev):

   -44.4096 -44.3781 -44.2390 -44.1976 -44.1245 -44.1070 -43.8881 -43.8823
   -43.7256 -43.7213 -43.5056 -43.5050  -2.5552  -2.1962  -2.0659  -1.7507
    -1.5115  -1.2859  -1.1805  -0.4383  -0.2303   0.0089   0.1971   0.8658
     0.9488   1.0646   1.7039   1.9964   2.4353   2.7259   2.8188   3.0753
     7.6575   8.1818   8.7296   9.2904

          k = 0.3889-0.3528 0.0000 (  4485 PWs)   bands (ev):

   -44.4502 -44.4187 -44.2152 -44.1503 -44.0903 -44.0392 -43.9201 -43.9129
   -43.6300 -43.6292 -43.5109 -43.5082  -2.9561  -2.7452  -2.6564  -2.1876
    -1.8768  -1.6459  -0.9468  -0.4072  -0.1162   0.3028   0.4715   1.1798
     1.6844   1.9204   2.0904   2.5234   2.6413   2.7885   3.0917   3.3188
     5.2125   5.9300   6.7802   8.2551

          k = 0.3889-0.2245 0.0000 (  4444 PWs)   bands (ev):

   -44.4252 -44.4014 -44.2291 -44.1155 -44.0627 -43.9893 -43.9030 -43.8881
   -43.5835 -43.5829 -43.5162 -43.5113  -3.0527  -2.9347  -2.6816  -2.3441
    -2.0608  -1.6174  -0.6951  -0.3812  -0.0543   0.2997   0.9137   0.9477
     1.8587   2.0671   2.4691   2.6756   2.7074   2.8171   2.9971   3.1190
     3.2543   3.6741   5.1525   7.5881

          k =-0.5000-0.8660 0.0000 (  4492 PWs)   bands (ev):

   -44.4825 -44.4487 -44.2189 -44.1402 -44.0792 -44.0024 -43.9469 -43.9371
   -43.5979 -43.5971 -43.5126 -43.5084  -3.2498  -3.0348  -2.8875  -2.4891
    -2.2265  -1.7790  -0.7610  -0.5741  -0.1532   0.6670   0.8986   1.2191
     2.1443   2.3318   2.8517   2.8954   3.1009   3.2624   3.5826   3.6050
     4.3771   5.9205   6.4231   6.7340

 ------ SPIN DOWN ----------


          k = 0.0556 0.0962 0.0000 (  4451 PWs)   bands (ev):

   -44.4218 -44.1268 -43.9756 -43.9567 -43.9357 -43.9029 -43.5531 -43.5382
   -43.5213 -43.5181 -43.4881 -43.4877  -4.4562  -3.3228  -2.8530  -2.5957
    -0.7288  -0.5744  -0.5548  -0.1490  -0.0991  -0.0693  -0.0090   0.0858
     0.3433   0.4563   0.4825   1.3912   1.4881   1.5807   1.9233   2.0462
     2.2199   2.7129   2.9521   3.8324

          k = 0.0556 0.2245 0.0000 (  4420 PWs)   bands (ev):

   -44.3837 -44.1778 -44.0781 -44.0462 -43.9870 -43.9340 -43.6481 -43.6457
   -43.5372 -43.5279 -43.5212 -43.5205  -3.5761  -2.6095  -2.2573  -1.9026
    -1.3243  -1.0261  -0.9517  -0.2331  -0.2247  -0.1015   0.1775   0.3293
     0.5675   0.8410   0.9267   1.0351   1.2308   1.5130   1.8196   2.0018
     2.4705   2.9245   3.3105   5.2006

          k = 0.0556 0.3528 0.0000 (  4467 PWs)   bands (ev):

   -44.3587 -44.3188 -44.2119 -44.0884 -44.0384 -43.9742 -43.8095 -43.7995
   -43.5653 -43.5649 -43.5230 -43.5180  -2.8611  -2.6373  -2.3163  -2.0247
    -1.7183  -1.3403  -0.5920  -0.5389  -0.0733   0.0556   0.4700   0.7754
     0.9443   1.1192   1.5174   1.7341   2.1214   2.2114   2.5271   2.6286
     2.7453   3.0224   4.3203   6.6790

          k = 0.0556 0.4811 0.0000 (  4463 PWs)   bands (ev):

   -44.4456 -44.4166 -44.2242 -44.1282 -44.0745 -44.0053 -43.9189 -43.9061
   -43.5984 -43.5981 -43.5137 -43.5097  -3.0671  -2.9060  -2.7303  -2.3356
    -2.0509  -1.6673  -0.7812  -0.4274  -0.0972   0.3851   0.7347   1.1323
     1.9171   2.0502   2.4079   2.6068   2.8175   2.8787   3.0671   3.3110
     4.0062   4.6892   5.7570   7.8850

          k = 0.0556-0.5453 0.0000 (  4486 PWs)   bands (ev):

   -44.4739 -44.4405 -44.2172 -44.1419 -44.0831 -44.0127 -43.9393 -43.9309
   -43.6060 -43.6057 -43.5116 -43.5082  -3.1706  -2.9589  -2.8314  -2.4088
    -2.1351  -1.7452  -0.8099  -0.5269  -0.1398   0.5755   0.7449   1.2457
     2.0601   2.2352   2.6250   2.8226   2.9275   3.1252   3.3341   3.4328
     4.7354   5.9367   6.3530   7.3836

          k = 0.0556-0.4170 0.0000 (  4465 PWs)   bands (ev):

   -44.3945 -44.3783 -44.2301 -44.1081 -44.0593 -43.9921 -43.8747 -43.8618
   -43.5844 -43.5842 -43.5178 -43.5130  -2.8914  -2.8220  -2.5420  -2.2063
    -1.8981  -1.5242  -0.7096  -0.2654  -0.0722   0.0573   0.6319   1.0338
     1.3615   1.8402   1.9327   2.2035   2.4160   2.6882   2.7099   3.1104
     3.2570   3.5662   5.0007   7.4115

          k = 0.0556-0.2887 0.0000 (  4439 PWs)   bands (ev):

   -44.3637 -44.2432 -44.1535 -44.0700 -44.0130 -43.9538 -43.7301 -43.7243
   -43.5431 -43.5427 -43.5293 -43.5230  -3.1095  -2.4873  -2.1830  -1.7229
    -1.6403  -1.1482  -0.9775  -0.4115  -0.1183   0.1239   0.1978   0.4324
     0.6428   0.9540   1.0936   1.2644   1.6767   1.9663   1.9964   2.2044
     2.5122   2.9690   3.7642   5.9313

          k = 0.0556-0.1604 0.0000 (  4443 PWs)   bands (ev):

   -44.4053 -44.1409 -44.0157 -44.0021 -43.9624 -43.9165 -43.5765 -43.5759
   -43.5453 -43.5310 -43.5021 -43.5019  -4.0716  -2.9749  -2.5525  -2.2664
    -0.9924  -0.7970  -0.7531  -0.1940  -0.1147   0.0344   0.0690   0.1698
     0.2583   0.6512   0.7591   1.1862   1.3023   1.3431   1.7294   2.0155
     2.3688   2.8676   2.9967   4.4931

          k = 0.0556-0.0321 0.0000 (  4465 PWs)   bands (ev):

   -44.4309 -44.1231 -43.9522 -43.9434 -43.9088 -43.8956 -43.5576 -43.5379
   -43.4920 -43.4915 -43.4806 -43.4804  -4.6621  -3.5184  -3.0253  -2.7844
    -0.5329  -0.4896  -0.4406  -0.2990  -0.2136  -0.1267   0.0963   0.1866
     0.2248   0.3349   0.5737   1.5147   1.5171   1.8762   1.9185   2.1138
     2.5115   2.5560   3.0006   3.3083

          k = 0.1667 0.2887 0.0000 (  4425 PWs)   bands (ev):

   -44.3525 -44.2675 -44.1966 -44.0755 -44.0363 -43.9930 -43.7628 -43.7568
   -43.5762 -43.5758 -43.5233 -43.5199  -2.6926  -2.1790  -1.8525  -1.7643
    -1.5921  -1.2845  -0.8624  -0.6424  -0.3544  -0.2956  -0.2138   0.4059
     0.4974   0.9589   1.1261   1.5566   2.0474   2.2894   2.4413   2.7292
     2.8126   2.8763   4.3153   6.4971

          k = 0.1667 0.4170 0.0000 (  4459 PWs)   bands (ev):

   -44.3821 -44.3630 -44.2338 -44.1269 -44.0884 -44.0480 -43.8621 -43.8554
   -43.6397 -43.6377 -43.5130 -43.5110  -2.5081  -2.4008  -2.2109  -1.8680
    -1.4244  -1.3727  -0.9843  -0.5479  -0.3521   0.0651   0.3250   0.5516
     0.7158   1.0964   1.6137   1.7769   2.0441   2.6791   3.0162   3.2193
     4.4934   4.8699   6.0810   8.1853

          k = 0.1667 0.5453 0.0000 (  4490 PWs)   bands (ev):

   -44.4376 -44.4047 -44.2059 -44.1853 -44.1010 -44.0829 -43.9084 -43.9058
   -43.6741 -43.6718 -43.5073 -43.5065  -2.7765  -2.4856  -2.4238  -1.9573
    -1.5854  -1.5231  -1.1701  -0.3860  -0.0855   0.0880   0.2564   1.0663
     1.3067   1.5414   1.8841   2.3089   2.5037   2.7670   2.9488   3.2250
     6.4777   7.1918   7.9207   8.5977

          k = 0.1667-0.4811 0.0000 (  4476 PWs)   bands (ev):

   -44.4170 -44.3905 -44.2215 -44.1598 -44.0984 -44.0688 -43.8933 -43.8880
   -43.6622 -43.6598 -43.5095 -43.5078  -2.6809  -2.4537  -2.3473  -1.9239
    -1.5226  -1.4668  -1.0928  -0.4142  -0.1223  -0.0330   0.3266   0.9205
     1.0798   1.3326   1.8103   2.0555   2.1834   2.7194   3.0597   3.3095
     5.5095   6.0632   7.1555   8.9336

          k = 0.1667-0.3528 0.0000 (  4458 PWs)   bands (ev):

   -44.3551 -44.3196 -44.2316 -44.0949 -44.0684 -44.0229 -43.8176 -43.8104
   -43.6094 -43.6084 -43.5178 -43.5160  -2.4382  -2.2734  -2.0545  -1.7972
    -1.4145  -1.3226  -0.9361  -0.6628  -0.3921  -0.0655   0.1005   0.2556
     0.5270   0.9660   1.3163   1.7628   1.9924   2.5792   2.7569   2.9837
     3.5812   3.7662   5.0879   7.2978

          k = 0.1667-0.2245 0.0000 (  4433 PWs)   bands (ev):

   -44.3669 -44.2185 -44.1384 -44.0625 -44.0073 -43.9611 -43.7039 -43.7001
   -43.5456 -43.5454 -43.5306 -43.5239  -3.1403  -2.3119  -2.0437  -1.6950
    -1.4867  -1.2290  -0.9942  -0.4888  -0.3389  -0.2416   0.0253   0.3455
     0.6722   0.9249   1.0138   1.1808   1.6811   1.9930   2.0757   2.2497
     2.3790   2.8201   3.7519   5.7977

          k = 0.1667-0.0962 0.0000 (  4427 PWs)   bands (ev):

   -44.3980 -44.1518 -44.0376 -44.0184 -43.9747 -43.9187 -43.6029 -43.6018
   -43.5424 -43.5300 -43.5070 -43.5064  -3.9009  -2.8486  -2.4486  -2.1361
    -1.1393  -0.8565  -0.8220  -0.1755  -0.1284   0.0437   0.1386   0.2863
     0.3058   0.6926   0.8764   0.9963   1.2347   1.3992   1.7047   1.8960
     2.5473   2.9270   3.0356   4.7405

          k = 0.2778 0.4811 0.0000 (  4485 PWs)   bands (ev):

   -44.3847 -44.3619 -44.2599 -44.1813 -44.1452 -44.0974 -43.8679 -43.8642
   -43.7355 -43.7311 -43.5060 -43.5053  -2.3364  -2.2004  -1.8735  -1.5567
    -1.4237  -1.2290  -1.1442  -0.5625  -0.3102   0.1256   0.3117   0.3846
     0.5329   1.0659   1.5764   1.6598   2.1081   2.6960   2.9723   3.2001
     6.8531   7.5470   8.7100  10.3461

          k = 0.2778 0.6094 0.0000 (  4491 PWs)   bands (ev):

   -44.3747 -44.3508 -44.2837 -44.2125 -44.1382 -44.1116 -43.8600 -43.8538
   -43.7690 -43.7639 -43.5044 -43.5035  -2.3036  -2.0614  -1.8085  -1.6114
    -1.5711  -1.1216  -1.0965  -0.4616  -0.3214   0.0800   0.2185   0.4697
     0.5732   1.0808   1.5815   1.6801   2.3278   2.6957   2.8034   2.9830
     8.1109   8.8481   9.5126  10.1841

          k = 0.2778-0.4170 0.0000 (  4462 PWs)   bands (ev):

   -44.3890 -44.3675 -44.2395 -44.1519 -44.1238 -44.0787 -43.8693 -43.8671
   -43.6884 -43.6852 -43.5086 -43.5077  -2.4330  -2.2646  -2.0311  -1.7029
    -1.3187  -1.2510  -1.1565  -0.6212  -0.3600   0.1398   0.3233   0.4247
     0.5704   1.0269   1.6296   1.7499   1.9400   2.7004   3.0830   3.3103
     5.6372   6.1724   7.3486   9.2428

          k = 0.2778-0.2887 0.0000 (  4463 PWs)   bands (ev):

   -44.3673 -44.3479 -44.2290 -44.1032 -44.0619 -44.0075 -43.8418 -43.8322
   -43.5967 -43.5962 -43.5180 -43.5144  -2.6425  -2.5583  -2.3297  -1.9802
    -1.5951  -1.4087  -0.7952  -0.5132  -0.1729  -0.0235   0.4113   0.6915
     0.8708   1.1558   1.5260   1.8488   2.1450   2.6475   2.7211   3.0148
     3.4650   3.6927   5.0389   7.3278

          k = 0.2778-0.1604 0.0000 (  4458 PWs)   bands (ev):

   -44.3593 -44.2804 -44.1824 -44.0787 -44.0222 -43.9561 -43.7693 -43.7611
   -43.5480 -43.5473 -43.5267 -43.5210  -3.0227  -2.6216  -2.2657  -1.9277
    -1.7290  -1.2321  -0.6965  -0.4389  -0.0421   0.1687   0.4353   0.6852
     0.8890   0.9557   1.3489   1.4776   1.7739   2.0698   2.0929   2.2042
     2.5462   3.0799   3.9096   6.2194

          k = 0.3889 0.6736 0.0000 (  4511 PWs)   bands (ev):

   -44.4095 -44.3780 -44.2389 -44.1975 -44.1244 -44.1069 -43.8880 -43.8822
   -43.7255 -43.7212 -43.5055 -43.5048  -2.5552  -2.1962  -2.0659  -1.7507
    -1.5114  -1.2858  -1.1805  -0.4383  -0.2303   0.0090   0.1972   0.8658
     0.9488   1.0647   1.7040   1.9965   2.4354   2.7260   2.8189   3.0754
     7.6576   8.1818   8.7297   9.2905

          k = 0.3889-0.3528 0.0000 (  4485 PWs)   bands (ev):

   -44.4501 -44.4186 -44.2152 -44.1502 -44.0902 -44.0391 -43.9200 -43.9128
   -43.6299 -43.6290 -43.5107 -43.5081  -2.9560  -2.7452  -2.6563  -2.1876
    -1.8768  -1.6458  -0.9468  -0.4072  -0.1162   0.3028   0.4716   1.1799
     1.6844   1.9205   2.0905   2.5235   2.6413   2.7886   3.0917   3.3189
     5.2126   5.9300   6.7802   8.2551

          k = 0.3889-0.2245 0.0000 (  4444 PWs)   bands (ev):

   -44.4251 -44.4013 -44.2291 -44.1154 -44.0626 -43.9892 -43.9029 -43.8880
   -43.5834 -43.5828 -43.5161 -43.5112  -3.0527  -2.9346  -2.6815  -2.3440
    -2.0607  -1.6173  -0.6950  -0.3811  -0.0543   0.2998   0.9138   0.9478
     1.8588   2.0672   2.4692   2.6757   2.7074   2.8171   2.9972   3.1191
     3.2544   3.6742   5.1525   7.5882

          k =-0.5000-0.8660 0.0000 (  4492 PWs)   bands (ev):

   -44.4824 -44.4487 -44.2188 -44.1401 -44.0791 -44.0024 -43.9468 -43.9370
   -43.5978 -43.5970 -43.5125 -43.5083  -3.2498  -3.0348  -2.8875  -2.4890
    -2.2265  -1.7789  -0.7609  -0.5741  -0.1531   0.6671   0.8987   1.2192
     2.1444   2.3319   2.8518   2.8955   3.1009   3.2624   3.5827   3.6051
     4.3772   5.9206   6.4232   6.7340

     the Fermi energy is     2.5487 ev

!    total energy              =    -684.65250445 Ry
     estimated scf accuracy    <       0.00000012 Ry
     smearing contrib. (-TS)   =      -0.01879784 Ry
     internal energy E=F+TS    =    -684.63370661 Ry

     The total energy is F=E-TS. E is the sum of the following terms:
     one-electron contribution =   -9465.69816646 Ry
     hartree contribution      =    4746.41771156 Ry
     xc contribution           =    -119.55601480 Ry
     ewald contribution        =    4154.20276310 Ry

     total magnetization       =     0.00 Bohr mag/cell
     absolute magnetization    =     0.00 Bohr mag/cell

     convergence has been achieved in  11 iterations

     negative rho (up, down):  1.152E-01 1.153E-01

     Forces acting on atoms (cartesian axes, Ry/au):

     atom    1 type  1   force =     0.00000000    0.00000000    0.00762173
     atom    2 type  1   force =     0.00000000    0.00000000    0.00206527
     atom    3 type  1   force =     0.00000000    0.00000000   -0.00205316
     atom    4 type  1   force =     0.00000000    0.00000000   -0.00763384

     Total force =     0.011173     Total SCF correction =     0.002404
     SCF correction compared to forces is large: reduce conv_thr to get better values
     Energy error            =      1.9E-04
     Gradient error          =      7.6E-03

     number of scf cycles    =   3
     number of bfgs steps    =   2

     energy   old            =    -684.6523134160 Ry
     energy   new            =    -684.6525044529 Ry

     CASE: energy  _new < energy  _old

     new trust radius        =       0.0169778418 bohr
     new conv_thr            =       0.0000001910 Ry


ATOMIC_POSITIONS (angstrom)
Rh            0.0000000000        0.0000000000        0.0203831054
Rh            2.7108568000        1.5651139000        2.2160812344
Rh            1.3554284000        0.7825569000        4.4241703942
Rh            0.0000000000        0.0000000000        6.6197970660



     Writing output data file /home/STUDENTI/leonardo.razzai/WORK/relax_surf/4-L.save/
     NEW-OLD atomic charge density approx. for the potential

     negative rho (up, down):  1.139E-01 1.139E-01
     Generating pointlists ...

     total cpu time spent up to now is      268.6 secs

     Self-consistent Calculation

     iteration #  1     ecut=    35.00 Ry     beta= 0.40
     Davidson diagonalization with overlap
     ethr =  1.00E-06,  avg # of iterations =  6.0

     negative rho (up, down):  1.139E-01 1.139E-01

     total cpu time spent up to now is      283.2 secs

     total energy              =    -684.65207283 Ry
     estimated scf accuracy    <       0.01792211 Ry

     total magnetization       =     0.00 Bohr mag/cell
     absolute magnetization    =     0.00 Bohr mag/cell

     iteration #  2     ecut=    35.00 Ry     beta= 0.40
     Davidson diagonalization with overlap
     ethr =  2.99E-05,  avg # of iterations =  1.0

     negative rho (up, down):  1.139E-01 1.139E-01

     total cpu time spent up to now is      290.3 secs

     total energy              =    -684.65259858 Ry
     estimated scf accuracy    <       0.00460902 Ry

     total magnetization       =     0.00 Bohr mag/cell
     absolute magnetization    =     0.00 Bohr mag/cell

     iteration #  3     ecut=    35.00 Ry     beta= 0.40
     Davidson diagonalization with overlap
     ethr =  7.68E-06,  avg # of iterations =  1.0

     negative rho (up, down):  1.139E-01 1.139E-01

     total cpu time spent up to now is      297.3 secs

     total energy              =    -684.65275356 Ry
     estimated scf accuracy    <       0.00086399 Ry

     total magnetization       =     0.00 Bohr mag/cell
     absolute magnetization    =     0.00 Bohr mag/cell

     iteration #  4     ecut=    35.00 Ry     beta= 0.40
     Davidson diagonalization with overlap
     ethr =  1.44E-06,  avg # of iterations =  1.0

     negative rho (up, down):  1.139E-01 1.139E-01

     total cpu time spent up to now is      304.2 secs

     total energy              =    -684.65272121 Ry
     estimated scf accuracy    <       0.00044965 Ry

     total magnetization       =     0.00 Bohr mag/cell
     absolute magnetization    =     0.00 Bohr mag/cell

     iteration #  5     ecut=    35.00 Ry     beta= 0.40
     Davidson diagonalization with overlap
     ethr =  7.49E-07,  avg # of iterations =  1.2

     negative rho (up, down):  1.139E-01 1.139E-01

     total cpu time spent up to now is      311.2 secs

     total energy              =    -684.65273615 Ry
     estimated scf accuracy    <       0.00001503 Ry

     total magnetization       =     0.00 Bohr mag/cell
     absolute magnetization    =     0.00 Bohr mag/cell

     iteration #  6     ecut=    35.00 Ry     beta= 0.40
     Davidson diagonalization with overlap
     ethr =  2.51E-08,  avg # of iterations =  2.7

     negative rho (up, down):  1.139E-01 1.139E-01

     total cpu time spent up to now is      319.2 secs

     total energy              =    -684.65273692 Ry
     estimated scf accuracy    <       0.00001372 Ry

     total magnetization       =     0.00 Bohr mag/cell
     absolute magnetization    =     0.00 Bohr mag/cell

     iteration #  7     ecut=    35.00 Ry     beta= 0.40
     Davidson diagonalization with overlap
     ethr =  2.29E-08,  avg # of iterations =  1.0

     negative rho (up, down):  1.139E-01 1.139E-01

     total cpu time spent up to now is      326.2 secs

     total energy              =    -684.65273689 Ry
     estimated scf accuracy    <       0.00000309 Ry

     total magnetization       =     0.00 Bohr mag/cell
     absolute magnetization    =     0.00 Bohr mag/cell

     iteration #  8     ecut=    35.00 Ry     beta= 0.40
     Davidson diagonalization with overlap
     ethr =  5.16E-09,  avg # of iterations =  2.0

     negative rho (up, down):  1.139E-01 1.139E-01

     total cpu time spent up to now is      333.8 secs

     total energy              =    -684.65273708 Ry
     estimated scf accuracy    <       0.00000661 Ry

     total magnetization       =     0.00 Bohr mag/cell
     absolute magnetization    =     0.00 Bohr mag/cell

     iteration #  9     ecut=    35.00 Ry     beta= 0.40
     Davidson diagonalization with overlap
     ethr =  5.16E-09,  avg # of iterations =  1.2

     negative rho (up, down):  1.139E-01 1.139E-01

     total cpu time spent up to now is      341.0 secs

     total energy              =    -684.65273901 Ry
     estimated scf accuracy    <       0.00000095 Ry

     total magnetization       =    -0.00 Bohr mag/cell
     absolute magnetization    =     0.00 Bohr mag/cell

     iteration # 10     ecut=    35.00 Ry     beta= 0.40
     Davidson diagonalization with overlap
     ethr =  1.58E-09,  avg # of iterations =  1.7

     negative rho (up, down):  1.139E-01 1.139E-01

     total cpu time spent up to now is      348.5 secs

     total energy              =    -684.65273940 Ry
     estimated scf accuracy    <       0.00000084 Ry

     total magnetization       =    -0.00 Bohr mag/cell
     absolute magnetization    =     0.00 Bohr mag/cell

     iteration # 11     ecut=    35.00 Ry     beta= 0.40
     Davidson diagonalization with overlap
     ethr =  1.41E-09,  avg # of iterations =  1.3

     negative rho (up, down):  1.139E-01 1.139E-01
 
     Magnetic moment per site:
     atom:    1    charge:   13.1831    magn:   -0.0000    constr:    0.0000
     atom:    2    charge:   13.2424    magn:   -0.0000    constr:    0.0000
     atom:    3    charge:   13.2427    magn:   -0.0000    constr:    0.0000
     atom:    4    charge:   13.1832    magn:   -0.0000    constr:    0.0000

     total cpu time spent up to now is      355.1 secs

     End of self-consistent calculation

 ------ SPIN UP ------------


          k = 0.0556 0.0962 0.0000 (  4451 PWs)   bands (ev):

   -44.4325 -44.1351 -43.9799 -43.9609 -43.9395 -43.9064 -43.5575 -43.5422
   -43.5241 -43.5208 -43.4908 -43.4906  -4.4690  -3.3326  -2.8665  -2.6055
    -0.7377  -0.5832  -0.5595  -0.1596  -0.1145  -0.0705  -0.0187   0.0852
     0.3355   0.4557   0.4743   1.3855   1.4851   1.5770   1.9239   2.0418
     2.2166   2.7142   2.9589   3.8389

          k = 0.0556 0.2245 0.0000 (  4420 PWs)   bands (ev):

   -44.3941 -44.1852 -44.0825 -44.0513 -43.9913 -43.9375 -43.6509 -43.6484
   -43.5416 -43.5320 -43.5239 -43.5234  -3.5892  -2.6214  -2.2714  -1.9148
    -1.3372  -1.0406  -0.9627  -0.2335  -0.2314  -0.1021   0.1612   0.3282
     0.5571   0.8374   0.9142   1.0334   1.2254   1.5113   1.8222   2.0003
     2.4716   2.9320   3.3164   5.2121

          k = 0.0556 0.3528 0.0000 (  4467 PWs)   bands (ev):

   -44.3676 -44.3248 -44.2173 -44.0953 -44.0429 -43.9778 -43.8120 -43.8018
   -43.5680 -43.5677 -43.5278 -43.5226  -2.8752  -2.6529  -2.3324  -2.0384
    -1.7257  -1.3554  -0.5947  -0.5526  -0.0731   0.0376   0.4631   0.7681
     0.9327   1.1127   1.5166   1.7306   2.1244   2.2056   2.5304   2.6277
     2.7465   3.0317   4.3309   6.6945

          k = 0.0556 0.4811 0.0000 (  4463 PWs)   bands (ev):

   -44.4512 -44.4228 -44.2320 -44.1357 -44.0792 -44.0089 -43.9211 -43.9082
   -43.6011 -43.6008 -43.5188 -43.5145  -3.0840  -2.9206  -2.7477  -2.3488
    -2.0582  -1.6823  -0.7862  -0.4237  -0.1170   0.3752   0.7207   1.1231
     1.9130   2.0492   2.4064   2.6078   2.8236   2.8788   3.0654   3.3143
     4.0042   4.6911   5.7653   7.8981

          k = 0.0556-0.5453 0.0000 (  4486 PWs)   bands (ev):

   -44.4794 -44.4464 -44.2251 -44.1495 -44.0878 -44.0163 -43.9413 -43.9331
   -43.6087 -43.6084 -43.5167 -43.5132  -3.1880  -2.9734  -2.8487  -2.4220
    -2.1427  -1.7604  -0.8157  -0.5220  -0.1596   0.5668   0.7291   1.2383
     2.0599   2.2370   2.6214   2.8268   2.9284   3.1257   3.3334   3.4339
     4.7331   5.9395   6.3597   7.3916

          k = 0.0556-0.4170 0.0000 (  4465 PWs)   bands (ev):

   -44.4005 -44.3851 -44.2371 -44.1154 -44.0639 -43.9957 -43.8771 -43.8639
   -43.5872 -43.5869 -43.5227 -43.5177  -2.9070  -2.8372  -2.5594  -2.2196
    -1.9052  -1.5391  -0.7136  -0.2639  -0.0888   0.0428   0.6232   1.0195
     1.3550   1.8373   1.9283   2.2080   2.4173   2.6915   2.7064   3.1185
     3.2555   3.5667   5.0112   7.4272

          k = 0.0556-0.2887 0.0000 (  4439 PWs)   bands (ev):

   -44.3737 -44.2496 -44.1581 -44.0762 -44.0174 -43.9574 -43.7328 -43.7268
   -43.5459 -43.5454 -43.5338 -43.5273  -3.1230  -2.5016  -2.1972  -1.7382
    -1.6498  -1.1625  -0.9913  -0.4131  -0.1195   0.1057   0.1922   0.4302
     0.6366   0.9410   1.0934   1.2578   1.6697   1.9685   1.9944   2.2061
     2.5157   2.9777   3.7728   5.9451

          k = 0.0556-0.1604 0.0000 (  4443 PWs)   bands (ev):

   -44.4159 -44.1491 -44.0202 -44.0061 -43.9665 -43.9201 -43.5794 -43.5788
   -43.5496 -43.5349 -43.5049 -43.5047  -4.0845  -2.9854  -2.5663  -2.2773
    -1.0034  -0.8101  -0.7616  -0.2019  -0.1166   0.0376   0.0521   0.1597
     0.2585   0.6417   0.7496   1.1835   1.3007   1.3399   1.7313   2.0116
     2.3667   2.8719   3.0025   4.5020

          k = 0.0556-0.0321 0.0000 (  4465 PWs)   bands (ev):

   -44.4417 -44.1315 -43.9564 -43.9476 -43.9124 -43.8991 -43.5621 -43.5418
   -43.4948 -43.4943 -43.4834 -43.4832  -4.6749  -3.5279  -3.0386  -2.7938
    -0.5391  -0.4867  -0.4510  -0.3100  -0.2278  -0.1285   0.0863   0.1811
     0.2147   0.3273   0.5757   1.5106   1.5124   1.8670   1.9121   2.1117
     2.5171   2.5550   3.0074   3.3126

          k = 0.1667 0.2887 0.0000 (  4425 PWs)   bands (ev):

   -44.3620 -44.2738 -44.2016 -44.0819 -44.0405 -43.9968 -43.7653 -43.7591
   -43.5789 -43.5785 -43.5278 -43.5245  -2.7072  -2.1935  -1.8671  -1.7805
    -1.6090  -1.3003  -0.8703  -0.6493  -0.3565  -0.3021  -0.2284   0.4078
     0.4954   0.9523   1.1234   1.5489   2.0465   2.2852   2.4462   2.7295
     2.8136   2.8807   4.3258   6.5119

          k = 0.1667 0.4170 0.0000 (  4459 PWs)   bands (ev):

   -44.3884 -44.3692 -44.2412 -44.1330 -44.0936 -44.0521 -43.8643 -43.8575
   -43.6424 -43.6403 -43.5179 -43.5159  -2.5257  -2.4170  -2.2275  -1.8835
    -1.4352  -1.3879  -0.9975  -0.5599  -0.3634   0.0654   0.3191   0.5416
     0.7119   1.0940   1.6170   1.7780   2.0478   2.6855   3.0173   3.2229
     4.4920   4.8690   6.0890   8.1996

          k = 0.1667 0.5453 0.0000 (  4490 PWs)   bands (ev):

   -44.4432 -44.4106 -44.2134 -44.1919 -44.1069 -44.0869 -43.9107 -43.9079
   -43.6768 -43.6744 -43.5123 -43.5115  -2.7955  -2.5014  -2.4399  -1.9737
    -1.5959  -1.5376  -1.1852  -0.3908  -0.0941   0.0782   0.2510   1.0596
     1.3012   1.5395   1.8852   2.3125   2.5078   2.7732   2.9538   3.2305
     6.4759   7.1915   7.9249   8.6040

          k = 0.1667-0.4811 0.0000 (  4476 PWs)   bands (ev):

   -44.4227 -44.3965 -44.2292 -44.1661 -44.1039 -44.0730 -43.8955 -43.8902
   -43.6649 -43.6624 -43.5145 -43.5127  -2.6994  -2.4697  -2.3637  -1.9401
    -1.5329  -1.4813  -1.1076  -0.4242  -0.1315  -0.0370   0.3203   0.9124
     1.0742   1.3302   1.8124   2.0592   2.1889   2.7257   3.0632   3.3139
     5.5076   6.0631   7.1617   8.9444

          k = 0.1667-0.3528 0.0000 (  4458 PWs)   bands (ev):

   -44.3632 -44.3256 -44.2379 -44.1014 -44.0729 -44.0269 -43.8200 -43.8126
   -43.6122 -43.6111 -43.5225 -43.5206  -2.4544  -2.2895  -2.0705  -1.8122
    -1.4301  -1.3383  -0.9460  -0.6695  -0.4066  -0.0716   0.0951   0.2563
     0.5226   0.9636   1.3162   1.7597   1.9941   2.5853   2.7545   2.9883
     3.5808   3.7645   5.0979   7.3131

          k = 0.1667-0.2245 0.0000 (  4433 PWs)   bands (ev):

   -44.3770 -44.2253 -44.1429 -44.0684 -44.0116 -43.9648 -43.7066 -43.7026
   -43.5484 -43.5483 -43.5351 -43.5282  -3.1538  -2.3247  -2.0591  -1.7094
    -1.5023  -1.2429  -1.0029  -0.4956  -0.3432  -0.2442   0.0117   0.3459
     0.6681   0.9192   1.0073   1.1726   1.6747   1.9906   2.0759   2.2515
     2.3815   2.8280   3.7607   5.8110

          k = 0.1667-0.0962 0.0000 (  4427 PWs)   bands (ev):

   -44.4085 -44.1597 -44.0422 -44.0224 -43.9790 -43.9223 -43.6057 -43.6046
   -43.5468 -43.5340 -43.5098 -43.5092  -3.9138  -2.8596  -2.4624  -2.1472
    -1.1509  -0.8710  -0.8323  -0.1730  -0.1367   0.0464   0.1189   0.2752
     0.3079   0.6804   0.8672   0.9937   1.2350   1.3957   1.7067   1.8924
     2.5484   2.9287   3.0439   4.7502

          k = 0.2778 0.4811 0.0000 (  4485 PWs)   bands (ev):

   -44.3906 -44.3676 -44.2667 -44.1862 -44.1511 -44.1036 -43.8702 -43.8664
   -43.7381 -43.7335 -43.5111 -43.5102  -2.3545  -2.2202  -1.8908  -1.5746
    -1.4443  -1.2436  -1.1612  -0.5712  -0.3165   0.1195   0.3097   0.3779
     0.5295   1.0699   1.5824   1.6653   2.1122   2.7014   2.9778   3.2057
     6.8512   7.5478   8.7150  10.3539

          k = 0.2778 0.6094 0.0000 (  4491 PWs)   bands (ev):

   -44.3805 -44.3569 -44.2897 -44.2172 -44.1445 -44.1182 -43.8625 -43.8560
   -43.7716 -43.7662 -43.5095 -43.5085  -2.3228  -2.0813  -1.8256  -1.6323
    -1.5899  -1.1373  -1.1130  -0.4706  -0.3286   0.0747   0.2158   0.4646
     0.5701   1.0839   1.5899   1.6871   2.3317   2.7008   2.8093   2.9889
     8.1092   8.8488   9.5127  10.1891

          k = 0.2778-0.4170 0.0000 (  4462 PWs)   bands (ev):

   -44.3949 -44.3734 -44.2471 -44.1576 -44.1289 -44.0840 -43.8715 -43.8693
   -43.6911 -43.6878 -43.5136 -43.5126  -2.4510  -2.2823  -2.0483  -1.7197
    -1.3330  -1.2678  -1.1730  -0.6317  -0.3666   0.1348   0.3210   0.4171
     0.5665   1.0285   1.6336   1.7524   1.9453   2.7063   3.0871   3.3148
     5.6353   6.1721   7.3550   9.2548

          k = 0.2778-0.2887 0.0000 (  4463 PWs)   bands (ev):

   -44.3747 -44.3541 -44.2355 -44.1100 -44.0666 -44.0112 -43.8442 -43.8344
   -43.5994 -43.5989 -43.5228 -43.5191  -2.6576  -2.5746  -2.3466  -1.9943
    -1.6035  -1.4236  -0.8041  -0.5253  -0.1864  -0.0235   0.4031   0.6814
     0.8658   1.1495   1.5295   1.8469   2.1468   2.6534   2.7182   3.0204
     3.4642   3.6917   5.0490   7.3433

          k = 0.2778-0.1604 0.0000 (  4458 PWs)   bands (ev):

   -44.3690 -44.2866 -44.1872 -44.0853 -44.0266 -43.9596 -43.7720 -43.7635
   -43.5508 -43.5500 -43.5314 -43.5255  -3.0364  -2.6367  -2.2803  -1.9424
    -1.7365  -1.2474  -0.7101  -0.4385  -0.0419   0.1457   0.4311   0.6802
     0.8869   0.9369   1.3377   1.4833   1.7664   2.0755   2.0907   2.2044
     2.5501   3.0899   3.9186   6.2341

          k = 0.3889 0.6736 0.0000 (  4511 PWs)   bands (ev):

   -44.4151 -44.3840 -44.2450 -44.2041 -44.1292 -44.1133 -43.8903 -43.8843
   -43.7281 -43.7237 -43.5106 -43.5099  -2.5746  -2.2135  -2.0820  -1.7696
    -1.5309  -1.3005  -1.1925  -0.4483  -0.2388   0.0017   0.1969   0.8603
     0.9458   1.0631   1.7087   2.0015   2.4397   2.7322   2.8245   3.0814
     7.6564   8.1796   8.7315   9.2981

          k = 0.3889-0.3528 0.0000 (  4485 PWs)   bands (ev):

   -44.4557 -44.4246 -44.2230 -44.1573 -44.0954 -44.0428 -43.9221 -43.9150
   -43.6326 -43.6317 -43.5158 -43.5130  -2.9740  -2.7601  -2.6732  -2.2018
    -1.8850  -1.6608  -0.9581  -0.4053  -0.1294   0.2925   0.4598   1.1715
     1.6794   1.9203   2.0886   2.5264   2.6435   2.7955   3.0937   3.3228
     5.2104   5.9308   6.7863   8.2642

          k = 0.3889-0.2245 0.0000 (  4444 PWs)   bands (ev):

   -44.4308 -44.4078 -44.2365 -44.1230 -44.0672 -43.9927 -43.9052 -43.8901
   -43.5862 -43.5855 -43.5211 -43.5159  -3.0690  -2.9492  -2.6991  -2.3570
    -2.0678  -1.6322  -0.6962  -0.3782  -0.0773   0.2900   0.9090   0.9283
     1.8548   2.0632   2.4733   2.6733   2.7045   2.8161   2.9992   3.1163
     3.2595   3.6780   5.1629   7.6034

          k =-0.5000-0.8660 0.0000 (  4492 PWs)   bands (ev):

   -44.4880 -44.4545 -44.2267 -44.1479 -44.0837 -44.0059 -43.9489 -43.9393
   -43.6005 -43.5997 -43.5176 -43.5132  -3.2670  -3.0492  -2.9049  -2.5020
    -2.2339  -1.7941  -0.7637  -0.5685  -0.1763   0.6593   0.8797   1.2141
     2.1446   2.3355   2.8526   2.9012   3.0956   3.2608   3.5797   3.6040
     4.3756   5.9250   6.4297   6.7419

 ------ SPIN DOWN ----------


          k = 0.0556 0.0962 0.0000 (  4451 PWs)   bands (ev):

   -44.4325 -44.1351 -43.9799 -43.9609 -43.9395 -43.9064 -43.5575 -43.5422
   -43.5241 -43.5208 -43.4908 -43.4906  -4.4690  -3.3326  -2.8665  -2.6055
    -0.7377  -0.5832  -0.5595  -0.1596  -0.1145  -0.0705  -0.0187   0.0852
     0.3355   0.4557   0.4743   1.3855   1.4851   1.5770   1.9239   2.0418
     2.2166   2.7142   2.9589   3.8388

          k = 0.0556 0.2245 0.0000 (  4420 PWs)   bands (ev):

   -44.3941 -44.1852 -44.0825 -44.0513 -43.9913 -43.9375 -43.6509 -43.6484
   -43.5416 -43.5320 -43.5239 -43.5234  -3.5892  -2.6214  -2.2714  -1.9148
    -1.3372  -1.0406  -0.9628  -0.2335  -0.2314  -0.1021   0.1612   0.3281
     0.5571   0.8374   0.9142   1.0334   1.2254   1.5113   1.8222   2.0003
     2.4716   2.9320   3.3164   5.2121

          k = 0.0556 0.3528 0.0000 (  4467 PWs)   bands (ev):

   -44.3676 -44.3248 -44.2173 -44.0953 -44.0429 -43.9778 -43.8120 -43.8018
   -43.5680 -43.5677 -43.5278 -43.5226  -2.8752  -2.6530  -2.3324  -2.0384
    -1.7257  -1.3555  -0.5947  -0.5526  -0.0731   0.0376   0.4630   0.7681
     0.9327   1.1127   1.5166   1.7306   2.1244   2.2056   2.5303   2.6277
     2.7465   3.0317   4.3309   6.6945

          k = 0.0556 0.4811 0.0000 (  4463 PWs)   bands (ev):

   -44.4512 -44.4228 -44.2320 -44.1357 -44.0792 -44.0089 -43.9211 -43.9082
   -43.6011 -43.6008 -43.5188 -43.5145  -3.0840  -2.9206  -2.7477  -2.3488
    -2.0583  -1.6823  -0.7862  -0.4237  -0.1170   0.3752   0.7207   1.1231
     1.9130   2.0492   2.4064   2.6078   2.8236   2.8788   3.0654   3.3143
     4.0042   4.6911   5.7653   7.8981

          k = 0.0556-0.5453 0.0000 (  4486 PWs)   bands (ev):

   -44.4794 -44.4464 -44.2251 -44.1495 -44.0878 -44.0163 -43.9413 -43.9331
   -43.6088 -43.6084 -43.5167 -43.5132  -3.1880  -2.9734  -2.8487  -2.4220
    -2.1427  -1.7605  -0.8157  -0.5220  -0.1596   0.5668   0.7291   1.2382
     2.0598   2.2369   2.6214   2.8267   2.9284   3.1257   3.3334   3.4339
     4.7331   5.9395   6.3596   7.3916

          k = 0.0556-0.4170 0.0000 (  4465 PWs)   bands (ev):

   -44.4005 -44.3851 -44.2371 -44.1154 -44.0639 -43.9957 -43.8771 -43.8639
   -43.5872 -43.5869 -43.5227 -43.5177  -2.9070  -2.8372  -2.5594  -2.2196
    -1.9052  -1.5391  -0.7136  -0.2639  -0.0888   0.0428   0.6232   1.0195
     1.3550   1.8373   1.9283   2.2080   2.4173   2.6915   2.7064   3.1185
     3.2555   3.5667   5.0112   7.4272

          k = 0.0556-0.2887 0.0000 (  4439 PWs)   bands (ev):

   -44.3737 -44.2496 -44.1581 -44.0762 -44.0174 -43.9574 -43.7328 -43.7268
   -43.5459 -43.5454 -43.5338 -43.5273  -3.1230  -2.5016  -2.1972  -1.7382
    -1.6498  -1.1625  -0.9913  -0.4131  -0.1195   0.1057   0.1922   0.4302
     0.6366   0.9410   1.0934   1.2578   1.6697   1.9685   1.9944   2.2061
     2.5157   2.9777   3.7728   5.9451

          k = 0.0556-0.1604 0.0000 (  4443 PWs)   bands (ev):

   -44.4159 -44.1491 -44.0202 -44.0061 -43.9665 -43.9201 -43.5794 -43.5788
   -43.5496 -43.5349 -43.5049 -43.5047  -4.0845  -2.9854  -2.5664  -2.2773
    -1.0034  -0.8101  -0.7616  -0.2019  -0.1166   0.0376   0.0521   0.1597
     0.2585   0.6417   0.7496   1.1835   1.3007   1.3398   1.7312   2.0116
     2.3667   2.8719   3.0025   4.5020

          k = 0.0556-0.0321 0.0000 (  4465 PWs)   bands (ev):

   -44.4417 -44.1315 -43.9564 -43.9476 -43.9124 -43.8991 -43.5621 -43.5418
   -43.4948 -43.4943 -43.4834 -43.4832  -4.6749  -3.5279  -3.0386  -2.7938
    -0.5391  -0.4867  -0.4510  -0.3101  -0.2278  -0.1285   0.0863   0.1811
     0.2147   0.3272   0.5757   1.5106   1.5124   1.8670   1.9121   2.1117
     2.5171   2.5550   3.0074   3.3126

          k = 0.1667 0.2887 0.0000 (  4425 PWs)   bands (ev):

   -44.3620 -44.2738 -44.2016 -44.0819 -44.0405 -43.9968 -43.7654 -43.7592
   -43.5790 -43.5785 -43.5278 -43.5245  -2.7072  -2.1935  -1.8671  -1.7805
    -1.6090  -1.3003  -0.8703  -0.6493  -0.3565  -0.3021  -0.2284   0.4078
     0.4954   0.9523   1.1234   1.5489   2.0465   2.2851   2.4462   2.7295
     2.8136   2.8807   4.3258   6.5119

          k = 0.1667 0.4170 0.0000 (  4459 PWs)   bands (ev):

   -44.3884 -44.3692 -44.2412 -44.1330 -44.0936 -44.0521 -43.8643 -43.8575
   -43.6424 -43.6403 -43.5179 -43.5159  -2.5257  -2.4170  -2.2275  -1.8835
    -1.4352  -1.3879  -0.9975  -0.5599  -0.3634   0.0654   0.3191   0.5416
     0.7119   1.0940   1.6169   1.7780   2.0478   2.6855   3.0173   3.2229
     4.4920   4.8690   6.0890   8.1996

          k = 0.1667 0.5453 0.0000 (  4490 PWs)   bands (ev):

   -44.4432 -44.4106 -44.2134 -44.1919 -44.1069 -44.0869 -43.9107 -43.9079
   -43.6768 -43.6744 -43.5123 -43.5115  -2.7955  -2.5014  -2.4399  -1.9737
    -1.5959  -1.5376  -1.1852  -0.3908  -0.0941   0.0781   0.2509   1.0595
     1.3012   1.5395   1.8852   2.3125   2.5078   2.7732   2.9538   3.2305
     6.4759   7.1915   7.9249   8.6040

          k = 0.1667-0.4811 0.0000 (  4476 PWs)   bands (ev):

   -44.4227 -44.3965 -44.2292 -44.1661 -44.1039 -44.0730 -43.8955 -43.8902
   -43.6649 -43.6625 -43.5145 -43.5127  -2.6994  -2.4697  -2.3637  -1.9402
    -1.5329  -1.4813  -1.1076  -0.4242  -0.1315  -0.0370   0.3203   0.9124
     1.0742   1.3302   1.8124   2.0592   2.1889   2.7256   3.0632   3.3139
     5.5076   6.0631   7.1617   8.9444

          k = 0.1667-0.3528 0.0000 (  4458 PWs)   bands (ev):

   -44.3632 -44.3256 -44.2379 -44.1014 -44.0730 -44.0269 -43.8200 -43.8127
   -43.6122 -43.6111 -43.5225 -43.5206  -2.4544  -2.2895  -2.0705  -1.8122
    -1.4301  -1.3383  -0.9461  -0.6695  -0.4066  -0.0716   0.0951   0.2563
     0.5226   0.9635   1.3162   1.7597   1.9941   2.5853   2.7545   2.9883
     3.5808   3.7645   5.0979   7.3131

          k = 0.1667-0.2245 0.0000 (  4433 PWs)   bands (ev):

   -44.3770 -44.2253 -44.1429 -44.0684 -44.0116 -43.9648 -43.7066 -43.7026
   -43.5484 -43.5483 -43.5351 -43.5282  -3.1538  -2.3247  -2.0591  -1.7094
    -1.5023  -1.2429  -1.0029  -0.4956  -0.3432  -0.2442   0.0117   0.3459
     0.6681   0.9192   1.0073   1.1726   1.6746   1.9906   2.0759   2.2515
     2.3815   2.8280   3.7607   5.8110

          k = 0.1667-0.0962 0.0000 (  4427 PWs)   bands (ev):

   -44.4085 -44.1597 -44.0422 -44.0224 -43.9790 -43.9223 -43.6057 -43.6046
   -43.5468 -43.5340 -43.5098 -43.5092  -3.9138  -2.8596  -2.4624  -2.1472
    -1.1509  -0.8710  -0.8323  -0.1730  -0.1367   0.0463   0.1189   0.2751
     0.3079   0.6803   0.8672   0.9937   1.2350   1.3957   1.7067   1.8924
     2.5484   2.9287   3.0438   4.7502

          k = 0.2778 0.4811 0.0000 (  4485 PWs)   bands (ev):

   -44.3906 -44.3676 -44.2667 -44.1863 -44.1511 -44.1036 -43.8702 -43.8664
   -43.7382 -43.7335 -43.5111 -43.5103  -2.3545  -2.2203  -1.8908  -1.5746
    -1.4443  -1.2436  -1.1612  -0.5712  -0.3165   0.1195   0.3097   0.3779
     0.5295   1.0699   1.5824   1.6653   2.1122   2.7014   2.9778   3.2057
     6.8512   7.5478   8.7150  10.3539

          k = 0.2778 0.6094 0.0000 (  4491 PWs)   bands (ev):

   -44.3805 -44.3569 -44.2897 -44.2172 -44.1446 -44.1182 -43.8625 -43.8560
   -43.7716 -43.7662 -43.5095 -43.5085  -2.3228  -2.0813  -1.8256  -1.6323
    -1.5899  -1.1373  -1.1130  -0.4706  -0.3286   0.0747   0.2158   0.4646
     0.5700   1.0839   1.5899   1.6871   2.3317   2.7008   2.8093   2.9889
     8.1092   8.8488   9.5127  10.1891

          k = 0.2778-0.4170 0.0000 (  4462 PWs)   bands (ev):

   -44.3949 -44.3734 -44.2471 -44.1576 -44.1289 -44.0840 -43.8715 -43.8693
   -43.6911 -43.6878 -43.5136 -43.5126  -2.4510  -2.2823  -2.0483  -1.7197
    -1.3330  -1.2678  -1.1730  -0.6317  -0.3666   0.1348   0.3210   0.4171
     0.5665   1.0285   1.6336   1.7524   1.9453   2.7063   3.0871   3.3148
     5.6353   6.1721   7.3550   9.2548

          k = 0.2778-0.2887 0.0000 (  4463 PWs)   bands (ev):

   -44.3747 -44.3541 -44.2356 -44.1100 -44.0666 -44.0112 -43.8442 -43.8344
   -43.5994 -43.5990 -43.5228 -43.5191  -2.6576  -2.5746  -2.3466  -1.9943
    -1.6035  -1.4236  -0.8041  -0.5253  -0.1864  -0.0235   0.4031   0.6814
     0.8658   1.1495   1.5295   1.8469   2.1468   2.6534   2.7182   3.0204
     3.4642   3.6917   5.0490   7.3433

          k = 0.2778-0.1604 0.0000 (  4458 PWs)   bands (ev):

   -44.3690 -44.2866 -44.1872 -44.0853 -44.0266 -43.9596 -43.7720 -43.7635
   -43.5508 -43.5500 -43.5314 -43.5255  -3.0364  -2.6367  -2.2803  -1.9424
    -1.7365  -1.2474  -0.7101  -0.4385  -0.0419   0.1457   0.4311   0.6801
     0.8869   0.9369   1.3377   1.4833   1.7664   2.0755   2.0907   2.2044
     2.5501   3.0899   3.9186   6.2341

          k = 0.3889 0.6736 0.0000 (  4511 PWs)   bands (ev):

   -44.4151 -44.3840 -44.2450 -44.2041 -44.1292 -44.1133 -43.8904 -43.8843
   -43.7281 -43.7237 -43.5106 -43.5099  -2.5746  -2.2135  -2.0820  -1.7696
    -1.5309  -1.3005  -1.1925  -0.4483  -0.2388   0.0017   0.1969   0.8603
     0.9458   1.0631   1.7087   2.0015   2.4396   2.7322   2.8244   3.0814
     7.6563   8.1796   8.7314   9.2981

          k = 0.3889-0.3528 0.0000 (  4485 PWs)   bands (ev):

   -44.4557 -44.4246 -44.2230 -44.1573 -44.0954 -44.0428 -43.9222 -43.9150
   -43.6326 -43.6317 -43.5158 -43.5130  -2.9740  -2.7601  -2.6732  -2.2018
    -1.8850  -1.6608  -0.9581  -0.4053  -0.1294   0.2925   0.4598   1.1715
     1.6794   1.9203   2.0886   2.5264   2.6435   2.7955   3.0937   3.3228
     5.2104   5.9308   6.7863   8.2642

          k = 0.3889-0.2245 0.0000 (  4444 PWs)   bands (ev):

   -44.4308 -44.4078 -44.2365 -44.1230 -44.0672 -43.9927 -43.9052 -43.8901
   -43.5862 -43.5855 -43.5211 -43.5160  -3.0690  -2.9492  -2.6991  -2.3570
    -2.0678  -1.6322  -0.6962  -0.3782  -0.0773   0.2900   0.9090   0.9283
     1.8548   2.0632   2.4733   2.6733   2.7045   2.8161   2.9992   3.1163
     3.2595   3.6780   5.1629   7.6034

          k =-0.5000-0.8660 0.0000 (  4492 PWs)   bands (ev):

   -44.4880 -44.4545 -44.2267 -44.1479 -44.0837 -44.0059 -43.9489 -43.9393
   -43.6006 -43.5997 -43.5176 -43.5132  -3.2670  -3.0492  -2.9049  -2.5020
    -2.2339  -1.7941  -0.7637  -0.5685  -0.1763   0.6593   0.8797   1.2141
     2.1446   2.3355   2.8526   2.9012   3.0956   3.2608   3.5797   3.6040
     4.3756   5.9250   6.4297   6.7419

     the Fermi energy is     2.5512 ev

!    total energy              =    -684.65274011 Ry
     estimated scf accuracy    <       0.00000013 Ry
     smearing contrib. (-TS)   =      -0.01872604 Ry
     internal energy E=F+TS    =    -684.63401406 Ry

     The total energy is F=E-TS. E is the sum of the following terms:
     one-electron contribution =   -9484.62653076 Ry
     hartree contribution      =    4755.86779117 Ry
     xc contribution           =    -119.56393386 Ry
     ewald contribution        =    4163.68865939 Ry

     total magnetization       =    -0.00 Bohr mag/cell
     absolute magnetization    =     0.00 Bohr mag/cell

     convergence has been achieved in  11 iterations

     negative rho (up, down):  1.139E-01 1.139E-01

     Forces acting on atoms (cartesian axes, Ry/au):

     atom    1 type  1   force =     0.00000000    0.00000000    0.00552852
     atom    2 type  1   force =     0.00000000    0.00000000    0.00281177
     atom    3 type  1   force =     0.00000000    0.00000000   -0.00282401
     atom    4 type  1   force =     0.00000000    0.00000000   -0.00551628

     Total force =     0.008768     Total SCF correction =     0.001142
     SCF correction compared to forces is large: reduce conv_thr to get better values
     Energy error            =      2.4E-04
     Gradient error          =      5.5E-03

     number of scf cycles    =   4
     number of bfgs steps    =   3

     energy   old            =    -684.6525044529 Ry
     energy   new            =    -684.6527401064 Ry

     CASE: energy  _new < energy  _old

     new trust radius        =       0.0254667627 bohr
     new conv_thr            =       0.0000002357 Ry


ATOMIC_POSITIONS (angstrom)
Rh            0.0000000000        0.0000000000        0.0338587707
Rh            2.7108568000        1.5651139000        2.2200236066
Rh            1.3554284000        0.7825569000        4.4202287871
Rh            0.0000000000        0.0000000000        6.6063206355



     Writing output data file /home/STUDENTI/leonardo.razzai/WORK/relax_surf/4-L.save/
     NEW-OLD atomic charge density approx. for the potential

     negative rho (up, down):  1.112E-01 1.112E-01
     Generating pointlists ...

     total cpu time spent up to now is      357.3 secs

     Self-consistent Calculation

     iteration #  1     ecut=    35.00 Ry     beta= 0.40
     Davidson diagonalization with overlap
     ethr =  1.00E-06,  avg # of iterations =  6.8

     negative rho (up, down):  1.112E-01 1.112E-01

     total cpu time spent up to now is      373.0 secs

     total energy              =    -684.65124810 Ry
     estimated scf accuracy    <       0.04508087 Ry

     total magnetization       =    -0.00 Bohr mag/cell
     absolute magnetization    =     0.00 Bohr mag/cell

     iteration #  2     ecut=    35.00 Ry     beta= 0.40
     Davidson diagonalization with overlap
     ethr =  7.51E-05,  avg # of iterations =  1.0

     negative rho (up, down):  1.112E-01 1.112E-01

     total cpu time spent up to now is      379.9 secs

     total energy              =    -684.65262582 Ry
     estimated scf accuracy    <       0.00947758 Ry

     total magnetization       =    -0.00 Bohr mag/cell
     absolute magnetization    =     0.00 Bohr mag/cell

     iteration #  3     ecut=    35.00 Ry     beta= 0.40
     Davidson diagonalization with overlap
     ethr =  1.58E-05,  avg # of iterations =  1.0

     negative rho (up, down):  1.112E-01 1.112E-01

     total cpu time spent up to now is      386.9 secs

     total energy              =    -684.65298364 Ry
     estimated scf accuracy    <       0.00172731 Ry

     total magnetization       =    -0.00 Bohr mag/cell
     absolute magnetization    =     0.00 Bohr mag/cell

     iteration #  4     ecut=    35.00 Ry     beta= 0.40
     Davidson diagonalization with overlap
     ethr =  2.88E-06,  avg # of iterations =  1.0

     negative rho (up, down):  1.112E-01 1.112E-01

     total cpu time spent up to now is      393.8 secs

     total energy              =    -684.65295695 Ry
     estimated scf accuracy    <       0.00084620 Ry

     total magnetization       =    -0.00 Bohr mag/cell
     absolute magnetization    =     0.00 Bohr mag/cell

     iteration #  5     ecut=    35.00 Ry     beta= 0.40
     Davidson diagonalization with overlap
     ethr =  1.41E-06,  avg # of iterations =  1.2

     negative rho (up, down):  1.112E-01 1.112E-01

     total cpu time spent up to now is      400.8 secs

     total energy              =    -684.65297489 Ry
     estimated scf accuracy    <       0.00004752 Ry

     total magnetization       =    -0.00 Bohr mag/cell
     absolute magnetization    =     0.00 Bohr mag/cell

     iteration #  6     ecut=    35.00 Ry     beta= 0.40
     Davidson diagonalization with overlap
     ethr =  7.92E-08,  avg # of iterations =  2.4

     negative rho (up, down):  1.112E-01 1.112E-01

     total cpu time spent up to now is      408.4 secs

     total energy              =    -684.65297464 Ry
     estimated scf accuracy    <       0.00003241 Ry

     total magnetization       =    -0.00 Bohr mag/cell
     absolute magnetization    =     0.00 Bohr mag/cell

     iteration #  7     ecut=    35.00 Ry     beta= 0.40
     Davidson diagonalization with overlap
     ethr =  5.40E-08,  avg # of iterations =  1.2

     negative rho (up, down):  1.112E-01 1.112E-01

     total cpu time spent up to now is      415.8 secs

     total energy              =    -684.65297565 Ry
     estimated scf accuracy    <       0.00001725 Ry

     total magnetization       =    -0.00 Bohr mag/cell
     absolute magnetization    =     0.00 Bohr mag/cell

     iteration #  8     ecut=    35.00 Ry     beta= 0.40
     Davidson diagonalization with overlap
     ethr =  2.87E-08,  avg # of iterations =  1.6

     negative rho (up, down):  1.112E-01 1.112E-01

     total cpu time spent up to now is      423.1 secs

     total energy              =    -684.65297548 Ry
     estimated scf accuracy    <       0.00002448 Ry

     total magnetization       =    -0.00 Bohr mag/cell
     absolute magnetization    =     0.00 Bohr mag/cell

     iteration #  9     ecut=    35.00 Ry     beta= 0.40
     Davidson diagonalization with overlap
     ethr =  2.87E-08,  avg # of iterations =  1.1

     negative rho (up, down):  1.112E-01 1.112E-01

     total cpu time spent up to now is      430.0 secs

     total energy              =    -684.65298011 Ry
     estimated scf accuracy    <       0.00000501 Ry

     total magnetization       =     0.00 Bohr mag/cell
     absolute magnetization    =     0.00 Bohr mag/cell

     iteration # 10     ecut=    35.00 Ry     beta= 0.40
     Davidson diagonalization with overlap
     ethr =  8.34E-09,  avg # of iterations =  1.8

     negative rho (up, down):  1.112E-01 1.112E-01

     total cpu time spent up to now is      437.0 secs

     total energy              =    -684.65298050 Ry
     estimated scf accuracy    <       0.00000290 Ry

     total magnetization       =     0.00 Bohr mag/cell
     absolute magnetization    =     0.00 Bohr mag/cell

     iteration # 11     ecut=    35.00 Ry     beta= 0.40
     Davidson diagonalization with overlap
     ethr =  4.84E-09,  avg # of iterations =  1.9

     negative rho (up, down):  1.113E-01 1.113E-01

     total cpu time spent up to now is      443.9 secs

     total energy              =    -684.65298220 Ry
     estimated scf accuracy    <       0.00000038 Ry

     total magnetization       =     0.00 Bohr mag/cell
     absolute magnetization    =     0.00 Bohr mag/cell

     iteration # 12     ecut=    35.00 Ry     beta= 0.40
     Davidson diagonalization with overlap
     ethr =  6.38E-10,  avg # of iterations =  2.6

     negative rho (up, down):  1.112E-01 1.112E-01
 
     Magnetic moment per site:
     atom:    1    charge:   13.1863    magn:    0.0000    constr:    0.0000
     atom:    2    charge:   13.2481    magn:    0.0000    constr:    0.0000
     atom:    3    charge:   13.2484    magn:    0.0000    constr:    0.0000
     atom:    4    charge:   13.1864    magn:    0.0000    constr:    0.0000

     total cpu time spent up to now is      451.3 secs

     End of self-consistent calculation

 ------ SPIN UP ------------


          k = 0.0556 0.0962 0.0000 (  4451 PWs)   bands (ev):

   -44.4458 -44.1427 -43.9822 -43.9633 -43.9408 -43.9074 -43.5574 -43.5413
   -43.5219 -43.5184 -43.4886 -43.4884  -4.4849  -3.3423  -2.8822  -2.6141
    -0.7493  -0.5959  -0.5575  -0.1727  -0.1353  -0.0675  -0.0263   0.0909
     0.3300   0.4615   0.4686   1.3810   1.4854   1.5780   1.9304   2.0409
     2.2184   2.7213   2.9748   3.8534

          k = 0.0556 0.2245 0.0000 (  4420 PWs)   bands (ev):

   -44.4068 -44.1922 -44.0847 -44.0540 -43.9938 -43.9384 -43.6486 -43.6460
   -43.5413 -43.5314 -43.5217 -43.5211  -3.6055  -2.6346  -2.2887  -1.9274
    -1.3525  -1.0569  -0.9750  -0.2360  -0.2282  -0.0980   0.1384   0.3333
     0.5453   0.8374   0.9024   1.0370   1.2242   1.5138   1.8299   2.0046
     2.4778   2.9490   3.3312   5.2342

          k = 0.0556 0.3528 0.0000 (  4467 PWs)   bands (ev):

   -44.3781 -44.3302 -44.2207 -44.1006 -44.0458 -43.9786 -43.8096 -43.7990
   -43.5657 -43.5654 -43.5279 -43.5224  -2.8934  -2.6730  -2.3541  -2.0522
    -1.7305  -1.3716  -0.5944  -0.5693  -0.0687   0.0153   0.4585   0.7636
     0.9219   1.1094   1.5197   1.7309   2.1335   2.2029   2.5391   2.6323
     2.7537   3.0515   4.3520   6.7232

          k = 0.0556 0.4811 0.0000 (  4463 PWs)   bands (ev):

   -44.4561 -44.4287 -44.2390 -44.1421 -44.0823 -44.0097 -43.9184 -43.9055
   -43.5988 -43.5984 -43.5192 -43.5147  -3.1069  -2.9393  -2.7711  -2.3612
    -2.0629  -1.6970  -0.7895  -0.4129  -0.1438   0.3646   0.7069   1.1157
     1.9136   2.0521   2.4096   2.6132   2.8376   2.8840   3.0682   3.3252
     4.0062   4.6997   5.7824   7.9236

          k = 0.0556-0.5453 0.0000 (  4486 PWs)   bands (ev):

   -44.4842 -44.4517 -44.2323 -44.1561 -44.0909 -44.0170 -43.9386 -43.9307
   -43.6064 -43.6061 -43.5172 -43.5135  -3.2116  -2.9921  -2.8720  -2.4344
    -2.1476  -1.7754  -0.8205  -0.5092  -0.1864   0.5582   0.7132   1.2326
     2.0637   2.2458   2.6219   2.8373   2.9343   3.1321   3.3379   3.4413
     4.7345   5.9495   6.3740   7.4088

          k = 0.0556-0.4170 0.0000 (  4465 PWs)   bands (ev):

   -44.4063 -44.3919 -44.2429 -44.1214 -44.0669 -43.9965 -43.8745 -43.8611
   -43.5849 -43.5846 -43.5231 -43.5177  -2.9281  -2.8564  -2.5828  -2.2321
    -1.9094  -1.5541  -0.7151  -0.2567  -0.1112   0.0258   0.6158   1.0061
     1.3523   1.8381   1.9263   2.2192   2.4238   2.6996   2.7082   3.1367
     3.2587   3.5732   5.0318   7.4564

          k = 0.0556-0.2887 0.0000 (  4439 PWs)   bands (ev):

   -44.3859 -44.2555 -44.1604 -44.0804 -44.0201 -43.9582 -43.7304 -43.7241
   -43.5437 -43.5431 -43.5337 -43.5269  -3.1400  -2.5190  -2.2153  -1.7551
    -1.6584  -1.1786  -1.0074  -0.4105  -0.1151   0.0815   0.1895   0.4331
     0.6331   0.9263   1.0978   1.2545   1.6658   1.9762   1.9972   2.2140
     2.5250   2.9966   3.7914   5.9709

          k = 0.0556-0.1604 0.0000 (  4443 PWs)   bands (ev):

   -44.4290 -44.1568 -44.0225 -44.0079 -43.9687 -43.9210 -43.5773 -43.5767
   -43.5493 -43.5339 -43.5026 -43.5025  -4.1004  -2.9962  -2.5828  -2.2875
    -1.0176  -0.8242  -0.7697  -0.2079  -0.1136   0.0282   0.0478   0.1479
     0.2649   0.6345   0.7423   1.1855   1.3039   1.3402   1.7381   2.0121
     2.3694   2.8839   3.0169   4.5202

          k = 0.0556-0.0321 0.0000 (  4465 PWs)   bands (ev):

   -44.4552 -44.1389 -43.9588 -43.9501 -43.9134 -43.9000 -43.5620 -43.5408
   -43.4925 -43.4921 -43.4811 -43.4810  -4.6907  -3.5372  -3.0540  -2.8016
    -0.5468  -0.4801  -0.4591  -0.3237  -0.2467  -0.1268   0.0781   0.1796
     0.2064   0.3224   0.5851   1.5087   1.5096   1.8603   1.9093   2.1142
     2.5311   2.5584   3.0234   3.3240

          k = 0.1667 0.2887 0.0000 (  4425 PWs)   bands (ev):

   -44.3736 -44.2795 -44.2046 -44.0865 -44.0429 -43.9981 -43.7629 -43.7564
   -43.5767 -43.5762 -43.5276 -43.5244  -2.7259  -2.2113  -1.8861  -1.8030
    -1.6281  -1.3171  -0.8758  -0.6538  -0.3550  -0.3055  -0.2458   0.4161
     0.4985   0.9488   1.1245   1.5411   2.0503   2.2849   2.4586   2.7353
     2.8202   2.8929   4.3470   6.5395

          k = 0.1667 0.4170 0.0000 (  4459 PWs)   bands (ev):

   -44.3947 -44.3749 -44.2481 -44.1378 -44.0969 -44.0537 -43.8616 -43.8547
   -43.6401 -43.6379 -43.5182 -43.5160  -2.5495  -2.4383  -2.2499  -1.9000
    -1.4448  -1.4040  -1.0131  -0.5744  -0.3755   0.0715   0.3168   0.5342
     0.7120   1.0967   1.6273   1.7833   2.0571   2.7008   3.0244   3.2334
     4.4947   4.8733   6.1061   8.2267

          k = 0.1667 0.5453 0.0000 (  4490 PWs)   bands (ev):

   -44.4480 -44.4159 -44.2204 -44.1978 -44.1109 -44.0882 -43.9081 -43.9050
   -43.6744 -43.6719 -43.5127 -43.5119  -2.8214  -2.5222  -2.4617  -1.9906
    -1.6051  -1.5517  -1.2053  -0.3931  -0.1025   0.0681   0.2500   1.0559
     1.2991   1.5429   1.8909   2.3229   2.5181   2.7880   2.9666   3.2438
     6.4780   7.1967   7.9359   8.6190

          k = 0.1667-0.4811 0.0000 (  4476 PWs)   bands (ev):

   -44.4277 -44.4022 -44.2365 -44.1712 -44.1076 -44.0746 -43.8927 -43.8874
   -43.6625 -43.6600 -43.5149 -43.5130  -2.7246  -2.4907  -2.3857  -1.9571
    -1.5416  -1.4956  -1.1265  -0.4347  -0.1420  -0.0369   0.3177   0.9074
     1.0725   1.3325   1.8193   2.0700   2.2009   2.7408   3.0737   3.3256
     5.5095   6.0686   7.1760   8.9662

          k = 0.1667-0.3528 0.0000 (  4458 PWs)   bands (ev):

   -44.3726 -44.3309 -44.2428 -44.1063 -44.0755 -44.0283 -43.8174 -43.8099
   -43.6099 -43.6088 -43.5226 -43.5206  -2.4757  -2.3106  -2.0917  -1.8290
    -1.4491  -1.3543  -0.9553  -0.6755  -0.4238  -0.0742   0.0929   0.2633
     0.5218   0.9666   1.3215   1.7587   2.0011   2.5997   2.7570   3.0003
     3.5853   3.7678   5.1179   7.3417

          k = 0.1667-0.2245 0.0000 (  4433 PWs)   bands (ev):

   -44.3894 -44.2316 -44.1453 -44.0722 -44.0139 -43.9658 -43.7043 -43.7001
   -43.5462 -43.5461 -43.5348 -43.5277  -3.1708  -2.3389  -2.0800  -1.7272
    -1.5194  -1.2587  -1.0105  -0.5002  -0.3439  -0.2427  -0.0053   0.3525
     0.6678   0.9151   1.0032   1.1653   1.6715   1.9927   2.0809   2.2597
     2.3900   2.8454   3.7796   5.8361

          k = 0.1667-0.0962 0.0000 (  4427 PWs)   bands (ev):

   -44.4215 -44.1672 -44.0448 -44.0239 -43.9817 -43.9231 -43.6035 -43.6024
   -43.5465 -43.5331 -43.5075 -43.5069  -3.9298  -2.8714  -2.4787  -2.1579
    -1.1653  -0.8867  -0.8437  -0.1637  -0.1425   0.0555   0.0913   0.2612
     0.3169   0.6691   0.8603   0.9960   1.2415   1.3954   1.7132   1.8941
     2.5544   2.9379   3.0619   4.7696

          k = 0.2778 0.4811 0.0000 (  4485 PWs)   bands (ev):

   -44.3960 -44.3727 -44.2735 -44.1893 -44.1551 -44.1079 -43.8676 -43.8635
   -43.7358 -43.7308 -43.5115 -43.5106  -2.3798  -2.2464  -1.9135  -1.5961
    -1.4707  -1.2602  -1.1791  -0.5789  -0.3214   0.1171   0.3122   0.3749
     0.5306   1.0829   1.5960   1.6770   2.1227   2.7153   2.9908   3.2192
     6.8530   7.5545   8.7278  10.3709

          k = 0.2778 0.6094 0.0000 (  4491 PWs)   bands (ev):

   -44.3856 -44.3627 -44.2953 -44.2198 -44.1491 -44.1232 -43.8600 -43.8531
   -43.7691 -43.7634 -43.5101 -43.5088  -2.3496  -2.1077  -1.8503  -1.6576
    -1.6123  -1.1550  -1.1307  -0.4783  -0.3345   0.0734   0.2176   0.4636
     0.5715   1.0958   1.6056   1.7018   2.3419   2.7143   2.8230   3.0028
     8.1116   8.8553   9.5175  10.2022

          k = 0.2778-0.4170 0.0000 (  4462 PWs)   bands (ev):

   -44.4007 -44.3785 -44.2547 -44.1617 -44.1318 -44.0871 -43.8687 -43.8666
   -43.6888 -43.6852 -43.5139 -43.5129  -2.4757  -2.3060  -2.0708  -1.7390
    -1.3488  -1.2853  -1.1938  -0.6425  -0.3723   0.1333   0.3230   0.4135
     0.5670   1.0375   1.6444   1.7604   1.9569   2.7210   3.0983   3.3266
     5.6373   6.1774   7.3697   9.2785

          k = 0.2778-0.2887 0.0000 (  4463 PWs)   bands (ev):

   -44.3830 -44.3597 -44.2407 -44.1154 -44.0696 -44.0123 -43.8416 -43.8316
   -43.5971 -43.5966 -43.5230 -43.5190  -2.6777  -2.5957  -2.3694  -2.0082
    -1.6096  -1.4393  -0.8131  -0.5402  -0.2035  -0.0169   0.3970   0.6733
     0.8643   1.1463   1.5397   1.8482   2.1539   2.6667   2.7198   3.0346
     3.4681   3.6960   5.0693   7.3722

          k = 0.2778-0.1604 0.0000 (  4458 PWs)   bands (ev):

   -44.3807 -44.2921 -44.1896 -44.0902 -44.0295 -43.9604 -43.7696 -43.7608
   -43.5486 -43.5476 -43.5314 -43.5252  -3.0537  -2.6557  -2.2990  -1.9582
    -1.7415  -1.2640  -0.7270  -0.4324  -0.0354   0.1130   0.4307   0.6791
     0.8891   0.9157   1.3257   1.4970   1.7616   2.0880   2.0932   2.2100
     2.5599   3.1106   3.9378   6.2614

          k = 0.3889 0.6736 0.0000 (  4511 PWs)   bands (ev):

   -44.4200 -44.3895 -44.2506 -44.2097 -44.1315 -44.1181 -43.8878 -43.8814
   -43.7257 -43.7211 -43.5111 -43.5102  -2.6012  -2.2365  -2.1038  -1.7904
    -1.5563  -1.3148  -1.2049  -0.4574  -0.2483  -0.0027   0.2023   0.8584
     0.9485   1.0668   1.7192   2.0141   2.4500   2.7470   2.8383   3.0955
     7.6594   8.1817   8.7388   9.3153

          k = 0.3889-0.3528 0.0000 (  4485 PWs)   bands (ev):

   -44.4606 -44.4301 -44.2302 -44.1636 -44.0987 -44.0438 -43.9194 -43.9123
   -43.6302 -43.6294 -43.5163 -43.5133  -2.9984  -2.7796  -2.6958  -2.2156
    -1.8907  -1.6756  -0.9719  -0.3977  -0.1449   0.2811   0.4494   1.1652
     1.6781   1.9254   2.0909   2.5349   2.6516   2.8114   3.1019   3.3339
     5.2121   5.9377   6.8002   8.2834

          k = 0.3889-0.2245 0.0000 (  4444 PWs)   bands (ev):

   -44.4358 -44.4143 -44.2431 -44.1292 -44.0702 -43.9935 -43.9026 -43.8873
   -43.5840 -43.5831 -43.5216 -43.5160  -3.0910  -2.9677  -2.7227  -2.3691
    -2.0720  -1.6470  -0.6929  -0.3683  -0.1100   0.2795   0.9067   0.9078
     1.8560   2.0612   2.4843   2.6720   2.7064   2.8195   3.0073   3.1183
     3.2736   3.6897   5.1831   7.6321

          k =-0.5000-0.8660 0.0000 (  4492 PWs)   bands (ev):

   -44.4928 -44.4597 -44.2340 -44.1545 -44.0868 -44.0066 -43.9460 -43.9370
   -43.5982 -43.5973 -43.5181 -43.5135  -3.2903  -3.0676  -2.9284  -2.5140
    -2.2387  -1.8090  -0.7631  -0.5547  -0.2091   0.6518   0.8602   1.2112
     2.1488   2.3471   2.8599   2.9146   3.0911   3.2637   3.5815   3.6087
     4.3780   5.9367   6.4459   6.7576

 ------ SPIN DOWN ----------


          k = 0.0556 0.0962 0.0000 (  4451 PWs)   bands (ev):

   -44.4458 -44.1427 -43.9822 -43.9633 -43.9408 -43.9074 -43.5574 -43.5413
   -43.5219 -43.5184 -43.4886 -43.4884  -4.4849  -3.3423  -2.8822  -2.6141
    -0.7493  -0.5959  -0.5575  -0.1727  -0.1353  -0.0675  -0.0263   0.0909
     0.3300   0.4615   0.4686   1.3810   1.4854   1.5780   1.9304   2.0409
     2.2184   2.7213   2.9748   3.8534

          k = 0.0556 0.2245 0.0000 (  4420 PWs)   bands (ev):

   -44.4068 -44.1922 -44.0847 -44.0540 -43.9938 -43.9384 -43.6486 -43.6460
   -43.5413 -43.5314 -43.5217 -43.5211  -3.6055  -2.6346  -2.2887  -1.9274
    -1.3525  -1.0569  -0.9750  -0.2360  -0.2282  -0.0979   0.1384   0.3333
     0.5453   0.8374   0.9024   1.0370   1.2242   1.5138   1.8299   2.0046
     2.4778   2.9491   3.3312   5.2342

          k = 0.0556 0.3528 0.0000 (  4467 PWs)   bands (ev):

   -44.3781 -44.3302 -44.2207 -44.1006 -44.0458 -43.9786 -43.8096 -43.7990
   -43.5657 -43.5654 -43.5279 -43.5224  -2.8934  -2.6730  -2.3541  -2.0522
    -1.7305  -1.3716  -0.5944  -0.5693  -0.0687   0.0153   0.4585   0.7636
     0.9219   1.1094   1.5197   1.7310   2.1335   2.2029   2.5391   2.6323
     2.7537   3.0515   4.3520   6.7232

          k = 0.0556 0.4811 0.0000 (  4463 PWs)   bands (ev):

   -44.4561 -44.4287 -44.2390 -44.1421 -44.0823 -44.0097 -43.9184 -43.9055
   -43.5988 -43.5984 -43.5192 -43.5147  -3.1069  -2.9393  -2.7711  -2.3612
    -2.0629  -1.6970  -0.7895  -0.4129  -0.1438   0.3646   0.7069   1.1157
     1.9136   2.0521   2.4096   2.6132   2.8376   2.8840   3.0682   3.3252
     4.0062   4.6997   5.7824   7.9236

          k = 0.0556-0.5453 0.0000 (  4486 PWs)   bands (ev):

   -44.4842 -44.4517 -44.2323 -44.1561 -44.0909 -44.0170 -43.9386 -43.9307
   -43.6064 -43.6061 -43.5172 -43.5135  -3.2116  -2.9921  -2.8720  -2.4344
    -2.1476  -1.7754  -0.8205  -0.5092  -0.1864   0.5582   0.7132   1.2326
     2.0637   2.2458   2.6219   2.8373   2.9343   3.1321   3.3379   3.4413
     4.7345   5.9495   6.3740   7.4088

          k = 0.0556-0.4170 0.0000 (  4465 PWs)   bands (ev):

   -44.4063 -44.3919 -44.2429 -44.1214 -44.0669 -43.9965 -43.8745 -43.8611
   -43.5849 -43.5846 -43.5231 -43.5177  -2.9281  -2.8564  -2.5828  -2.2321
    -1.9094  -1.5541  -0.7151  -0.2567  -0.1112   0.0258   0.6158   1.0061
     1.3523   1.8381   1.9263   2.2192   2.4238   2.6996   2.7082   3.1367
     3.2587   3.5732   5.0318   7.4564

          k = 0.0556-0.2887 0.0000 (  4439 PWs)   bands (ev):

   -44.3859 -44.2555 -44.1604 -44.0804 -44.0201 -43.9582 -43.7304 -43.7241
   -43.5437 -43.5431 -43.5337 -43.5269  -3.1400  -2.5190  -2.2153  -1.7551
    -1.6584  -1.1786  -1.0074  -0.4105  -0.1151   0.0815   0.1895   0.4331
     0.6331   0.9263   1.0978   1.2545   1.6658   1.9762   1.9972   2.2140
     2.5250   2.9966   3.7914   5.9709

          k = 0.0556-0.1604 0.0000 (  4443 PWs)   bands (ev):

   -44.4290 -44.1568 -44.0225 -44.0079 -43.9687 -43.9210 -43.5773 -43.5767
   -43.5493 -43.5339 -43.5026 -43.5024  -4.1004  -2.9962  -2.5828  -2.2875
    -1.0176  -0.8242  -0.7697  -0.2079  -0.1136   0.0282   0.0478   0.1479
     0.2649   0.6345   0.7423   1.1855   1.3039   1.3402   1.7381   2.0121
     2.3694   2.8839   3.0169   4.5202

          k = 0.0556-0.0321 0.0000 (  4465 PWs)   bands (ev):

   -44.4552 -44.1389 -43.9588 -43.9501 -43.9134 -43.9000 -43.5620 -43.5408
   -43.4925 -43.4921 -43.4811 -43.4810  -4.6907  -3.5372  -3.0540  -2.8016
    -0.5468  -0.4801  -0.4591  -0.3237  -0.2467  -0.1268   0.0781   0.1796
     0.2064   0.3224   0.5851   1.5087   1.5096   1.8603   1.9093   2.1142
     2.5311   2.5584   3.0234   3.3240

          k = 0.1667 0.2887 0.0000 (  4425 PWs)   bands (ev):

   -44.3736 -44.2795 -44.2046 -44.0865 -44.0429 -43.9981 -43.7629 -43.7564
   -43.5767 -43.5762 -43.5276 -43.5244  -2.7259  -2.2113  -1.8861  -1.8030
    -1.6281  -1.3171  -0.8758  -0.6538  -0.3550  -0.3055  -0.2458   0.4161
     0.4985   0.9488   1.1245   1.5411   2.0503   2.2849   2.4586   2.7353
     2.8202   2.8929   4.3470   6.5395

          k = 0.1667 0.4170 0.0000 (  4459 PWs)   bands (ev):

   -44.3947 -44.3749 -44.2481 -44.1378 -44.0969 -44.0537 -43.8616 -43.8547
   -43.6401 -43.6379 -43.5182 -43.5160  -2.5495  -2.4383  -2.2499  -1.9000
    -1.4448  -1.4040  -1.0131  -0.5744  -0.3755   0.0715   0.3168   0.5342
     0.7120   1.0967   1.6273   1.7833   2.0571   2.7008   3.0244   3.2334
     4.4947   4.8733   6.1061   8.2267

          k = 0.1667 0.5453 0.0000 (  4490 PWs)   bands (ev):

   -44.4480 -44.4159 -44.2204 -44.1978 -44.1109 -44.0882 -43.9081 -43.9050
   -43.6744 -43.6719 -43.5127 -43.5119  -2.8214  -2.5222  -2.4617  -1.9906
    -1.6051  -1.5517  -1.2053  -0.3931  -0.1025   0.0681   0.2500   1.0559
     1.2991   1.5429   1.8909   2.3229   2.5181   2.7880   2.9666   3.2438
     6.4780   7.1967   7.9359   8.6190

          k = 0.1667-0.4811 0.0000 (  4476 PWs)   bands (ev):

   -44.4277 -44.4022 -44.2365 -44.1712 -44.1076 -44.0746 -43.8927 -43.8874
   -43.6625 -43.6600 -43.5149 -43.5130  -2.7246  -2.4907  -2.3857  -1.9571
    -1.5416  -1.4956  -1.1265  -0.4347  -0.1420  -0.0369   0.3177   0.9074
     1.0725   1.3325   1.8193   2.0700   2.2009   2.7408   3.0737   3.3256
     5.5095   6.0686   7.1760   8.9662

          k = 0.1667-0.3528 0.0000 (  4458 PWs)   bands (ev):

   -44.3726 -44.3309 -44.2428 -44.1063 -44.0755 -44.0283 -43.8174 -43.8099
   -43.6099 -43.6088 -43.5226 -43.5206  -2.4757  -2.3106  -2.0917  -1.8290
    -1.4491  -1.3543  -0.9553  -0.6755  -0.4238  -0.0742   0.0929   0.2633
     0.5218   0.9666   1.3215   1.7587   2.0011   2.5997   2.7570   3.0003
     3.5853   3.7678   5.1179   7.3417

          k = 0.1667-0.2245 0.0000 (  4433 PWs)   bands (ev):

   -44.3894 -44.2316 -44.1453 -44.0722 -44.0139 -43.9658 -43.7043 -43.7001
   -43.5462 -43.5461 -43.5348 -43.5277  -3.1708  -2.3389  -2.0800  -1.7272
    -1.5194  -1.2587  -1.0105  -0.5002  -0.3439  -0.2427  -0.0053   0.3525
     0.6678   0.9151   1.0032   1.1653   1.6715   1.9927   2.0809   2.2597
     2.3900   2.8454   3.7796   5.8361

          k = 0.1667-0.0962 0.0000 (  4427 PWs)   bands (ev):

   -44.4215 -44.1672 -44.0448 -44.0239 -43.9817 -43.9231 -43.6035 -43.6024
   -43.5465 -43.5331 -43.5075 -43.5069  -3.9298  -2.8714  -2.4787  -2.1579
    -1.1653  -0.8867  -0.8437  -0.1637  -0.1425   0.0555   0.0913   0.2612
     0.3169   0.6691   0.8603   0.9960   1.2415   1.3954   1.7132   1.8941
     2.5544   2.9379   3.0619   4.7696

          k = 0.2778 0.4811 0.0000 (  4485 PWs)   bands (ev):

   -44.3960 -44.3727 -44.2735 -44.1893 -44.1551 -44.1079 -43.8676 -43.8635
   -43.7358 -43.7308 -43.5115 -43.5106  -2.3798  -2.2464  -1.9135  -1.5961
    -1.4707  -1.2602  -1.1791  -0.5789  -0.3214   0.1171   0.3122   0.3749
     0.5306   1.0829   1.5960   1.6770   2.1227   2.7153   2.9908   3.2192
     6.8530   7.5545   8.7278  10.3709

          k = 0.2778 0.6094 0.0000 (  4491 PWs)   bands (ev):

   -44.3856 -44.3627 -44.2953 -44.2198 -44.1491 -44.1232 -43.8600 -43.8531
   -43.7691 -43.7634 -43.5101 -43.5088  -2.3496  -2.1077  -1.8503  -1.6576
    -1.6123  -1.1550  -1.1307  -0.4783  -0.3345   0.0734   0.2176   0.4636
     0.5715   1.0958   1.6056   1.7018   2.3419   2.7143   2.8230   3.0028
     8.1116   8.8553   9.5175  10.2022

          k = 0.2778-0.4170 0.0000 (  4462 PWs)   bands (ev):

   -44.4007 -44.3785 -44.2547 -44.1617 -44.1318 -44.0871 -43.8687 -43.8666
   -43.6888 -43.6852 -43.5139 -43.5129  -2.4757  -2.3060  -2.0708  -1.7390
    -1.3488  -1.2853  -1.1938  -0.6425  -0.3723   0.1333   0.3230   0.4135
     0.5670   1.0375   1.6444   1.7604   1.9569   2.7210   3.0983   3.3266
     5.6373   6.1774   7.3697   9.2785

          k = 0.2778-0.2887 0.0000 (  4463 PWs)   bands (ev):

   -44.3830 -44.3597 -44.2407 -44.1154 -44.0696 -44.0123 -43.8416 -43.8316
   -43.5971 -43.5966 -43.5230 -43.5190  -2.6777  -2.5957  -2.3694  -2.0082
    -1.6096  -1.4393  -0.8131  -0.5402  -0.2035  -0.0169   0.3970   0.6733
     0.8643   1.1463   1.5397   1.8482   2.1539   2.6667   2.7198   3.0346
     3.4681   3.6960   5.0693   7.3722

          k = 0.2778-0.1604 0.0000 (  4458 PWs)   bands (ev):

   -44.3807 -44.2921 -44.1896 -44.0902 -44.0295 -43.9604 -43.7696 -43.7608
   -43.5486 -43.5476 -43.5314 -43.5252  -3.0537  -2.6557  -2.2990  -1.9582
    -1.7415  -1.2640  -0.7270  -0.4324  -0.0354   0.1130   0.4307   0.6791
     0.8891   0.9157   1.3257   1.4970   1.7616   2.0880   2.0932   2.2100
     2.5599   3.1106   3.9378   6.2614

          k = 0.3889 0.6736 0.0000 (  4511 PWs)   bands (ev):

   -44.4200 -44.3895 -44.2506 -44.2097 -44.1315 -44.1181 -43.8878 -43.8814
   -43.7257 -43.7211 -43.5111 -43.5102  -2.6012  -2.2365  -2.1038  -1.7904
    -1.5563  -1.3148  -1.2049  -0.4574  -0.2483  -0.0027   0.2023   0.8584
     0.9485   1.0668   1.7192   2.0141   2.4500   2.7470   2.8383   3.0955
     7.6594   8.1817   8.7388   9.3153

          k = 0.3889-0.3528 0.0000 (  4485 PWs)   bands (ev):

   -44.4606 -44.4301 -44.2302 -44.1636 -44.0987 -44.0438 -43.9194 -43.9123
   -43.6302 -43.6294 -43.5163 -43.5133  -2.9984  -2.7796  -2.6958  -2.2156
    -1.8907  -1.6756  -0.9719  -0.3977  -0.1449   0.2811   0.4494   1.1652
     1.6781   1.9254   2.0909   2.5349   2.6516   2.8114   3.1019   3.3339
     5.2121   5.9377   6.8002   8.2834

          k = 0.3889-0.2245 0.0000 (  4444 PWs)   bands (ev):

   -44.4358 -44.4143 -44.2431 -44.1292 -44.0702 -43.9934 -43.9026 -43.8873
   -43.5840 -43.5831 -43.5216 -43.5160  -3.0910  -2.9677  -2.7227  -2.3691
    -2.0720  -1.6470  -0.6929  -0.3683  -0.1100   0.2795   0.9067   0.9078
     1.8560   2.0612   2.4843   2.6720   2.7064   2.8195   3.0073   3.1183
     3.2736   3.6897   5.1831   7.6321

          k =-0.5000-0.8660 0.0000 (  4492 PWs)   bands (ev):

   -44.4928 -44.4597 -44.2340 -44.1545 -44.0868 -44.0066 -43.9460 -43.9370
   -43.5982 -43.5973 -43.5181 -43.5135  -3.2903  -3.0676  -2.9284  -2.5140
    -2.2387  -1.8090  -0.7631  -0.5547  -0.2091   0.6518   0.8602   1.2112
     2.1488   2.3471   2.8599   2.9146   3.0911   3.2637   3.5815   3.6087
     4.3780   5.9367   6.4459   6.7576

     the Fermi energy is     2.5599 ev

!    total energy              =    -684.65298229 Ry
     estimated scf accuracy    <       0.00000009 Ry
     smearing contrib. (-TS)   =      -0.01860441 Ry
     internal energy E=F+TS    =    -684.63437788 Ry

     The total energy is F=E-TS. E is the sum of the following terms:
     one-electron contribution =   -9513.87209017 Ry
     hartree contribution      =    4770.48291269 Ry
     xc contribution           =    -119.57591744 Ry
     ewald contribution        =    4178.33071703 Ry

     total magnetization       =     0.00 Bohr mag/cell
     absolute magnetization    =     0.00 Bohr mag/cell

     convergence has been achieved in  12 iterations

     negative rho (up, down):  1.112E-01 1.112E-01

     Forces acting on atoms (cartesian axes, Ry/au):

     atom    1 type  1   force =     0.00000000    0.00000000    0.00235412
     atom    2 type  1   force =     0.00000000    0.00000000    0.00326395
     atom    3 type  1   force =     0.00000000    0.00000000   -0.00330193
     atom    4 type  1   force =     0.00000000    0.00000000   -0.00231614

     Total force =     0.005698     Total SCF correction =     0.001157
     SCF correction compared to forces is large: reduce conv_thr to get better values
     Energy error            =      2.4E-04
     Gradient error          =      3.3E-03

     number of scf cycles    =   5
     number of bfgs steps    =   4

     energy   old            =    -684.6527401064 Ry
     energy   new            =    -684.6529822875 Ry

     CASE: energy  _new < energy  _old

     new trust radius        =       0.0280622007 bohr
     new conv_thr            =       0.0000002422 Ry


ATOMIC_POSITIONS (angstrom)
Rh            0.0000000000        0.0000000000        0.0487086478
Rh            2.7108568000        1.5651139000        2.2261766954
Rh            1.3554284000        0.7825569000        4.4140433900
Rh            0.0000000000        0.0000000000        6.5915030667



     Writing output data file /home/STUDENTI/leonardo.razzai/WORK/relax_surf/4-L.save/
     NEW-OLD atomic charge density approx. for the potential

     negative rho (up, down):  1.076E-01 1.076E-01
     Generating pointlists ...
     new r_m :   0.4080 (alat units)  2.0903 (a.u.) for type    1

     total cpu time spent up to now is      453.4 secs

     Self-consistent Calculation

     iteration #  1     ecut=    35.00 Ry     beta= 0.40
     Davidson diagonalization with overlap
     ethr =  1.00E-06,  avg # of iterations =  7.0

     negative rho (up, down):  1.076E-01 1.076E-01

     total cpu time spent up to now is      469.0 secs

     total energy              =    -684.65089314 Ry
     estimated scf accuracy    <       0.05735883 Ry

     total magnetization       =     0.00 Bohr mag/cell
     absolute magnetization    =     0.00 Bohr mag/cell

     iteration #  2     ecut=    35.00 Ry     beta= 0.40
     Davidson diagonalization with overlap
     ethr =  9.56E-05,  avg # of iterations =  1.0

     negative rho (up, down):  1.076E-01 1.076E-01

     total cpu time spent up to now is      475.8 secs

     total energy              =    -684.65265276 Ry
     estimated scf accuracy    <       0.01124340 Ry

     total magnetization       =     0.00 Bohr mag/cell
     absolute magnetization    =     0.00 Bohr mag/cell

     iteration #  3     ecut=    35.00 Ry     beta= 0.40
     Davidson diagonalization with overlap
     ethr =  1.87E-05,  avg # of iterations =  1.0

     negative rho (up, down):  1.076E-01 1.076E-01

     total cpu time spent up to now is      482.5 secs

     total energy              =    -684.65301699 Ry
     estimated scf accuracy    <       0.00212830 Ry

     total magnetization       =     0.00 Bohr mag/cell
     absolute magnetization    =     0.00 Bohr mag/cell

     iteration #  4     ecut=    35.00 Ry     beta= 0.40
     Davidson diagonalization with overlap
     ethr =  3.55E-06,  avg # of iterations =  1.2

     negative rho (up, down):  1.076E-01 1.076E-01

     total cpu time spent up to now is      489.2 secs

     total energy              =    -684.65309168 Ry
     estimated scf accuracy    <       0.00032955 Ry

     total magnetization       =     0.00 Bohr mag/cell
     absolute magnetization    =     0.00 Bohr mag/cell

     iteration #  5     ecut=    35.00 Ry     beta= 0.40
     Davidson diagonalization with overlap
     ethr =  5.49E-07,  avg # of iterations =  1.1

     negative rho (up, down):  1.076E-01 1.076E-01

     total cpu time spent up to now is      496.0 secs

     total energy              =    -684.65308954 Ry
     estimated scf accuracy    <       0.00006141 Ry

     total magnetization       =     0.00 Bohr mag/cell
     absolute magnetization    =     0.00 Bohr mag/cell

     iteration #  6     ecut=    35.00 Ry     beta= 0.40
     Davidson diagonalization with overlap
     ethr =  1.02E-07,  avg # of iterations =  1.4

     negative rho (up, down):  1.076E-01 1.076E-01

     total cpu time spent up to now is      502.9 secs

     total energy              =    -684.65308557 Ry
     estimated scf accuracy    <       0.00003870 Ry

     total magnetization       =     0.00 Bohr mag/cell
     absolute magnetization    =     0.00 Bohr mag/cell

     iteration #  7     ecut=    35.00 Ry     beta= 0.40
     Davidson diagonalization with overlap
     ethr =  6.45E-08,  avg # of iterations =  1.4

     negative rho (up, down):  1.076E-01 1.076E-01

     total cpu time spent up to now is      509.8 secs

     total energy              =    -684.65308713 Ry
     estimated scf accuracy    <       0.00002929 Ry

     total magnetization       =     0.00 Bohr mag/cell
     absolute magnetization    =     0.00 Bohr mag/cell

     iteration #  8     ecut=    35.00 Ry     beta= 0.40
     Davidson diagonalization with overlap
     ethr =  4.88E-08,  avg # of iterations =  1.6

     negative rho (up, down):  1.076E-01 1.076E-01

     total cpu time spent up to now is      516.7 secs

     total energy              =    -684.65309019 Ry
     estimated scf accuracy    <       0.00000560 Ry

     total magnetization       =    -0.00 Bohr mag/cell
     absolute magnetization    =     0.00 Bohr mag/cell

     iteration #  9     ecut=    35.00 Ry     beta= 0.40
     Davidson diagonalization with overlap
     ethr =  9.33E-09,  avg # of iterations =  2.3

     negative rho (up, down):  1.076E-01 1.076E-01

     total cpu time spent up to now is      524.9 secs

     total energy              =    -684.65309333 Ry
     estimated scf accuracy    <       0.00000679 Ry

     total magnetization       =    -0.00 Bohr mag/cell
     absolute magnetization    =     0.00 Bohr mag/cell

     iteration # 10     ecut=    35.00 Ry     beta= 0.40
     Davidson diagonalization with overlap
     ethr =  9.33E-09,  avg # of iterations =  1.3

     negative rho (up, down):  1.077E-01 1.077E-01

     total cpu time spent up to now is      531.7 secs

     total energy              =    -684.65309396 Ry
     estimated scf accuracy    <       0.00000258 Ry

     total magnetization       =    -0.00 Bohr mag/cell
     absolute magnetization    =     0.00 Bohr mag/cell

     iteration # 11     ecut=    35.00 Ry     beta= 0.40
     Davidson diagonalization with overlap
     ethr =  4.29E-09,  avg # of iterations =  2.3

     negative rho (up, down):  1.077E-01 1.077E-01

     total cpu time spent up to now is      539.1 secs

     total energy              =    -684.65309594 Ry
     estimated scf accuracy    <       0.00000038 Ry

     total magnetization       =    -0.00 Bohr mag/cell
     absolute magnetization    =     0.00 Bohr mag/cell

     iteration # 12     ecut=    35.00 Ry     beta= 0.40
     Davidson diagonalization with overlap
     ethr =  6.33E-10,  avg # of iterations =  2.0

     negative rho (up, down):  1.077E-01 1.077E-01

     total cpu time spent up to now is      546.3 secs

     total energy              =    -684.65309609 Ry
     estimated scf accuracy    <       0.00000029 Ry

     total magnetization       =    -0.00 Bohr mag/cell
     absolute magnetization    =     0.00 Bohr mag/cell

     iteration # 13     ecut=    35.00 Ry     beta= 0.40
     Davidson diagonalization with overlap
     ethr =  4.91E-10,  avg # of iterations =  1.0

     negative rho (up, down):  1.077E-01 1.077E-01
 
     Magnetic moment per site:
     atom:    1    charge:   13.1072    magn:   -0.0000    constr:    0.0000
     atom:    2    charge:   13.1656    magn:   -0.0000    constr:    0.0000
     atom:    3    charge:   13.1655    magn:   -0.0000    constr:    0.0000
     atom:    4    charge:   13.1072    magn:   -0.0000    constr:    0.0000

     total cpu time spent up to now is      552.7 secs

     End of self-consistent calculation

 ------ SPIN UP ------------


          k = 0.0556 0.0962 0.0000 (  4451 PWs)   bands (ev):

   -44.4676 -44.1548 -43.9896 -43.9709 -43.9465 -43.9126 -43.5590 -43.5422
   -43.5212 -43.5177 -43.4878 -43.4877  -4.5081  -3.3567  -2.9030  -2.6245
    -0.7707  -0.6174  -0.5544  -0.1937  -0.1657  -0.0677  -0.0355   0.0955
     0.3228   0.4619   0.4663   1.3710   1.4819   1.5779   1.9349   2.0371
     2.2190   2.7257   2.9894   3.8653

          k = 0.0556 0.2245 0.0000 (  4420 PWs)   bands (ev):

   -44.4281 -44.2049 -44.0912 -44.0608 -44.0016 -43.9436 -43.6479 -43.6452
   -43.5427 -43.5324 -43.5210 -43.5204  -3.6292  -2.6531  -2.3127  -1.9433
    -1.3745  -1.0770  -0.9926  -0.2421  -0.2256  -0.0972   0.1055   0.3378
     0.5268   0.8343   0.8895   1.0392   1.2222   1.5130   1.8327   2.0078
     2.4800   2.9653   3.3454   5.2548

          k = 0.0556 0.3528 0.0000 (  4467 PWs)   bands (ev):

   -44.3971 -44.3416 -44.2281 -44.1100 -44.0540 -43.9836 -43.8088 -43.7980
   -43.5650 -43.5646 -43.5295 -43.5237  -2.9200  -2.7010  -2.3854  -2.0672
    -1.7365  -1.3902  -0.6010  -0.5903  -0.0731  -0.0093   0.4512   0.7575
     0.9096   1.1036   1.5180   1.7285   2.1387   2.1984   2.5431   2.6351
     2.7585   3.0707   4.3721   6.7520

          k = 0.0556 0.4811 0.0000 (  4463 PWs)   bands (ev):

   -44.4672 -44.4412 -44.2509 -44.1528 -44.0908 -44.0146 -43.9179 -43.9052
   -43.5980 -43.5976 -43.5211 -43.5163  -3.1394  -2.9663  -2.8039  -2.3741
    -2.0690  -1.7124  -0.7983  -0.4039  -0.1800   0.3476   0.6916   1.1057
     1.9133   2.0501   2.4104   2.6135   2.8490   2.8865   3.0688   3.3351
     4.0051   4.7071   5.7969   7.9494

          k = 0.0556-0.5453 0.0000 (  4486 PWs)   bands (ev):

   -44.4952 -44.4634 -44.2443 -44.1672 -44.0994 -44.0219 -43.9381 -43.9307
   -43.6056 -43.6053 -43.5192 -43.5152  -3.2447  -3.0190  -2.9047  -2.4471
    -2.1541  -1.7906  -0.8313  -0.4980  -0.2226   0.5435   0.6971   1.2233
     2.0624   2.2535   2.6200   2.8440   2.9364   3.1370   3.3400   3.4468
     4.7325   5.9585   6.3856   7.4248

          k = 0.0556-0.4170 0.0000 (  4465 PWs)   bands (ev):

   -44.4194 -44.4052 -44.2531 -44.1316 -44.0753 -44.0015 -43.8738 -43.8603
   -43.5841 -43.5838 -43.5249 -43.5191  -2.9590  -2.8833  -2.6158  -2.2452
    -1.9150  -1.5703  -0.7214  -0.2527  -0.1435   0.0033   0.6054   0.9920
     1.3491   1.8356   1.9199   2.2266   2.4262   2.7021   2.7097   3.1546
     3.2593   3.5780   5.0506   7.4863

          k = 0.0556-0.2887 0.0000 (  4439 PWs)   bands (ev):

   -44.4066 -44.2675 -44.1669 -44.0886 -44.0282 -43.9633 -43.7297 -43.7232
   -43.5430 -43.5424 -43.5351 -43.5281  -3.1648  -2.5432  -2.2414  -1.7750
    -1.6705  -1.1991  -1.0289  -0.4113  -0.1118   0.0481   0.1842   0.4345
     0.6264   0.9067   1.0983   1.2501   1.6608   1.9799   1.9975   2.2197
     2.5298   3.0147   3.8094   5.9961

          k = 0.0556-0.1604 0.0000 (  4443 PWs)   bands (ev):

   -44.4506 -44.1694 -44.0296 -44.0142 -43.9759 -43.9263 -43.5767 -43.5762
   -43.5506 -43.5346 -43.5019 -43.5017  -4.1237  -3.0119  -2.6047  -2.3001
    -1.0414  -0.8427  -0.7817  -0.2155  -0.1132  -0.0063   0.0549   0.1296
     0.2703   0.6264   0.7341   1.1854   1.3038   1.3377   1.7405   2.0110
     2.3694   2.8945   3.0302   4.5362

          k = 0.0556-0.0321 0.0000 (  4465 PWs)   bands (ev):

   -44.4771 -44.1506 -43.9665 -43.9579 -43.9188 -43.9053 -43.5636 -43.5416
   -43.4918 -43.4914 -43.4805 -43.4803  -4.7139  -3.5509  -3.0744  -2.8113
    -0.5643  -0.4935  -0.4545  -0.3453  -0.2750  -0.1295   0.0687   0.1772
     0.1970   0.3165   0.5933   1.5016   1.5017   1.8523   1.9055   2.1136
     2.5439   2.5581   3.0384   3.3326

          k = 0.1667 0.2887 0.0000 (  4425 PWs)   bands (ev):

   -44.3936 -44.2913 -44.2122 -44.0949 -44.0501 -44.0035 -43.7621 -43.7554
   -43.5760 -43.5755 -43.5290 -43.5258  -2.7525  -2.2363  -1.9137  -1.8358
    -1.6502  -1.3354  -0.8831  -0.6604  -0.3578  -0.3109  -0.2687   0.4222
     0.5002   0.9432   1.1219   1.5270   2.0507   2.2828   2.4684   2.7393
     2.8242   2.9034   4.3670   6.5671

          k = 0.1667 0.4170 0.0000 (  4459 PWs)   bands (ev):

   -44.4084 -44.3867 -44.2601 -44.1473 -44.1047 -44.0593 -43.8608 -43.8540
   -43.6393 -43.6371 -43.5199 -43.5176  -2.5830  -2.4683  -2.2815  -1.9183
    -1.4559  -1.4223  -1.0354  -0.5961  -0.3927   0.0756   0.3129   0.5266
     0.7102   1.0980   1.6356   1.7832   2.0616   2.7145   3.0295   3.2414
     4.4940   4.8758   6.1215   8.2544

          k = 0.1667 0.5453 0.0000 (  4490 PWs)   bands (ev):

   -44.4590 -44.4278 -44.2325 -44.2091 -44.1192 -44.0935 -43.9077 -43.9043
   -43.6736 -43.6710 -43.5145 -43.5137  -2.8573  -2.5517  -2.4927  -2.0082
    -1.6162  -1.5663  -1.2349  -0.3988  -0.1161   0.0528   0.2487   1.0507
     1.2953   1.5448   1.8919   2.3308   2.5242   2.8011   2.9776   3.2550
     6.4767   7.1998   7.9440   8.6328

          k = 0.1667-0.4811 0.0000 (  4476 PWs)   bands (ev):

   -44.4391 -44.4143 -44.2493 -44.1814 -44.1156 -44.0801 -43.8921 -43.8868
   -43.6617 -43.6591 -43.5167 -43.5147  -2.7596  -2.5206  -2.4169  -1.9752
    -1.5519  -1.5109  -1.1539  -0.4504  -0.1595  -0.0389   0.3140   0.9019
     1.0697   1.3326   1.8209   2.0789   2.2081   2.7546   3.0819   3.3350
     5.5079   6.0723   7.1884   8.9879

          k = 0.1667-0.3528 0.0000 (  4458 PWs)   bands (ev):

   -44.3903 -44.3422 -44.2523 -44.1154 -44.0829 -44.0339 -43.8165 -43.8090
   -43.6092 -43.6080 -43.5242 -43.5221  -2.5059  -2.3405  -2.1220  -1.8496
    -1.4740  -1.3713  -0.9677  -0.6870  -0.4462  -0.0780   0.0886   0.2689
     0.5185   0.9686   1.3242   1.7518   2.0036   2.6119   2.7578   3.0100
     3.5866   3.7691   5.1365   7.3709

          k = 0.1667-0.2245 0.0000 (  4433 PWs)   bands (ev):

   -44.4102 -44.2440 -44.1520 -44.0799 -44.0214 -43.9712 -43.7035 -43.6991
   -43.5455 -43.5454 -43.5362 -43.5289  -3.1953  -2.3577  -2.1110  -1.7517
    -1.5394  -1.2789  -1.0212  -0.5072  -0.3471  -0.2439  -0.0300   0.3581
     0.6653   0.9057   0.9963   1.1541   1.6672   1.9927   2.0821   2.2657
     2.3951   2.8614   3.7977   5.8605

          k = 0.1667-0.0962 0.0000 (  4427 PWs)   bands (ev):

   -44.4430 -44.1800 -44.0518 -44.0296 -43.9897 -43.9283 -43.6028 -43.6017
   -43.5479 -43.5340 -43.5068 -43.5062  -3.9532  -2.8883  -2.5007  -2.1711
    -1.1880  -0.9057  -0.8606  -0.1567  -0.1493   0.0526   0.0618   0.2392
     0.3247   0.6569   0.8527   0.9967   1.2461   1.3913   1.7139   1.8955
     2.5559   2.9470   3.0789   4.7869

          k = 0.2778 0.4811 0.0000 (  4485 PWs)   bands (ev):

   -44.4081 -44.3841 -44.2868 -44.1968 -44.1631 -44.1161 -43.8670 -43.8625
   -43.7350 -43.7297 -43.5134 -43.5123  -2.4159  -2.2809  -1.9449  -1.6224
    -1.5041  -1.2816  -1.1977  -0.5897  -0.3306   0.1131   0.3125   0.3711
     0.5302   1.0969   1.6064   1.6836   2.1288   2.7278   3.0009   3.2307
     6.8514   7.5593   8.7388  10.3867

          k = 0.2778 0.6094 0.0000 (  4491 PWs)   bands (ev):

   -44.3971 -44.3752 -44.3072 -44.2269 -44.1577 -44.1323 -43.8594 -43.8521
   -43.7684 -43.7623 -43.5121 -43.5104  -2.3870  -2.1426  -1.8874  -1.6870
    -1.6388  -1.1770  -1.1499  -0.4887  -0.3446   0.0706   0.2173   0.4612
     0.5713   1.1093   1.6162   1.7132   2.3477   2.7261   2.8341   3.0148
     8.1105   8.8598   9.5190  10.2141

          k = 0.2778-0.4170 0.0000 (  4462 PWs)   bands (ev):

   -44.4132 -44.3899 -44.2683 -44.1703 -44.1391 -44.0940 -43.8679 -43.8658
   -43.6880 -43.6843 -43.5157 -43.5146  -2.5104  -2.3389  -2.1015  -1.7621
    -1.3687  -1.3037  -1.2218  -0.6575  -0.3832   0.1299   0.3229   0.4101
     0.5659   1.0464   1.6522   1.7642   1.9633   2.7344   3.1071   3.3360
     5.6357   6.1809   7.3827   9.3023

          k = 0.2778-0.2887 0.0000 (  4463 PWs)   bands (ev):

   -44.3994 -44.3713 -44.2502 -44.1252 -44.0775 -44.0174 -43.8408 -43.8307
   -43.5963 -43.5959 -43.5247 -43.5205  -2.7068  -2.6251  -2.4020  -2.0233
    -1.6170  -1.4573  -0.8275  -0.5629  -0.2279  -0.0112   0.3886   0.6645
     0.8609   1.1410   1.5472   1.8446   2.1564   2.6765   2.7197   3.0477
     3.4691   3.6984   5.0880   7.4017

          k = 0.2778-0.1604 0.0000 (  4458 PWs)   bands (ev):

   -44.4008 -44.3038 -44.1961 -44.0990 -44.0379 -43.9654 -43.7688 -43.7598
   -43.5479 -43.5468 -43.5330 -43.5265  -3.0791  -2.6823  -2.3260  -1.9767
    -1.7481  -1.2838  -0.7512  -0.4285  -0.0300   0.0683   0.4279   0.6766
     0.8886   0.8921   1.3091   1.5087   1.7552   2.0936   2.0962   2.2132
     2.5653   3.1306   3.9563   6.2883

          k = 0.3889 0.6736 0.0000 (  4511 PWs)   bands (ev):

   -44.4311 -44.4017 -44.2623 -44.2201 -44.1374 -44.1270 -43.8873 -43.8805
   -43.7249 -43.7201 -43.5129 -43.5120  -2.6381  -2.2683  -2.1354  -1.8124
    -1.5900  -1.3295  -1.2209  -0.4695  -0.2649  -0.0089   0.2058   0.8551
     0.9512   1.0692   1.7244   2.0245   2.4557   2.7600   2.8504   3.1074
     7.6591   8.1810   8.7430   9.3318

          k = 0.3889-0.3528 0.0000 (  4485 PWs)   bands (ev):

   -44.4716 -44.4421 -44.2423 -44.1749 -44.1069 -44.0488 -43.9189 -43.9120
   -43.6293 -43.6286 -43.5181 -43.5150  -3.0326  -2.8075  -2.7276  -2.2298
    -1.8979  -1.6909  -0.9941  -0.3931  -0.1661   0.2636   0.4381   1.1564
     1.6750   1.9274   2.0900   2.5392   2.6568   2.8258   3.1080   3.3428
     5.2104   5.9430   6.8116   8.3019

          k = 0.3889-0.2245 0.0000 (  4444 PWs)   bands (ev):

   -44.4472 -44.4278 -44.2542 -44.1396 -44.0789 -43.9983 -43.9019 -43.8867
   -43.5832 -43.5823 -43.5235 -43.5175  -3.1226  -2.9942  -2.7558  -2.3816
    -2.0776  -1.6625  -0.6930  -0.3603  -0.1543   0.2625   0.8878   0.8999
     1.8568   2.0539   2.4921   2.6639   2.7061   2.8193   3.0130   3.1184
     3.2873   3.7005   5.2011   7.6614

          k =-0.5000-0.8660 0.0000 (  4492 PWs)   bands (ev):

   -44.5037 -44.4713 -44.2460 -44.1653 -44.0955 -44.0114 -43.9455 -43.9373
   -43.5974 -43.5966 -43.5200 -43.5153  -3.3232  -3.0941  -2.9614  -2.5264
    -2.2449  -1.8243  -0.7664  -0.5422  -0.2535   0.6384   0.8415   1.2036
     2.1478   2.3576   2.8657   2.9253   3.0806   3.2646   3.5816   3.6119
     4.3764   5.9462   6.4624   6.7698

 ------ SPIN DOWN ----------


          k = 0.0556 0.0962 0.0000 (  4451 PWs)   bands (ev):

   -44.4676 -44.1548 -43.9896 -43.9709 -43.9465 -43.9126 -43.5590 -43.5422
   -43.5212 -43.5177 -43.4878 -43.4877  -4.5081  -3.3567  -2.9030  -2.6245
    -0.7707  -0.6174  -0.5544  -0.1937  -0.1657  -0.0677  -0.0355   0.0955
     0.3228   0.4619   0.4663   1.3710   1.4819   1.5779   1.9349   2.0371
     2.2190   2.7257   2.9894   3.8653

          k = 0.0556 0.2245 0.0000 (  4420 PWs)   bands (ev):

   -44.4281 -44.2049 -44.0912 -44.0608 -44.0016 -43.9436 -43.6479 -43.6452
   -43.5427 -43.5324 -43.5210 -43.5204  -3.6292  -2.6531  -2.3127  -1.9433
    -1.3745  -1.0770  -0.9926  -0.2421  -0.2256  -0.0972   0.1055   0.3378
     0.5268   0.8343   0.8895   1.0392   1.2222   1.5130   1.8327   2.0078
     2.4800   2.9653   3.3454   5.2548

          k = 0.0556 0.3528 0.0000 (  4467 PWs)   bands (ev):

   -44.3971 -44.3416 -44.2281 -44.1100 -44.0540 -43.9836 -43.8088 -43.7980
   -43.5650 -43.5646 -43.5295 -43.5237  -2.9200  -2.7010  -2.3854  -2.0672
    -1.7365  -1.3902  -0.6010  -0.5903  -0.0731  -0.0093   0.4512   0.7575
     0.9096   1.1036   1.5180   1.7285   2.1387   2.1984   2.5431   2.6351
     2.7585   3.0707   4.3721   6.7520

          k = 0.0556 0.4811 0.0000 (  4463 PWs)   bands (ev):

   -44.4672 -44.4412 -44.2509 -44.1528 -44.0908 -44.0146 -43.9179 -43.9052
   -43.5980 -43.5976 -43.5211 -43.5163  -3.1394  -2.9663  -2.8039  -2.3741
    -2.0690  -1.7124  -0.7983  -0.4039  -0.1800   0.3476   0.6916   1.1057
     1.9133   2.0501   2.4104   2.6135   2.8490   2.8865   3.0688   3.3351
     4.0051   4.7071   5.7969   7.9494

          k = 0.0556-0.5453 0.0000 (  4486 PWs)   bands (ev):

   -44.4952 -44.4634 -44.2443 -44.1672 -44.0994 -44.0219 -43.9381 -43.9307
   -43.6056 -43.6053 -43.5192 -43.5152  -3.2447  -3.0190  -2.9047  -2.4471
    -2.1541  -1.7906  -0.8313  -0.4980  -0.2226   0.5435   0.6971   1.2233
     2.0624   2.2535   2.6200   2.8440   2.9364   3.1370   3.3400   3.4468
     4.7325   5.9585   6.3856   7.4248

          k = 0.0556-0.4170 0.0000 (  4465 PWs)   bands (ev):

   -44.4194 -44.4052 -44.2531 -44.1316 -44.0753 -44.0015 -43.8738 -43.8603
   -43.5841 -43.5838 -43.5249 -43.5191  -2.9590  -2.8833  -2.6158  -2.2452
    -1.9150  -1.5703  -0.7214  -0.2527  -0.1435   0.0033   0.6054   0.9920
     1.3491   1.8356   1.9199   2.2266   2.4262   2.7021   2.7097   3.1546
     3.2593   3.5780   5.0506   7.4863

          k = 0.0556-0.2887 0.0000 (  4439 PWs)   bands (ev):

   -44.4066 -44.2675 -44.1669 -44.0886 -44.0282 -43.9633 -43.7297 -43.7232
   -43.5430 -43.5424 -43.5351 -43.5281  -3.1648  -2.5432  -2.2414  -1.7750
    -1.6705  -1.1991  -1.0289  -0.4113  -0.1118   0.0481   0.1842   0.4345
     0.6264   0.9067   1.0983   1.2501   1.6608   1.9799   1.9975   2.2197
     2.5298   3.0147   3.8094   5.9961

          k = 0.0556-0.1604 0.0000 (  4443 PWs)   bands (ev):

   -44.4506 -44.1694 -44.0296 -44.0142 -43.9759 -43.9263 -43.5767 -43.5762
   -43.5506 -43.5346 -43.5019 -43.5017  -4.1237  -3.0119  -2.6047  -2.3001
    -1.0414  -0.8427  -0.7817  -0.2155  -0.1132  -0.0063   0.0549   0.1296
     0.2703   0.6264   0.7341   1.1854   1.3038   1.3377   1.7405   2.0110
     2.3694   2.8945   3.0302   4.5362

          k = 0.0556-0.0321 0.0000 (  4465 PWs)   bands (ev):

   -44.4771 -44.1506 -43.9665 -43.9579 -43.9188 -43.9053 -43.5636 -43.5416
   -43.4918 -43.4914 -43.4805 -43.4803  -4.7139  -3.5509  -3.0744  -2.8113
    -0.5643  -0.4935  -0.4545  -0.3453  -0.2750  -0.1295   0.0687   0.1772
     0.1970   0.3165   0.5933   1.5016   1.5017   1.8523   1.9055   2.1136
     2.5439   2.5581   3.0384   3.3326

          k = 0.1667 0.2887 0.0000 (  4425 PWs)   bands (ev):

   -44.3936 -44.2913 -44.2122 -44.0949 -44.0501 -44.0035 -43.7621 -43.7554
   -43.5760 -43.5755 -43.5290 -43.5258  -2.7525  -2.2363  -1.9137  -1.8358
    -1.6502  -1.3354  -0.8831  -0.6604  -0.3578  -0.3109  -0.2687   0.4222
     0.5002   0.9432   1.1219   1.5270   2.0507   2.2828   2.4684   2.7393
     2.8242   2.9034   4.3670   6.5671

          k = 0.1667 0.4170 0.0000 (  4459 PWs)   bands (ev):

   -44.4084 -44.3867 -44.2601 -44.1473 -44.1047 -44.0593 -43.8608 -43.8540
   -43.6393 -43.6371 -43.5199 -43.5176  -2.5830  -2.4683  -2.2815  -1.9183
    -1.4559  -1.4223  -1.0354  -0.5961  -0.3927   0.0756   0.3129   0.5266
     0.7102   1.0980   1.6356   1.7832   2.0616   2.7145   3.0295   3.2414
     4.4940   4.8758   6.1215   8.2544

          k = 0.1667 0.5453 0.0000 (  4490 PWs)   bands (ev):

   -44.4590 -44.4278 -44.2325 -44.2091 -44.1192 -44.0935 -43.9077 -43.9043
   -43.6736 -43.6710 -43.5145 -43.5137  -2.8573  -2.5517  -2.4927  -2.0082
    -1.6162  -1.5663  -1.2349  -0.3988  -0.1161   0.0528   0.2487   1.0507
     1.2953   1.5448   1.8919   2.3308   2.5242   2.8011   2.9776   3.2550
     6.4767   7.1998   7.9440   8.6328

          k = 0.1667-0.4811 0.0000 (  4476 PWs)   bands (ev):

   -44.4391 -44.4143 -44.2493 -44.1814 -44.1156 -44.0801 -43.8921 -43.8868
   -43.6617 -43.6591 -43.5167 -43.5147  -2.7596  -2.5206  -2.4169  -1.9752
    -1.5519  -1.5109  -1.1539  -0.4504  -0.1595  -0.0389   0.3140   0.9019
     1.0697   1.3326   1.8209   2.0789   2.2081   2.7546   3.0819   3.3350
     5.5079   6.0723   7.1884   8.9879

          k = 0.1667-0.3528 0.0000 (  4458 PWs)   bands (ev):

   -44.3903 -44.3422 -44.2523 -44.1154 -44.0829 -44.0339 -43.8165 -43.8090
   -43.6092 -43.6080 -43.5242 -43.5221  -2.5059  -2.3405  -2.1220  -1.8496
    -1.4740  -1.3713  -0.9677  -0.6870  -0.4462  -0.0780   0.0886   0.2689
     0.5185   0.9686   1.3242   1.7518   2.0036   2.6119   2.7578   3.0100
     3.5866   3.7691   5.1365   7.3709

          k = 0.1667-0.2245 0.0000 (  4433 PWs)   bands (ev):

   -44.4102 -44.2440 -44.1520 -44.0799 -44.0214 -43.9712 -43.7035 -43.6991
   -43.5455 -43.5454 -43.5362 -43.5289  -3.1953  -2.3577  -2.1110  -1.7517
    -1.5394  -1.2789  -1.0212  -0.5072  -0.3471  -0.2439  -0.0300   0.3581
     0.6653   0.9057   0.9963   1.1541   1.6672   1.9927   2.0821   2.2657
     2.3951   2.8614   3.7977   5.8605

          k = 0.1667-0.0962 0.0000 (  4427 PWs)   bands (ev):

   -44.4430 -44.1800 -44.0518 -44.0296 -43.9897 -43.9283 -43.6028 -43.6017
   -43.5479 -43.5340 -43.5068 -43.5062  -3.9532  -2.8883  -2.5007  -2.1711
    -1.1880  -0.9057  -0.8606  -0.1567  -0.1493   0.0526   0.0618   0.2392
     0.3247   0.6569   0.8527   0.9967   1.2461   1.3913   1.7139   1.8955
     2.5559   2.9470   3.0789   4.7869

          k = 0.2778 0.4811 0.0000 (  4485 PWs)   bands (ev):

   -44.4081 -44.3841 -44.2868 -44.1968 -44.1631 -44.1161 -43.8670 -43.8625
   -43.7350 -43.7297 -43.5134 -43.5123  -2.4159  -2.2809  -1.9449  -1.6224
    -1.5041  -1.2816  -1.1977  -0.5897  -0.3306   0.1131   0.3125   0.3711
     0.5302   1.0969   1.6064   1.6836   2.1288   2.7278   3.0009   3.2307
     6.8514   7.5593   8.7388  10.3867

          k = 0.2778 0.6094 0.0000 (  4491 PWs)   bands (ev):

   -44.3971 -44.3752 -44.3072 -44.2269 -44.1577 -44.1323 -43.8594 -43.8521
   -43.7684 -43.7623 -43.5121 -43.5104  -2.3870  -2.1426  -1.8874  -1.6870
    -1.6388  -1.1770  -1.1499  -0.4887  -0.3446   0.0706   0.2173   0.4612
     0.5713   1.1093   1.6162   1.7132   2.3477   2.7261   2.8341   3.0148
     8.1105   8.8598   9.5190  10.2141

          k = 0.2778-0.4170 0.0000 (  4462 PWs)   bands (ev):

   -44.4132 -44.3899 -44.2683 -44.1703 -44.1391 -44.0940 -43.8679 -43.8658
   -43.6880 -43.6843 -43.5157 -43.5146  -2.5104  -2.3389  -2.1015  -1.7621
    -1.3687  -1.3037  -1.2218  -0.6575  -0.3832   0.1299   0.3229   0.4101
     0.5659   1.0464   1.6522   1.7642   1.9633   2.7344   3.1071   3.3360
     5.6357   6.1809   7.3827   9.3023

          k = 0.2778-0.2887 0.0000 (  4463 PWs)   bands (ev):

   -44.3994 -44.3713 -44.2502 -44.1252 -44.0775 -44.0174 -43.8408 -43.8307
   -43.5963 -43.5959 -43.5247 -43.5205  -2.7068  -2.6251  -2.4020  -2.0233
    -1.6170  -1.4573  -0.8275  -0.5629  -0.2279  -0.0112   0.3886   0.6645
     0.8609   1.1410   1.5472   1.8446   2.1564   2.6765   2.7197   3.0477
     3.4691   3.6984   5.0880   7.4017

          k = 0.2778-0.1604 0.0000 (  4458 PWs)   bands (ev):

   -44.4008 -44.3038 -44.1961 -44.0990 -44.0379 -43.9654 -43.7688 -43.7598
   -43.5479 -43.5468 -43.5330 -43.5265  -3.0791  -2.6823  -2.3260  -1.9767
    -1.7481  -1.2838  -0.7512  -0.4285  -0.0300   0.0683   0.4279   0.6766
     0.8886   0.8921   1.3091   1.5087   1.7552   2.0936   2.0962   2.2132
     2.5653   3.1306   3.9563   6.2883

          k = 0.3889 0.6736 0.0000 (  4511 PWs)   bands (ev):

   -44.4311 -44.4017 -44.2623 -44.2201 -44.1374 -44.1270 -43.8873 -43.8805
   -43.7249 -43.7201 -43.5129 -43.5120  -2.6381  -2.2683  -2.1354  -1.8124
    -1.5900  -1.3295  -1.2209  -0.4695  -0.2649  -0.0089   0.2058   0.8551
     0.9512   1.0692   1.7244   2.0245   2.4557   2.7600   2.8504   3.1074
     7.6591   8.1810   8.7430   9.3318

          k = 0.3889-0.3528 0.0000 (  4485 PWs)   bands (ev):

   -44.4716 -44.4421 -44.2423 -44.1749 -44.1069 -44.0488 -43.9189 -43.9120
   -43.6293 -43.6286 -43.5181 -43.5150  -3.0326  -2.8075  -2.7276  -2.2298
    -1.8979  -1.6909  -0.9941  -0.3931  -0.1661   0.2636   0.4381   1.1564
     1.6750   1.9274   2.0900   2.5392   2.6568   2.8258   3.1080   3.3428
     5.2104   5.9430   6.8116   8.3019

          k = 0.3889-0.2245 0.0000 (  4444 PWs)   bands (ev):

   -44.4472 -44.4278 -44.2542 -44.1396 -44.0789 -43.9983 -43.9019 -43.8867
   -43.5832 -43.5823 -43.5235 -43.5175  -3.1226  -2.9942  -2.7558  -2.3816
    -2.0776  -1.6625  -0.6930  -0.3603  -0.1543   0.2625   0.8878   0.8999
     1.8568   2.0539   2.4921   2.6639   2.7061   2.8193   3.0130   3.1184
     3.2873   3.7005   5.2011   7.6614

          k =-0.5000-0.8660 0.0000 (  4492 PWs)   bands (ev):

   -44.5037 -44.4713 -44.2460 -44.1653 -44.0955 -44.0114 -43.9455 -43.9373
   -43.5974 -43.5966 -43.5200 -43.5153  -3.3232  -3.0941  -2.9614  -2.5264
    -2.2449  -1.8243  -0.7664  -0.5422  -0.2535   0.6384   0.8415   1.2036
     2.1478   2.3576   2.8657   2.9253   3.0806   3.2646   3.5816   3.6119
     4.3764   5.9462   6.4624   6.7698

     the Fermi energy is     2.5655 ev

!    total energy              =    -684.65309615 Ry
     estimated scf accuracy    <       0.00000001 Ry
     smearing contrib. (-TS)   =      -0.01844234 Ry
     internal energy E=F+TS    =    -684.63465381 Ry

     The total energy is F=E-TS. E is the sum of the following terms:
     one-electron contribution =   -9547.32133939 Ry
     hartree contribution      =    4787.19417603 Ry
     xc contribution           =    -119.58986792 Ry
     ewald contribution        =    4195.08237746 Ry

     total magnetization       =    -0.00 Bohr mag/cell
     absolute magnetization    =     0.00 Bohr mag/cell

     convergence has been achieved in  13 iterations

     negative rho (up, down):  1.077E-01 1.077E-01

     Forces acting on atoms (cartesian axes, Ry/au):

     atom    1 type  1   force =     0.00000000    0.00000000   -0.00069292
     atom    2 type  1   force =     0.00000000    0.00000000    0.00243352
     atom    3 type  1   force =     0.00000000    0.00000000   -0.00243286
     atom    4 type  1   force =     0.00000000    0.00000000    0.00069226

     Total force =     0.003578     Total SCF correction =     0.000321
     Energy error            =      1.1E-04
     Gradient error          =      2.4E-03

     number of scf cycles    =   6
     number of bfgs steps    =   5

     energy   old            =    -684.6529822875 Ry
     energy   new            =    -684.6530961510 Ry

     CASE: energy  _new < energy  _old

     new trust radius        =       0.0032224572 bohr
     new conv_thr            =       0.0000001139 Ry


ATOMIC_POSITIONS (angstrom)
Rh            0.0000000000        0.0000000000        0.0497948667
Rh            2.7108568000        1.5651139000        2.2278816804
Rh            1.3554284000        0.7825569000        4.4123381391
Rh            0.0000000000        0.0000000000        6.5904171138



     Writing output data file /home/STUDENTI/leonardo.razzai/WORK/relax_surf/4-L.save/
     NEW-OLD atomic charge density approx. for the potential

     negative rho (up, down):  1.073E-01 1.073E-01
     Generating pointlists ...

     total cpu time spent up to now is      554.8 secs

     Self-consistent Calculation

     iteration #  1     ecut=    35.00 Ry     beta= 0.40
     Davidson diagonalization with overlap
     ethr =  1.00E-06,  avg # of iterations =  4.1

     negative rho (up, down):  1.073E-01 1.073E-01

     total cpu time spent up to now is      566.2 secs

     total energy              =    -684.65307035 Ry
     estimated scf accuracy    <       0.00090674 Ry

     total magnetization       =    -0.00 Bohr mag/cell
     absolute magnetization    =     0.00 Bohr mag/cell

     iteration #  2     ecut=    35.00 Ry     beta= 0.40
     Davidson diagonalization with overlap
     ethr =  1.51E-06,  avg # of iterations =  1.0

     negative rho (up, down):  1.073E-01 1.073E-01

     total cpu time spent up to now is      572.8 secs

     total energy              =    -684.65309910 Ry
     estimated scf accuracy    <       0.00016711 Ry

     total magnetization       =    -0.00 Bohr mag/cell
     absolute magnetization    =     0.00 Bohr mag/cell

     iteration #  3     ecut=    35.00 Ry     beta= 0.40
     Davidson diagonalization with overlap
     ethr =  2.79E-07,  avg # of iterations =  1.0

     negative rho (up, down):  1.073E-01 1.073E-01

     total cpu time spent up to now is      579.6 secs

     total energy              =    -684.65310436 Ry
     estimated scf accuracy    <       0.00003191 Ry

     total magnetization       =    -0.00 Bohr mag/cell
     absolute magnetization    =     0.00 Bohr mag/cell

     iteration #  4     ecut=    35.00 Ry     beta= 0.40
     Davidson diagonalization with overlap
     ethr =  5.32E-08,  avg # of iterations =  1.2

     negative rho (up, down):  1.073E-01 1.073E-01

     total cpu time spent up to now is      586.3 secs

     total energy              =    -684.65310575 Ry
     estimated scf accuracy    <       0.00000099 Ry

     total magnetization       =    -0.00 Bohr mag/cell
     absolute magnetization    =     0.00 Bohr mag/cell

     iteration #  5     ecut=    35.00 Ry     beta= 0.40
     Davidson diagonalization with overlap
     ethr =  1.66E-09,  avg # of iterations =  2.2

     negative rho (up, down):  1.073E-01 1.073E-01

     total cpu time spent up to now is      593.5 secs

     total energy              =    -684.65310582 Ry
     estimated scf accuracy    <       0.00000036 Ry

     total magnetization       =    -0.00 Bohr mag/cell
     absolute magnetization    =     0.00 Bohr mag/cell

     iteration #  6     ecut=    35.00 Ry     beta= 0.40
     Davidson diagonalization with overlap
     ethr =  5.97E-10,  avg # of iterations =  1.1

     negative rho (up, down):  1.073E-01 1.073E-01

     total cpu time spent up to now is      600.1 secs

     total energy              =    -684.65310579 Ry
     estimated scf accuracy    <       0.00000023 Ry

     total magnetization       =    -0.00 Bohr mag/cell
     absolute magnetization    =     0.00 Bohr mag/cell

     iteration #  7     ecut=    35.00 Ry     beta= 0.40
     Davidson diagonalization with overlap
     ethr =  3.80E-10,  avg # of iterations =  1.3

     negative rho (up, down):  1.073E-01 1.073E-01

     total cpu time spent up to now is      606.8 secs

     total energy              =    -684.65310577 Ry
     estimated scf accuracy    <       0.00000012 Ry

     total magnetization       =    -0.00 Bohr mag/cell
     absolute magnetization    =     0.00 Bohr mag/cell

     iteration #  8     ecut=    35.00 Ry     beta= 0.40
     Davidson diagonalization with overlap
     ethr =  2.06E-10,  avg # of iterations =  2.4

     negative rho (up, down):  1.073E-01 1.073E-01
 
     Magnetic moment per site:
     atom:    1    charge:   13.1070    magn:   -0.0000    constr:    0.0000
     atom:    2    charge:   13.1665    magn:    0.0000    constr:    0.0000
     atom:    3    charge:   13.1665    magn:   -0.0000    constr:    0.0000
     atom:    4    charge:   13.1070    magn:   -0.0000    constr:    0.0000

     total cpu time spent up to now is      613.9 secs

     End of self-consistent calculation

 ------ SPIN UP ------------


          k = 0.0556 0.0962 0.0000 (  4451 PWs)   bands (ev):

   -44.4753 -44.1594 -43.9948 -43.9762 -43.9512 -43.9173 -43.5607 -43.5440
   -43.5230 -43.5196 -43.4896 -43.4895  -4.5146  -3.3612  -2.9080  -2.6269
    -0.7787  -0.6244  -0.5550  -0.2006  -0.1738  -0.0711  -0.0379   0.0934
     0.3209   0.4603   0.4642   1.3656   1.4777   1.5758   1.9323   2.0337
     2.2168   2.7225   2.9873   3.8620

          k = 0.0556 0.2245 0.0000 (  4420 PWs)   bands (ev):

   -44.4358 -44.2104 -44.0959 -44.0653 -44.0070 -43.9482 -43.6498 -43.6471
   -43.5444 -43.5342 -43.5228 -43.5223  -3.6358  -2.6580  -2.3189  -1.9466
    -1.3805  -1.0806  -0.9978  -0.2442  -0.2281  -0.1010   0.0975   0.3352
     0.5206   0.8309   0.8877   1.0372   1.2203   1.5094   1.8278   2.0058
     2.4759   2.9634   3.3438   5.2524

          k = 0.0556 0.3528 0.0000 (  4467 PWs)   bands (ev):

   -44.4046 -44.3475 -44.2326 -44.1144 -44.0595 -43.9881 -43.8108 -43.8001
   -43.5669 -43.5664 -43.5312 -43.5254  -2.9273  -2.7080  -2.3937  -2.0693
    -1.7385  -1.3930  -0.6067  -0.5950  -0.0785  -0.0148   0.4481   0.7555
     0.9077   1.1002   1.5143   1.7245   2.1347   2.1959   2.5386   2.6325
     2.7557   3.0691   4.3701   6.7510

          k = 0.0556 0.4811 0.0000 (  4463 PWs)   bands (ev):

   -44.4732 -44.4474 -44.2559 -44.1574 -44.0962 -44.0190 -43.9202 -43.9078
   -43.5999 -43.5995 -43.5227 -43.5178  -3.1476  -2.9735  -2.8120  -2.3753
    -2.0711  -1.7139  -0.8031  -0.4067  -0.1884   0.3419   0.6897   1.1028
     1.9117   2.0457   2.4075   2.6086   2.8461   2.8832   3.0660   3.3331
     4.0016   4.7050   5.7938   7.9485

          k = 0.0556-0.5453 0.0000 (  4486 PWs)   bands (ev):

   -44.5011 -44.4694 -44.2493 -44.1718 -44.1048 -44.0263 -43.9406 -43.9334
   -43.6075 -43.6071 -43.5207 -43.5167  -3.2529  -3.0262  -2.9129  -2.4483
    -2.1562  -1.7919  -0.8366  -0.5004  -0.2310   0.5380   0.6960   1.2196
     2.0578   2.2518   2.6173   2.8405   2.9324   3.1343   3.3373   3.4444
     4.7288   5.9565   6.3821   7.4227

          k = 0.0556-0.4170 0.0000 (  4465 PWs)   bands (ev):

   -44.4260 -44.4114 -44.2579 -44.1361 -44.0808 -44.0059 -43.8759 -43.8627
   -43.5860 -43.5856 -43.5265 -43.5208  -2.9672  -2.8902  -2.6240  -2.2466
    -1.9171  -1.5722  -0.7257  -0.2561  -0.1515  -0.0029   0.6022   0.9904
     1.3477   1.8320   1.9156   2.2227   2.4222   2.6998   2.7055   3.1530
     3.2563   3.5756   5.0480   7.4857

          k = 0.0556-0.2887 0.0000 (  4439 PWs)   bands (ev):

   -44.4143 -44.2733 -44.1714 -44.0929 -44.0336 -43.9679 -43.7316 -43.7251
   -43.5448 -43.5442 -43.5368 -43.5299  -3.1716  -2.5493  -2.2487  -1.7783
    -1.6738  -1.2036  -1.0339  -0.4147  -0.1138   0.0406   0.1810   0.4322
     0.6228   0.9018   1.0956   1.2470   1.6590   1.9758   1.9947   2.2169
     2.5254   3.0130   3.8078   5.9944

          k = 0.0556-0.1604 0.0000 (  4443 PWs)   bands (ev):

   -44.4583 -44.1744 -44.0345 -44.0190 -43.9811 -43.9309 -43.5785 -43.5780
   -43.5524 -43.5365 -43.5037 -43.5036  -4.1303  -3.0166  -2.6101  -2.3027
    -1.0493  -0.8470  -0.7855  -0.2174  -0.1162  -0.0151   0.0518   0.1232
     0.2681   0.6249   0.7327   1.1827   1.3003   1.3342   1.7357   2.0086
     2.3665   2.8923   3.0279   4.5332

          k = 0.0556-0.0321 0.0000 (  4465 PWs)   bands (ev):

   -44.4849 -44.1550 -43.9718 -43.9633 -43.9235 -43.9100 -43.5654 -43.5435
   -43.4936 -43.4932 -43.4823 -43.4821  -4.7205  -3.5554  -3.0793  -2.8137
    -0.5718  -0.5003  -0.4553  -0.3522  -0.2828  -0.1346   0.0670   0.1754
     0.1953   0.3149   0.5915   1.4964   1.4965   1.8503   1.9038   2.1102
     2.5416   2.5543   3.0363   3.3292

          k = 0.1667 0.2887 0.0000 (  4425 PWs)   bands (ev):

   -44.4012 -44.2971 -44.2169 -44.0993 -44.0553 -44.0081 -43.7641 -43.7575
   -43.5778 -43.5773 -43.5307 -43.5275  -2.7595  -2.2430  -1.9212  -1.8445
    -1.6534  -1.3375  -0.8853  -0.6629  -0.3621  -0.3132  -0.2738   0.4192
     0.4982   0.9403   1.1179   1.5212   2.0472   2.2804   2.4653   2.7371
     2.8210   2.9005   4.3649   6.5659

          k = 0.1667 0.4170 0.0000 (  4459 PWs)   bands (ev):

   -44.4150 -44.3927 -44.2654 -44.1521 -44.1095 -44.0637 -43.8630 -43.8563
   -43.6412 -43.6390 -43.5215 -43.5192  -2.5913  -2.4760  -2.2895  -1.9208
    -1.4580  -1.4247  -1.0411  -0.6026  -0.3978   0.0731   0.3105   0.5253
     0.7077   1.0959   1.6329   1.7781   2.0569   2.7123   3.0270   3.2384
     4.4904   4.8733   6.1189   8.2536

          k = 0.1667 0.5453 0.0000 (  4490 PWs)   bands (ev):

   -44.4650 -44.4338 -44.2379 -44.2145 -44.1238 -44.0977 -43.9101 -43.9068
   -43.6755 -43.6729 -43.5161 -43.5152  -2.8659  -2.5593  -2.5007  -2.0096
    -1.6185  -1.5676  -1.2430  -0.4020  -0.1211   0.0477   0.2467   1.0486
     1.2929   1.5427   1.8873   2.3279   2.5199   2.7988   2.9752   3.2523
     6.4730   7.1971   7.9406   8.6308

          k = 0.1667-0.4811 0.0000 (  4476 PWs)   bands (ev):

   -44.4452 -44.4204 -44.2548 -44.1865 -44.1203 -44.0844 -43.8944 -43.8892
   -43.6636 -43.6610 -43.5182 -43.5162  -2.7681  -2.5284  -2.4248  -1.9769
    -1.5541  -1.5125  -1.1612  -0.4552  -0.1657  -0.0418   0.3117   0.9005
     1.0678   1.3300   1.8159   2.0764   2.2034   2.7526   3.0791   3.3321
     5.5042   6.0698   7.1856   8.9867

          k = 0.1667-0.3528 0.0000 (  4458 PWs)   bands (ev):

   -44.3976 -44.3481 -44.2572 -44.1199 -44.0879 -44.0384 -43.8186 -43.8111
   -43.6111 -43.6098 -43.5258 -43.5238  -2.5134  -2.3483  -2.1299  -1.8535
    -1.4793  -1.3730  -0.9709  -0.6921  -0.4515  -0.0798   0.0860   0.2668
     0.5155   0.9666   1.3209   1.7464   1.9992   2.6092   2.7556   3.0071
     3.5832   3.7666   5.1341   7.3700

          k = 0.1667-0.2245 0.0000 (  4433 PWs)   bands (ev):

   -44.4179 -44.2497 -44.1567 -44.0842 -44.0266 -43.9757 -43.7055 -43.7011
   -43.5473 -43.5472 -43.5379 -43.5307  -3.2020  -2.3624  -2.1198  -1.7577
    -1.5426  -1.2831  -1.0245  -0.5099  -0.3498  -0.2471  -0.0361   0.3553
     0.6628   0.9009   0.9924   1.1499   1.6654   1.9901   2.0783   2.2630
     2.3914   2.8593   3.7959   5.8587

          k = 0.1667-0.0962 0.0000 (  4427 PWs)   bands (ev):

   -44.4507 -44.1852 -44.0565 -44.0341 -43.9952 -43.9329 -43.6046 -43.6036
   -43.5496 -43.5359 -43.5086 -43.5081  -3.9598  -2.8931  -2.5061  -2.1739
    -1.1952  -0.9090  -0.8658  -0.1590  -0.1513   0.0434   0.0585   0.2321
     0.3226   0.6554   0.8514   0.9943   1.2436   1.3874   1.7083   1.8940
     2.5516   2.9457   3.0769   4.7840

          k = 0.2778 0.4811 0.0000 (  4485 PWs)   bands (ev):

   -44.4143 -44.3900 -44.2930 -44.2015 -44.1676 -44.1206 -43.8692 -43.8648
   -43.7370 -43.7317 -43.5149 -43.5138  -2.4252  -2.2883  -1.9525  -1.6269
    -1.5103  -1.2862  -1.1994  -0.5931  -0.3349   0.1110   0.3098   0.3695
     0.5280   1.0965   1.6030   1.6786   2.1246   2.7259   2.9977   3.2282
     6.8477   7.5568   8.7362  10.3847

          k = 0.2778 0.6094 0.0000 (  4491 PWs)   bands (ev):

   -44.4032 -44.3814 -44.3132 -44.2315 -44.1621 -44.1368 -43.8615 -43.8543
   -43.7704 -43.7644 -43.5136 -43.5119  -2.3963  -2.1501  -1.8978  -1.6912
    -1.6428  -1.1813  -1.1520  -0.4917  -0.3487   0.0685   0.2147   0.4592
     0.5690   1.1094   1.6113   1.7096   2.3435   2.7241   2.8311   3.0122
     8.1069   8.8571   9.5152  10.2121

          k = 0.2778-0.4170 0.0000 (  4462 PWs)   bands (ev):

   -44.4196 -44.3958 -44.2742 -44.1751 -44.1437 -44.0984 -43.8702 -43.8681
   -43.6899 -43.6862 -43.5172 -43.5161  -2.5191  -2.3469  -2.1087  -1.7660
    -1.3726  -1.3053  -1.2281  -0.6618  -0.3881   0.1276   0.3204   0.4086
     0.5637   1.0451   1.6487   1.7600   1.9583   2.7325   3.1043   3.3331
     5.6320   6.1784   7.3801   9.3011

          k = 0.2778-0.2887 0.0000 (  4463 PWs)   bands (ev):

   -44.4065 -44.3772 -44.2550 -44.1298 -44.0827 -44.0219 -43.8429 -43.8330
   -43.5982 -43.5977 -43.5263 -43.5221  -2.7146  -2.6323  -2.4104  -2.0252
    -1.6190  -1.4599  -0.8323  -0.5698  -0.2342  -0.0137   0.3859   0.6629
     0.8585   1.1381   1.5442   1.8399   2.1520   2.6728   2.7175   3.0455
     3.4658   3.6959   5.0856   7.4010

          k = 0.2778-0.1604 0.0000 (  4458 PWs)   bands (ev):

   -44.4085 -44.3096 -44.2005 -44.1033 -44.0434 -43.9699 -43.7708 -43.7618
   -43.5497 -43.5486 -43.5347 -43.5282  -3.0861  -2.6890  -2.3334  -1.9797
    -1.7503  -1.2870  -0.7576  -0.4313  -0.0325   0.0584   0.4252   0.6745
     0.8855   0.8894   1.3047   1.5061   1.7532   2.0910   2.0918   2.2103
     2.5610   3.1289   3.9548   6.2869

          k = 0.3889 0.6736 0.0000 (  4511 PWs)   bands (ev):

   -44.4370 -44.4078 -44.2682 -44.2251 -44.1417 -44.1316 -43.8896 -43.8828
   -43.7268 -43.7221 -43.5144 -43.5135  -2.6469  -2.2761  -2.1437  -1.8143
    -1.5973  -1.3308  -1.2245  -0.4726  -0.2714  -0.0114   0.2033   0.8529
     0.9502   1.0671   1.7194   2.0217   2.4512   2.7577   2.8481   3.1047
     7.6556   8.1778   8.7394   9.3302

          k = 0.3889-0.3528 0.0000 (  4485 PWs)   bands (ev):

   -44.4775 -44.4482 -44.2474 -44.1799 -44.1119 -44.0531 -43.9214 -43.9146
   -43.6312 -43.6305 -43.5197 -43.5165  -3.0409  -2.8150  -2.7357  -2.2310
    -1.9000  -1.6923  -1.0010  -0.3961  -0.1721   0.2578   0.4362   1.1537
     1.6727   1.9242   2.0865   2.5349   2.6535   2.8237   3.1054   3.3401
     5.2067   5.9407   6.8084   8.3003

          k = 0.3889-0.2245 0.0000 (  4444 PWs)   bands (ev):

   -44.4532 -44.4341 -44.2592 -44.1440 -44.0844 -44.0028 -43.9042 -43.8892
   -43.5851 -43.5841 -43.5251 -43.5191  -3.1307  -3.0013  -2.7640  -2.3829
    -2.0798  -1.6641  -0.6965  -0.3631  -0.1641   0.2567   0.8873   0.8955
     1.8557   2.0491   2.4886   2.6579   2.7031   2.8154   3.0104   3.1162
     3.2856   3.6986   5.1982   7.6608

          k =-0.5000-0.8660 0.0000 (  4492 PWs)   bands (ev):

   -44.5096 -44.4773 -44.2510 -44.1697 -44.1011 -44.0159 -43.9480 -43.9400
   -43.5993 -43.5984 -43.5215 -43.5168  -3.3314  -3.1013  -2.9696  -2.5276
    -2.2470  -1.8256  -0.7705  -0.5445  -0.2633   0.6329   0.8414   1.1991
     2.1429   2.3559   2.8636   2.9225   3.0748   3.2616   3.5795   3.6098
     4.3723   5.9431   6.4616   6.7660

 ------ SPIN DOWN ----------


          k = 0.0556 0.0962 0.0000 (  4451 PWs)   bands (ev):

   -44.4753 -44.1594 -43.9948 -43.9762 -43.9512 -43.9173 -43.5607 -43.5440
   -43.5230 -43.5196 -43.4896 -43.4895  -4.5146  -3.3612  -2.9080  -2.6269
    -0.7787  -0.6244  -0.5550  -0.2006  -0.1738  -0.0711  -0.0379   0.0934
     0.3209   0.4603   0.4642   1.3656   1.4777   1.5758   1.9323   2.0337
     2.2168   2.7225   2.9873   3.8620

          k = 0.0556 0.2245 0.0000 (  4420 PWs)   bands (ev):

   -44.4358 -44.2104 -44.0959 -44.0653 -44.0070 -43.9482 -43.6498 -43.6471
   -43.5444 -43.5342 -43.5228 -43.5223  -3.6358  -2.6580  -2.3189  -1.9466
    -1.3805  -1.0806  -0.9978  -0.2442  -0.2281  -0.1010   0.0975   0.3352
     0.5206   0.8309   0.8877   1.0372   1.2203   1.5094   1.8278   2.0058
     2.4759   2.9634   3.3438   5.2524

          k = 0.0556 0.3528 0.0000 (  4467 PWs)   bands (ev):

   -44.4046 -44.3475 -44.2326 -44.1144 -44.0595 -43.9881 -43.8108 -43.8001
   -43.5669 -43.5664 -43.5312 -43.5254  -2.9273  -2.7080  -2.3937  -2.0693
    -1.7385  -1.3930  -0.6067  -0.5950  -0.0785  -0.0148   0.4481   0.7555
     0.9077   1.1002   1.5143   1.7245   2.1347   2.1959   2.5386   2.6325
     2.7557   3.0691   4.3701   6.7510

          k = 0.0556 0.4811 0.0000 (  4463 PWs)   bands (ev):

   -44.4732 -44.4474 -44.2559 -44.1574 -44.0962 -44.0190 -43.9202 -43.9078
   -43.5999 -43.5995 -43.5227 -43.5178  -3.1476  -2.9735  -2.8120  -2.3753
    -2.0711  -1.7139  -0.8031  -0.4067  -0.1884   0.3419   0.6897   1.1028
     1.9117   2.0457   2.4075   2.6086   2.8461   2.8832   3.0660   3.3331
     4.0016   4.7050   5.7938   7.9485

          k = 0.0556-0.5453 0.0000 (  4486 PWs)   bands (ev):

   -44.5011 -44.4694 -44.2493 -44.1718 -44.1048 -44.0263 -43.9406 -43.9334
   -43.6075 -43.6071 -43.5207 -43.5167  -3.2529  -3.0262  -2.9129  -2.4483
    -2.1562  -1.7919  -0.8366  -0.5004  -0.2310   0.5380   0.6960   1.2196
     2.0578   2.2518   2.6173   2.8405   2.9324   3.1343   3.3373   3.4444
     4.7288   5.9565   6.3821   7.4227

          k = 0.0556-0.4170 0.0000 (  4465 PWs)   bands (ev):

   -44.4260 -44.4114 -44.2579 -44.1361 -44.0808 -44.0059 -43.8759 -43.8627
   -43.5860 -43.5856 -43.5265 -43.5208  -2.9672  -2.8902  -2.6240  -2.2466
    -1.9171  -1.5722  -0.7257  -0.2561  -0.1515  -0.0029   0.6022   0.9904
     1.3477   1.8320   1.9156   2.2227   2.4222   2.6998   2.7055   3.1530
     3.2563   3.5756   5.0480   7.4857

          k = 0.0556-0.2887 0.0000 (  4439 PWs)   bands (ev):

   -44.4143 -44.2733 -44.1714 -44.0929 -44.0336 -43.9679 -43.7316 -43.7251
   -43.5448 -43.5442 -43.5368 -43.5299  -3.1716  -2.5493  -2.2487  -1.7783
    -1.6738  -1.2036  -1.0339  -0.4147  -0.1138   0.0406   0.1810   0.4322
     0.6228   0.9018   1.0956   1.2470   1.6590   1.9758   1.9947   2.2169
     2.5254   3.0130   3.8078   5.9944

          k = 0.0556-0.1604 0.0000 (  4443 PWs)   bands (ev):

   -44.4583 -44.1744 -44.0345 -44.0190 -43.9811 -43.9309 -43.5785 -43.5780
   -43.5524 -43.5365 -43.5037 -43.5036  -4.1303  -3.0166  -2.6101  -2.3027
    -1.0493  -0.8470  -0.7855  -0.2174  -0.1162  -0.0151   0.0518   0.1232
     0.2681   0.6249   0.7327   1.1827   1.3003   1.3342   1.7357   2.0086
     2.3665   2.8923   3.0279   4.5332

          k = 0.0556-0.0321 0.0000 (  4465 PWs)   bands (ev):

   -44.4849 -44.1550 -43.9718 -43.9633 -43.9235 -43.9100 -43.5654 -43.5435
   -43.4936 -43.4932 -43.4823 -43.4821  -4.7205  -3.5554  -3.0793  -2.8137
    -0.5718  -0.5003  -0.4553  -0.3522  -0.2828  -0.1346   0.0670   0.1754
     0.1953   0.3149   0.5915   1.4964   1.4965   1.8503   1.9038   2.1102
     2.5416   2.5543   3.0363   3.3292

          k = 0.1667 0.2887 0.0000 (  4425 PWs)   bands (ev):

   -44.4012 -44.2971 -44.2169 -44.0993 -44.0553 -44.0081 -43.7641 -43.7575
   -43.5778 -43.5773 -43.5307 -43.5275  -2.7595  -2.2430  -1.9212  -1.8445
    -1.6534  -1.3375  -0.8853  -0.6629  -0.3621  -0.3132  -0.2738   0.4192
     0.4982   0.9403   1.1179   1.5212   2.0472   2.2804   2.4653   2.7371
     2.8210   2.9005   4.3649   6.5659

          k = 0.1667 0.4170 0.0000 (  4459 PWs)   bands (ev):

   -44.4150 -44.3927 -44.2654 -44.1521 -44.1095 -44.0637 -43.8630 -43.8563
   -43.6412 -43.6390 -43.5215 -43.5192  -2.5913  -2.4760  -2.2895  -1.9208
    -1.4580  -1.4247  -1.0411  -0.6026  -0.3978   0.0731   0.3105   0.5253
     0.7077   1.0959   1.6329   1.7781   2.0569   2.7123   3.0270   3.2384
     4.4904   4.8733   6.1189   8.2536

          k = 0.1667 0.5453 0.0000 (  4490 PWs)   bands (ev):

   -44.4650 -44.4338 -44.2379 -44.2145 -44.1238 -44.0977 -43.9101 -43.9068
   -43.6755 -43.6729 -43.5161 -43.5152  -2.8659  -2.5593  -2.5007  -2.0096
    -1.6185  -1.5676  -1.2430  -0.4020  -0.1211   0.0477   0.2467   1.0486
     1.2929   1.5427   1.8873   2.3279   2.5199   2.7988   2.9752   3.2523
     6.4730   7.1971   7.9406   8.6308

          k = 0.1667-0.4811 0.0000 (  4476 PWs)   bands (ev):

   -44.4452 -44.4204 -44.2548 -44.1865 -44.1203 -44.0844 -43.8944 -43.8892
   -43.6636 -43.6610 -43.5182 -43.5162  -2.7681  -2.5284  -2.4248  -1.9769
    -1.5541  -1.5125  -1.1612  -0.4552  -0.1657  -0.0418   0.3117   0.9005
     1.0678   1.3300   1.8159   2.0764   2.2034   2.7526   3.0791   3.3321
     5.5042   6.0698   7.1856   8.9867

          k = 0.1667-0.3528 0.0000 (  4458 PWs)   bands (ev):

   -44.3976 -44.3481 -44.2572 -44.1199 -44.0879 -44.0384 -43.8186 -43.8111
   -43.6111 -43.6098 -43.5258 -43.5238  -2.5134  -2.3483  -2.1299  -1.8535
    -1.4793  -1.3730  -0.9709  -0.6921  -0.4515  -0.0798   0.0860   0.2668
     0.5155   0.9666   1.3209   1.7464   1.9992   2.6092   2.7556   3.0071
     3.5832   3.7666   5.1341   7.3700

          k = 0.1667-0.2245 0.0000 (  4433 PWs)   bands (ev):

   -44.4179 -44.2497 -44.1567 -44.0842 -44.0266 -43.9757 -43.7055 -43.7011
   -43.5473 -43.5472 -43.5379 -43.5307  -3.2020  -2.3624  -2.1198  -1.7577
    -1.5426  -1.2831  -1.0245  -0.5099  -0.3498  -0.2471  -0.0361   0.3553
     0.6628   0.9009   0.9924   1.1499   1.6654   1.9901   2.0783   2.2630
     2.3914   2.8593   3.7959   5.8587

          k = 0.1667-0.0962 0.0000 (  4427 PWs)   bands (ev):

   -44.4507 -44.1852 -44.0565 -44.0341 -43.9952 -43.9329 -43.6046 -43.6036
   -43.5496 -43.5359 -43.5086 -43.5081  -3.9598  -2.8931  -2.5061  -2.1739
    -1.1952  -0.9090  -0.8658  -0.1590  -0.1513   0.0434   0.0585   0.2321
     0.3226   0.6554   0.8514   0.9943   1.2436   1.3874   1.7083   1.8940
     2.5516   2.9457   3.0769   4.7840

          k = 0.2778 0.4811 0.0000 (  4485 PWs)   bands (ev):

   -44.4143 -44.3900 -44.2930 -44.2015 -44.1676 -44.1206 -43.8692 -43.8648
   -43.7370 -43.7317 -43.5149 -43.5138  -2.4252  -2.2883  -1.9525  -1.6269
    -1.5103  -1.2862  -1.1994  -0.5931  -0.3349   0.1110   0.3098   0.3695
     0.5280   1.0965   1.6030   1.6786   2.1246   2.7259   2.9977   3.2282
     6.8477   7.5568   8.7362  10.3847

          k = 0.2778 0.6094 0.0000 (  4491 PWs)   bands (ev):

   -44.4032 -44.3814 -44.3132 -44.2315 -44.1621 -44.1368 -43.8615 -43.8543
   -43.7704 -43.7644 -43.5136 -43.5119  -2.3963  -2.1501  -1.8978  -1.6912
    -1.6428  -1.1813  -1.1520  -0.4917  -0.3487   0.0685   0.2147   0.4592
     0.5690   1.1094   1.6113   1.7096   2.3435   2.7241   2.8311   3.0122
     8.1069   8.8571   9.5152  10.2121

          k = 0.2778-0.4170 0.0000 (  4462 PWs)   bands (ev):

   -44.4196 -44.3958 -44.2742 -44.1751 -44.1437 -44.0984 -43.8702 -43.8681
   -43.6899 -43.6862 -43.5172 -43.5161  -2.5191  -2.3469  -2.1087  -1.7660
    -1.3726  -1.3053  -1.2281  -0.6618  -0.3881   0.1276   0.3204   0.4086
     0.5637   1.0451   1.6487   1.7600   1.9583   2.7325   3.1043   3.3331
     5.6320   6.1784   7.3801   9.3011

          k = 0.2778-0.2887 0.0000 (  4463 PWs)   bands (ev):

   -44.4065 -44.3772 -44.2550 -44.1298 -44.0827 -44.0219 -43.8429 -43.8330
   -43.5982 -43.5977 -43.5263 -43.5221  -2.7146  -2.6323  -2.4104  -2.0252
    -1.6190  -1.4599  -0.8323  -0.5698  -0.2342  -0.0137   0.3859   0.6629
     0.8585   1.1381   1.5442   1.8399   2.1520   2.6728   2.7175   3.0455
     3.4658   3.6959   5.0856   7.4010

          k = 0.2778-0.1604 0.0000 (  4458 PWs)   bands (ev):

   -44.4085 -44.3096 -44.2005 -44.1033 -44.0434 -43.9699 -43.7708 -43.7618
   -43.5497 -43.5486 -43.5347 -43.5282  -3.0861  -2.6890  -2.3334  -1.9797
    -1.7503  -1.2870  -0.7576  -0.4313  -0.0325   0.0584   0.4252   0.6745
     0.8855   0.8894   1.3047   1.5061   1.7532   2.0910   2.0918   2.2103
     2.5610   3.1289   3.9548   6.2869

          k = 0.3889 0.6736 0.0000 (  4511 PWs)   bands (ev):

   -44.4370 -44.4078 -44.2682 -44.2251 -44.1417 -44.1316 -43.8896 -43.8828
   -43.7268 -43.7221 -43.5144 -43.5135  -2.6469  -2.2761  -2.1437  -1.8143
    -1.5973  -1.3308  -1.2245  -0.4726  -0.2714  -0.0114   0.2033   0.8529
     0.9502   1.0671   1.7194   2.0217   2.4512   2.7577   2.8481   3.1047
     7.6556   8.1778   8.7394   9.3302

          k = 0.3889-0.3528 0.0000 (  4485 PWs)   bands (ev):

   -44.4775 -44.4482 -44.2474 -44.1799 -44.1119 -44.0531 -43.9214 -43.9146
   -43.6312 -43.6305 -43.5197 -43.5165  -3.0409  -2.8150  -2.7357  -2.2310
    -1.9000  -1.6923  -1.0010  -0.3961  -0.1721   0.2578   0.4362   1.1537
     1.6727   1.9242   2.0865   2.5349   2.6535   2.8237   3.1054   3.3401
     5.2067   5.9407   6.8084   8.3003

          k = 0.3889-0.2245 0.0000 (  4444 PWs)   bands (ev):

   -44.4532 -44.4341 -44.2592 -44.1440 -44.0844 -44.0028 -43.9042 -43.8892
   -43.5851 -43.5841 -43.5251 -43.5191  -3.1307  -3.0013  -2.7640  -2.3829
    -2.0798  -1.6641  -0.6965  -0.3631  -0.1641   0.2567   0.8873   0.8955
     1.8557   2.0491   2.4886   2.6579   2.7031   2.8154   3.0104   3.1162
     3.2856   3.6986   5.1982   7.6608

          k =-0.5000-0.8660 0.0000 (  4492 PWs)   bands (ev):

   -44.5096 -44.4773 -44.2510 -44.1697 -44.1011 -44.0159 -43.9480 -43.9400
   -43.5993 -43.5984 -43.5215 -43.5168  -3.3314  -3.1013  -2.9696  -2.5276
    -2.2470  -1.8256  -0.7705  -0.5445  -0.2633   0.6329   0.8414   1.1991
     2.1429   2.3559   2.8636   2.9225   3.0748   3.2616   3.5795   3.6098
     4.3723   5.9431   6.4616   6.7660

     the Fermi energy is     2.5623 ev

!    total energy              =    -684.65310609 Ry
     estimated scf accuracy    <       0.00000007 Ry
     smearing contrib. (-TS)   =      -0.01841067 Ry
     internal energy E=F+TS    =    -684.63469542 Ry

     The total energy is F=E-TS. E is the sum of the following terms:
     one-electron contribution =   -9550.60619508 Ry
     hartree contribution      =    4788.83631378 Ry
     xc contribution           =    -119.59094919 Ry
     ewald contribution        =    4196.72613507 Ry

     total magnetization       =    -0.00 Bohr mag/cell
     absolute magnetization    =     0.00 Bohr mag/cell

     convergence has been achieved in   8 iterations

     negative rho (up, down):  1.073E-01 1.073E-01

     Forces acting on atoms (cartesian axes, Ry/au):

     atom    1 type  1   force =     0.00000000    0.00000000   -0.00058478
     atom    2 type  1   force =     0.00000000    0.00000000    0.00146400
     atom    3 type  1   force =     0.00000000    0.00000000   -0.00146402
     atom    4 type  1   force =     0.00000000    0.00000000    0.00058479

     Total force =     0.002229     Total SCF correction =     0.000541
     SCF correction compared to forces is large: reduce conv_thr to get better values
     Energy error            =      9.9E-06
     Gradient error          =      1.5E-03

     number of scf cycles    =   7
     number of bfgs steps    =   6

     energy   old            =    -684.6530961510 Ry
     energy   new            =    -684.6531060877 Ry

     CASE: energy  _new < energy  _old

     new trust radius        =       0.0035447029 bohr
     new conv_thr            =       0.0000001000 Ry


ATOMIC_POSITIONS (angstrom)
Rh            0.0000000000        0.0000000000        0.0497770660
Rh            2.7108568000        1.5651139000        2.2297574564
Rh            1.3554284000        0.7825569000        4.4104627946
Rh            0.0000000000        0.0000000000        6.5904344831



     Writing output data file /home/STUDENTI/leonardo.razzai/WORK/relax_surf/4-L.save/
     NEW-OLD atomic charge density approx. for the potential

     negative rho (up, down):  1.072E-01 1.072E-01
     Generating pointlists ...

     total cpu time spent up to now is      616.0 secs

     Self-consistent Calculation

     iteration #  1     ecut=    35.00 Ry     beta= 0.40
     Davidson diagonalization with overlap
     ethr =  1.00E-06,  avg # of iterations =  4.0

     negative rho (up, down):  1.072E-01 1.072E-01

     total cpu time spent up to now is      626.8 secs

     total energy              =    -684.65310311 Ry
     estimated scf accuracy    <       0.00023252 Ry

     total magnetization       =    -0.00 Bohr mag/cell
     absolute magnetization    =     0.00 Bohr mag/cell

     iteration #  2     ecut=    35.00 Ry     beta= 0.40
     Davidson diagonalization with overlap
     ethr =  3.88E-07,  avg # of iterations =  1.0

     negative rho (up, down):  1.072E-01 1.072E-01

     total cpu time spent up to now is      634.0 secs

     total energy              =    -684.65311015 Ry
     estimated scf accuracy    <       0.00003808 Ry

     total magnetization       =    -0.00 Bohr mag/cell
     absolute magnetization    =     0.00 Bohr mag/cell

     iteration #  3     ecut=    35.00 Ry     beta= 0.40
     Davidson diagonalization with overlap
     ethr =  6.35E-08,  avg # of iterations =  1.0

     negative rho (up, down):  1.072E-01 1.072E-01

     total cpu time spent up to now is      640.7 secs

     total energy              =    -684.65311112 Ry
     estimated scf accuracy    <       0.00001127 Ry

     total magnetization       =    -0.00 Bohr mag/cell
     absolute magnetization    =     0.00 Bohr mag/cell

     iteration #  4     ecut=    35.00 Ry     beta= 0.40
     Davidson diagonalization with overlap
     ethr =  1.88E-08,  avg # of iterations =  1.1

     negative rho (up, down):  1.072E-01 1.072E-01

     total cpu time spent up to now is      647.5 secs

     total energy              =    -684.65311159 Ry
     estimated scf accuracy    <       0.00000071 Ry

     total magnetization       =    -0.00 Bohr mag/cell
     absolute magnetization    =     0.00 Bohr mag/cell

     iteration #  5     ecut=    35.00 Ry     beta= 0.40
     Davidson diagonalization with overlap
     ethr =  1.19E-09,  avg # of iterations =  1.4

     negative rho (up, down):  1.072E-01 1.072E-01

     total cpu time spent up to now is      654.6 secs

     total energy              =    -684.65311159 Ry
     estimated scf accuracy    <       0.00000012 Ry

     total magnetization       =    -0.00 Bohr mag/cell
     absolute magnetization    =     0.00 Bohr mag/cell

     iteration #  6     ecut=    35.00 Ry     beta= 0.40
     Davidson diagonalization with overlap
     ethr =  2.03E-10,  avg # of iterations =  1.7

     negative rho (up, down):  1.072E-01 1.072E-01
 
     Magnetic moment per site:
     atom:    1    charge:   13.1067    magn:   -0.0000    constr:    0.0000
     atom:    2    charge:   13.1669    magn:    0.0000    constr:    0.0000
     atom:    3    charge:   13.1670    magn:   -0.0000    constr:    0.0000
     atom:    4    charge:   13.1067    magn:   -0.0000    constr:    0.0000

     total cpu time spent up to now is      661.1 secs

     End of self-consistent calculation

 ------ SPIN UP ------------


          k = 0.0556 0.0962 0.0000 (  4451 PWs)   bands (ev):

   -44.4780 -44.1585 -43.9953 -43.9769 -43.9512 -43.9173 -43.5574 -43.5408
   -43.5200 -43.5166 -43.4866 -43.4865  -4.5159  -3.3602  -2.9068  -2.6231
    -0.7822  -0.6263  -0.5500  -0.2023  -0.1763  -0.0703  -0.0342   0.0958
     0.3250   0.4649   0.4668   1.3647   1.4779   1.5791   1.9342   2.0354
     2.2199   2.7235   2.9886   3.8623

          k = 0.0556 0.2245 0.0000 (  4420 PWs)   bands (ev):

   -44.4385 -44.2109 -44.0956 -44.0648 -44.0077 -43.9481 -43.6468 -43.6441
   -43.5410 -43.5310 -43.5198 -43.5192  -3.6372  -2.6572  -2.3193  -1.9435
    -1.3809  -1.0776  -0.9975  -0.2406  -0.2259  -0.1004   0.0955   0.3370
     0.5196   0.8325   0.8927   1.0401   1.2239   1.5104   1.8265   2.0087
     2.4758   2.9651   3.3462   5.2530

          k = 0.0556 0.3528 0.0000 (  4467 PWs)   bands (ev):

   -44.4072 -44.3485 -44.2320 -44.1135 -44.0603 -43.9879 -43.8080 -43.7975
   -43.5638 -43.5634 -43.5276 -43.5219  -2.9293  -2.7091  -2.3965  -2.0644
    -1.7347  -1.3887  -0.6077  -0.5941  -0.0792  -0.0147   0.4503   0.7596
     0.9126   1.1020   1.5153   1.7249   2.1345   2.1991   2.5377   2.6345
     2.7570   3.0708   4.3714   6.7527

          k = 0.0556 0.4811 0.0000 (  4463 PWs)   bands (ev):

   -44.4745 -44.4489 -44.2557 -44.1566 -44.0969 -44.0187 -43.9179 -43.9057
   -43.5969 -43.5965 -43.5189 -43.5141  -3.1501  -2.9753  -2.8144  -2.3695
    -2.0674  -1.7081  -0.8032  -0.4057  -0.1908   0.3414   0.6949   1.1057
     1.9156   2.0454   2.4093   2.6074   2.8468   2.8843   3.0679   3.3351
     4.0028   4.7073   5.7938   7.9508

          k = 0.0556-0.5453 0.0000 (  4486 PWs)   bands (ev):

   -44.5023 -44.4707 -44.2491 -44.1710 -44.1056 -44.0259 -43.9385 -43.9315
   -43.6045 -43.6041 -43.5169 -43.5129  -3.2555  -3.0279  -2.9154  -2.4424
    -2.1524  -1.7860  -0.8371  -0.4992  -0.2335   0.5375   0.7024   1.2213
     2.0571   2.2547   2.6197   2.8408   2.9323   3.1359   3.3390   3.4463
     4.7296   5.9589   6.3820   7.4240

          k = 0.0556-0.4170 0.0000 (  4465 PWs)   bands (ev):

   -44.4279 -44.4128 -44.2576 -44.1353 -44.0815 -44.0056 -43.8733 -43.8603
   -43.5830 -43.5826 -43.5228 -43.5171  -2.9700  -2.8914  -2.6266  -2.2410
    -1.9133  -1.5670  -0.7252  -0.2554  -0.1537  -0.0036   0.6049   0.9958
     1.3523   1.8333   1.9161   2.2224   2.4221   2.7013   2.7062   3.1549
     3.2579   3.5777   5.0486   7.4879

          k = 0.0556-0.2887 0.0000 (  4439 PWs)   bands (ev):

   -44.4170 -44.2742 -44.1709 -44.0920 -44.0344 -43.9677 -43.7287 -43.7223
   -43.5418 -43.5412 -43.5334 -43.5265  -3.1731  -2.5495  -2.2505  -1.7749
    -1.6712  -1.2017  -1.0327  -0.4135  -0.1109   0.0391   0.1830   0.4350
     0.6243   0.9028   1.0979   1.2488   1.6630   1.9756   1.9966   2.2182
     2.5244   3.0147   3.8099   5.9955

          k = 0.0556-0.1604 0.0000 (  4443 PWs)   bands (ev):

   -44.4610 -44.1741 -44.0346 -44.0191 -43.9816 -43.9308 -43.5754 -43.5749
   -43.5491 -43.5333 -43.5007 -43.5005  -4.1316  -3.0156  -2.6093  -2.2990
    -1.0524  -0.8454  -0.7834  -0.2132  -0.1146  -0.0181   0.0526   0.1218
     0.2702   0.6296   0.7376   1.1848   1.3016   1.3353   1.7346   2.0114
     2.3683   2.8942   3.0294   4.5336

          k = 0.0556-0.0321 0.0000 (  4465 PWs)   bands (ev):

   -44.4876 -44.1539 -43.9725 -43.9641 -43.9234 -43.9100 -43.5620 -43.5403
   -43.4906 -43.4902 -43.4792 -43.4791  -4.7217  -3.5542  -3.0781  -2.8099
    -0.5749  -0.5023  -0.4514  -0.3540  -0.2852  -0.1356   0.0716   0.1792
     0.2000   0.3193   0.5941   1.4956   1.4957   1.8543   1.9079   2.1114
     2.5431   2.5548   3.0378   3.3297

          k = 0.1667 0.2887 0.0000 (  4425 PWs)   bands (ev):

   -44.4039 -44.2980 -44.2168 -44.0984 -44.0557 -44.0079 -43.7613 -43.7547
   -43.5748 -43.5743 -43.5272 -43.5241  -2.7610  -2.2440  -1.9232  -1.8477
    -1.6496  -1.3323  -0.8816  -0.6598  -0.3621  -0.3096  -0.2725   0.4203
     0.5013   0.9426   1.1185   1.5203   2.0481   2.2832   2.4659   2.7398
     2.8221   2.9013   4.3661   6.5675

          k = 0.1667 0.4170 0.0000 (  4459 PWs)   bands (ev):

   -44.4170 -44.3939 -44.2656 -44.1519 -44.1093 -44.0633 -43.8605 -43.8538
   -43.6382 -43.6360 -43.5178 -43.5155  -2.5941  -2.4782  -2.2918  -1.9162
    -1.4537  -1.4202  -1.0409  -0.6038  -0.3973   0.0754   0.3135   0.5304
     0.7106   1.0988   1.6342   1.7767   2.0556   2.7139   3.0290   3.2392
     4.4912   4.8756   6.1198   8.2558

          k = 0.1667 0.5453 0.0000 (  4490 PWs)   bands (ev):

   -44.4662 -44.4352 -44.2381 -44.2149 -44.1234 -44.0972 -43.9079 -43.9046
   -43.6725 -43.6700 -43.5123 -43.5114  -2.8687  -2.5614  -2.5031  -2.0034
    -1.6144  -1.5619  -1.2457  -0.4000  -0.1211   0.0480   0.2501   1.0521
     1.2961   1.5455   1.8864   2.3288   2.5191   2.8003   2.9766   3.2533
     6.4739   7.1991   7.9410   8.6324

          k = 0.1667-0.4811 0.0000 (  4476 PWs)   bands (ev):

   -44.4466 -44.4218 -44.2552 -44.1866 -44.1199 -44.0839 -43.8920 -43.8869
   -43.6607 -43.6581 -43.5145 -43.5125  -2.7709  -2.5306  -2.4271  -1.9713
    -1.5500  -1.5071  -1.1628  -0.4543  -0.1668  -0.0397   0.3147   0.9053
     1.0716   1.3323   1.8146   2.0777   2.2019   2.7545   3.0803   3.3331
     5.5050   6.0719   7.1865   8.9888

          k = 0.1667-0.3528 0.0000 (  4458 PWs)   bands (ev):

   -44.4002 -44.3491 -44.2571 -44.1193 -44.0881 -44.0381 -43.8159 -43.8086
   -43.6080 -43.6068 -43.5222 -43.5202  -2.5155  -2.3505  -2.1322  -1.8508
    -1.4783  -1.3675  -0.9680  -0.6921  -0.4508  -0.0758   0.0889   0.2691
     0.5176   0.9696   1.3220   1.7453   1.9986   2.6102   2.7585   3.0079
     3.5841   3.7689   5.1350   7.3721

          k = 0.1667-0.2245 0.0000 (  4433 PWs)   bands (ev):

   -44.4207 -44.2505 -44.1566 -44.0834 -44.0272 -43.9756 -43.7025 -43.6982
   -43.5443 -43.5442 -43.5344 -43.5274  -3.2034  -2.3610  -2.1232  -1.7578
    -1.5388  -1.2809  -1.0222  -0.5068  -0.3473  -0.2455  -0.0362   0.3567
     0.6655   0.9010   0.9936   1.1511   1.6692   1.9923   2.0786   2.2644
     2.3916   2.8605   3.7977   5.8598

          k = 0.1667-0.0962 0.0000 (  4427 PWs)   bands (ev):

   -44.4534 -44.1852 -44.0563 -44.0339 -43.9960 -43.9328 -43.6016 -43.6005
   -43.5463 -43.5327 -43.5056 -43.5050  -3.9611  -2.8923  -2.5055  -2.1704
    -1.1973  -0.9058  -0.8654  -0.1570  -0.1475   0.0400   0.0591   0.2300
     0.3247   0.6606   0.8564   0.9968   1.2456   1.3881   1.7061   1.8977
     2.5511   2.9494   3.0783   4.7844

          k = 0.2778 0.4811 0.0000 (  4485 PWs)   bands (ev):

   -44.4159 -44.3912 -44.2943 -44.2013 -44.1670 -44.1198 -43.8667 -43.8623
   -43.7341 -43.7289 -43.5111 -43.5100  -2.4291  -2.2895  -1.9544  -1.6246
    -1.5096  -1.2844  -1.1935  -0.5908  -0.3341   0.1144   0.3118   0.3739
     0.5311   1.1005   1.6028   1.6767   2.1238   2.7280   2.9981   3.2293
     6.8484   7.5588   8.7375  10.3864

          k = 0.2778 0.6094 0.0000 (  4491 PWs)   bands (ev):

   -44.4046 -44.3830 -44.3145 -44.2312 -44.1614 -44.1362 -43.8588 -43.8518
   -43.7676 -43.7617 -43.5098 -43.5081  -2.4000  -2.1513  -1.9032  -1.6880
    -1.6397  -1.1792  -1.1466  -0.4889  -0.3476   0.0718   0.2171   0.4628
     0.5719   1.1141   1.6090   1.7091   2.3428   2.7259   2.8318   3.0133
     8.1077   8.8590   9.5158  10.2141

          k = 0.2778-0.4170 0.0000 (  4462 PWs)   bands (ev):

   -44.4213 -44.3969 -44.2751 -44.1749 -44.1433 -44.0978 -43.8677 -43.8657
   -43.6870 -43.6833 -43.5135 -43.5124  -2.5221  -2.3491  -2.1101  -1.7629
    -1.3700  -1.2994  -1.2282  -0.6605  -0.3881   0.1307   0.3231   0.4131
     0.5668   1.0484   1.6489   1.7596   1.9565   2.7344   3.1053   3.3340
     5.6327   6.1805   7.3813   9.3032

          k = 0.2778-0.2887 0.0000 (  4463 PWs)   bands (ev):

   -44.4089 -44.3783 -44.2547 -44.1292 -44.0831 -44.0216 -43.8402 -43.8305
   -43.5952 -43.5947 -43.5227 -43.5185  -2.7171  -2.6338  -2.4132  -2.0201
    -1.6149  -1.4554  -0.8316  -0.5714  -0.2348  -0.0117   0.3888   0.6677
     0.8615   1.1407   1.5451   1.8394   2.1513   2.6724   2.7205   3.0472
     3.4670   3.6981   5.0864   7.4031

          k = 0.2778-0.1604 0.0000 (  4458 PWs)   bands (ev):

   -44.4112 -44.3107 -44.1999 -44.1024 -44.0443 -43.9697 -43.7679 -43.7591
   -43.5467 -43.5456 -43.5311 -43.5248  -3.0878  -2.6898  -2.3353  -1.9760
    -1.7466  -1.2833  -0.7583  -0.4298  -0.0305   0.0545   0.4275   0.6780
     0.8872   0.8941   1.3062   1.5071   1.7570   2.0907   2.0932   2.2116
     2.5600   3.1303   3.9569   6.2882

          k = 0.3889 0.6736 0.0000 (  4511 PWs)   bands (ev):

   -44.4383 -44.4093 -44.2693 -44.2250 -44.1409 -44.1310 -43.8871 -43.8805
   -43.7239 -43.7192 -43.5106 -43.5097  -2.6500  -2.2781  -2.1466  -1.8084
    -1.5982  -1.3249  -1.2219  -0.4697  -0.2730  -0.0082   0.2054   0.8564
     0.9546   1.0699   1.7174   2.0226   2.4501   2.7592   2.8495   3.1057
     7.6564   8.1794   8.7398   9.3322

          k = 0.3889-0.3528 0.0000 (  4485 PWs)   bands (ev):

   -44.4788 -44.4495 -44.2474 -44.1798 -44.1120 -44.0527 -43.9191 -43.9125
   -43.6282 -43.6275 -43.5159 -43.5127  -3.0435  -2.8170  -2.7380  -2.2250
    -1.8961  -1.6865  -1.0026  -0.3950  -0.1726   0.2573   0.4408   1.1567
     1.6759   1.9254   2.0877   2.5343   2.6542   2.8252   3.1070   3.3413
     5.2076   5.9428   6.8088   8.3022

          k = 0.3889-0.2245 0.0000 (  4444 PWs)   bands (ev):

   -44.4546 -44.4357 -44.2589 -44.1430 -44.0854 -44.0025 -43.9017 -43.8870
   -43.5821 -43.5811 -43.5214 -43.5154  -3.1333  -3.0028  -2.7664  -2.3772
    -2.0761  -1.6584  -0.6956  -0.3619  -0.1678   0.2561   0.8951   0.8960
     1.8603   2.0489   2.4889   2.6560   2.7050   2.8160   3.0120   3.1190
     3.2875   3.7009   5.1983   7.6631

          k =-0.5000-0.8660 0.0000 (  4492 PWs)   bands (ev):

   -44.5109 -44.4786 -44.2507 -44.1687 -44.1021 -44.0156 -43.9459 -43.9381
   -43.5963 -43.5954 -43.5177 -43.5130  -3.3339  -3.1029  -2.9721  -2.5218
    -2.2433  -1.8195  -0.7700  -0.5433  -0.2668   0.6323   0.8495   1.1995
     2.1420   2.3585   2.8661   2.9234   3.0736   3.2632   3.5823   3.6124
     4.3727   5.9440   6.4646   6.7653

 ------ SPIN DOWN ----------


          k = 0.0556 0.0962 0.0000 (  4451 PWs)   bands (ev):

   -44.4780 -44.1585 -43.9953 -43.9769 -43.9512 -43.9173 -43.5574 -43.5408
   -43.5200 -43.5166 -43.4866 -43.4865  -4.5159  -3.3602  -2.9068  -2.6231
    -0.7822  -0.6263  -0.5500  -0.2023  -0.1763  -0.0703  -0.0342   0.0958
     0.3250   0.4649   0.4668   1.3647   1.4779   1.5791   1.9342   2.0354
     2.2199   2.7235   2.9886   3.8623

          k = 0.0556 0.2245 0.0000 (  4420 PWs)   bands (ev):

   -44.4385 -44.2109 -44.0956 -44.0648 -44.0077 -43.9481 -43.6468 -43.6441
   -43.5410 -43.5310 -43.5198 -43.5192  -3.6372  -2.6572  -2.3193  -1.9435
    -1.3809  -1.0776  -0.9975  -0.2406  -0.2259  -0.1004   0.0955   0.3370
     0.5196   0.8325   0.8927   1.0401   1.2239   1.5104   1.8265   2.0087
     2.4758   2.9651   3.3462   5.2530

          k = 0.0556 0.3528 0.0000 (  4467 PWs)   bands (ev):

   -44.4072 -44.3485 -44.2320 -44.1135 -44.0603 -43.9879 -43.8080 -43.7975
   -43.5638 -43.5634 -43.5276 -43.5219  -2.9293  -2.7091  -2.3965  -2.0644
    -1.7347  -1.3887  -0.6077  -0.5941  -0.0792  -0.0147   0.4503   0.7596
     0.9126   1.1020   1.5153   1.7249   2.1345   2.1991   2.5377   2.6345
     2.7570   3.0708   4.3714   6.7527

          k = 0.0556 0.4811 0.0000 (  4463 PWs)   bands (ev):

   -44.4745 -44.4489 -44.2557 -44.1566 -44.0969 -44.0187 -43.9179 -43.9057
   -43.5969 -43.5965 -43.5189 -43.5141  -3.1501  -2.9753  -2.8144  -2.3695
    -2.0674  -1.7081  -0.8032  -0.4057  -0.1908   0.3414   0.6949   1.1057
     1.9156   2.0454   2.4093   2.6074   2.8468   2.8843   3.0679   3.3351
     4.0028   4.7073   5.7938   7.9508

          k = 0.0556-0.5453 0.0000 (  4486 PWs)   bands (ev):

   -44.5023 -44.4707 -44.2491 -44.1710 -44.1056 -44.0259 -43.9385 -43.9315
   -43.6045 -43.6041 -43.5169 -43.5129  -3.2555  -3.0279  -2.9154  -2.4424
    -2.1524  -1.7860  -0.8371  -0.4992  -0.2335   0.5375   0.7024   1.2213
     2.0571   2.2547   2.6197   2.8408   2.9323   3.1359   3.3390   3.4463
     4.7296   5.9589   6.3820   7.4240

          k = 0.0556-0.4170 0.0000 (  4465 PWs)   bands (ev):

   -44.4279 -44.4128 -44.2576 -44.1353 -44.0815 -44.0056 -43.8733 -43.8603
   -43.5830 -43.5826 -43.5228 -43.5171  -2.9700  -2.8914  -2.6266  -2.2410
    -1.9133  -1.5670  -0.7252  -0.2554  -0.1537  -0.0036   0.6049   0.9958
     1.3523   1.8333   1.9161   2.2224   2.4221   2.7013   2.7062   3.1549
     3.2579   3.5777   5.0486   7.4879

          k = 0.0556-0.2887 0.0000 (  4439 PWs)   bands (ev):

   -44.4170 -44.2742 -44.1709 -44.0920 -44.0344 -43.9677 -43.7287 -43.7223
   -43.5418 -43.5412 -43.5334 -43.5265  -3.1731  -2.5495  -2.2505  -1.7749
    -1.6712  -1.2017  -1.0327  -0.4135  -0.1109   0.0391   0.1830   0.4350
     0.6243   0.9028   1.0979   1.2488   1.6630   1.9756   1.9966   2.2182
     2.5244   3.0147   3.8099   5.9955

          k = 0.0556-0.1604 0.0000 (  4443 PWs)   bands (ev):

   -44.4610 -44.1741 -44.0346 -44.0191 -43.9816 -43.9308 -43.5754 -43.5749
   -43.5491 -43.5333 -43.5007 -43.5005  -4.1316  -3.0156  -2.6093  -2.2990
    -1.0524  -0.8454  -0.7834  -0.2132  -0.1146  -0.0181   0.0526   0.1218
     0.2702   0.6296   0.7376   1.1848   1.3016   1.3353   1.7346   2.0114
     2.3683   2.8942   3.0294   4.5336

          k = 0.0556-0.0321 0.0000 (  4465 PWs)   bands (ev):

   -44.4876 -44.1539 -43.9725 -43.9641 -43.9234 -43.9100 -43.5620 -43.5403
   -43.4906 -43.4902 -43.4792 -43.4791  -4.7217  -3.5542  -3.0781  -2.8099
    -0.5749  -0.5023  -0.4514  -0.3540  -0.2852  -0.1356   0.0716   0.1792
     0.2000   0.3193   0.5941   1.4956   1.4957   1.8543   1.9079   2.1114
     2.5431   2.5548   3.0378   3.3297

          k = 0.1667 0.2887 0.0000 (  4425 PWs)   bands (ev):

   -44.4039 -44.2980 -44.2168 -44.0984 -44.0557 -44.0079 -43.7613 -43.7547
   -43.5748 -43.5743 -43.5272 -43.5241  -2.7610  -2.2440  -1.9232  -1.8477
    -1.6496  -1.3323  -0.8816  -0.6598  -0.3621  -0.3096  -0.2725   0.4203
     0.5013   0.9426   1.1185   1.5203   2.0481   2.2832   2.4659   2.7398
     2.8221   2.9013   4.3661   6.5675

          k = 0.1667 0.4170 0.0000 (  4459 PWs)   bands (ev):

   -44.4170 -44.3939 -44.2656 -44.1519 -44.1093 -44.0633 -43.8605 -43.8538
   -43.6382 -43.6360 -43.5178 -43.5155  -2.5941  -2.4782  -2.2918  -1.9162
    -1.4537  -1.4202  -1.0409  -0.6038  -0.3973   0.0754   0.3135   0.5304
     0.7106   1.0988   1.6342   1.7767   2.0556   2.7139   3.0290   3.2392
     4.4912   4.8756   6.1198   8.2558

          k = 0.1667 0.5453 0.0000 (  4490 PWs)   bands (ev):

   -44.4662 -44.4352 -44.2381 -44.2149 -44.1234 -44.0972 -43.9079 -43.9046
   -43.6725 -43.6700 -43.5123 -43.5114  -2.8687  -2.5614  -2.5031  -2.0034
    -1.6144  -1.5619  -1.2457  -0.4000  -0.1211   0.0480   0.2501   1.0521
     1.2961   1.5455   1.8864   2.3288   2.5191   2.8003   2.9766   3.2533
     6.4739   7.1991   7.9410   8.6324

          k = 0.1667-0.4811 0.0000 (  4476 PWs)   bands (ev):

   -44.4466 -44.4218 -44.2552 -44.1866 -44.1199 -44.0839 -43.8920 -43.8869
   -43.6607 -43.6581 -43.5145 -43.5125  -2.7709  -2.5306  -2.4271  -1.9713
    -1.5500  -1.5071  -1.1628  -0.4543  -0.1668  -0.0397   0.3147   0.9053
     1.0716   1.3323   1.8146   2.0777   2.2019   2.7545   3.0803   3.3331
     5.5050   6.0719   7.1865   8.9888

          k = 0.1667-0.3528 0.0000 (  4458 PWs)   bands (ev):

   -44.4002 -44.3491 -44.2571 -44.1193 -44.0881 -44.0381 -43.8159 -43.8086
   -43.6080 -43.6068 -43.5222 -43.5202  -2.5155  -2.3505  -2.1322  -1.8508
    -1.4783  -1.3675  -0.9680  -0.6921  -0.4508  -0.0758   0.0889   0.2691
     0.5176   0.9696   1.3220   1.7453   1.9986   2.6102   2.7585   3.0079
     3.5841   3.7689   5.1350   7.3721

          k = 0.1667-0.2245 0.0000 (  4433 PWs)   bands (ev):

   -44.4207 -44.2505 -44.1566 -44.0834 -44.0272 -43.9756 -43.7025 -43.6982
   -43.5443 -43.5442 -43.5344 -43.5274  -3.2034  -2.3610  -2.1232  -1.7578
    -1.5388  -1.2809  -1.0222  -0.5068  -0.3473  -0.2455  -0.0362   0.3567
     0.6655   0.9010   0.9936   1.1511   1.6692   1.9923   2.0786   2.2644
     2.3916   2.8605   3.7977   5.8598

          k = 0.1667-0.0962 0.0000 (  4427 PWs)   bands (ev):

   -44.4534 -44.1852 -44.0563 -44.0339 -43.9960 -43.9328 -43.6016 -43.6005
   -43.5463 -43.5327 -43.5056 -43.5050  -3.9611  -2.8923  -2.5055  -2.1704
    -1.1973  -0.9058  -0.8654  -0.1570  -0.1475   0.0400   0.0591   0.2300
     0.3247   0.6606   0.8564   0.9968   1.2456   1.3881   1.7061   1.8977
     2.5511   2.9494   3.0783   4.7844

          k = 0.2778 0.4811 0.0000 (  4485 PWs)   bands (ev):

   -44.4159 -44.3912 -44.2943 -44.2013 -44.1670 -44.1198 -43.8667 -43.8623
   -43.7341 -43.7289 -43.5111 -43.5100  -2.4291  -2.2895  -1.9544  -1.6246
    -1.5096  -1.2844  -1.1935  -0.5908  -0.3341   0.1144   0.3118   0.3739
     0.5311   1.1005   1.6028   1.6767   2.1238   2.7280   2.9981   3.2293
     6.8484   7.5588   8.7375  10.3864

          k = 0.2778 0.6094 0.0000 (  4491 PWs)   bands (ev):

   -44.4046 -44.3830 -44.3145 -44.2312 -44.1614 -44.1362 -43.8588 -43.8518
   -43.7676 -43.7617 -43.5098 -43.5081  -2.4000  -2.1513  -1.9032  -1.6880
    -1.6397  -1.1792  -1.1466  -0.4889  -0.3476   0.0718   0.2171   0.4628
     0.5719   1.1141   1.6090   1.7091   2.3428   2.7259   2.8318   3.0133
     8.1077   8.8590   9.5158  10.2141

          k = 0.2778-0.4170 0.0000 (  4462 PWs)   bands (ev):

   -44.4213 -44.3969 -44.2751 -44.1749 -44.1433 -44.0978 -43.8677 -43.8657
   -43.6870 -43.6833 -43.5135 -43.5124  -2.5221  -2.3491  -2.1101  -1.7629
    -1.3700  -1.2994  -1.2282  -0.6605  -0.3881   0.1307   0.3231   0.4131
     0.5668   1.0484   1.6489   1.7596   1.9565   2.7344   3.1053   3.3340
     5.6327   6.1805   7.3813   9.3032

          k = 0.2778-0.2887 0.0000 (  4463 PWs)   bands (ev):

   -44.4089 -44.3783 -44.2547 -44.1292 -44.0831 -44.0216 -43.8402 -43.8305
   -43.5952 -43.5947 -43.5227 -43.5185  -2.7171  -2.6338  -2.4132  -2.0201
    -1.6149  -1.4554  -0.8316  -0.5714  -0.2348  -0.0117   0.3888   0.6677
     0.8615   1.1407   1.5451   1.8394   2.1513   2.6724   2.7205   3.0472
     3.4670   3.6981   5.0864   7.4031

          k = 0.2778-0.1604 0.0000 (  4458 PWs)   bands (ev):

   -44.4112 -44.3107 -44.1999 -44.1024 -44.0443 -43.9697 -43.7679 -43.7591
   -43.5467 -43.5456 -43.5311 -43.5248  -3.0878  -2.6898  -2.3353  -1.9760
    -1.7466  -1.2833  -0.7583  -0.4298  -0.0305   0.0545   0.4275   0.6780
     0.8872   0.8941   1.3062   1.5071   1.7570   2.0907   2.0932   2.2116
     2.5600   3.1303   3.9569   6.2882

          k = 0.3889 0.6736 0.0000 (  4511 PWs)   bands (ev):

   -44.4383 -44.4093 -44.2693 -44.2250 -44.1409 -44.1310 -43.8871 -43.8805
   -43.7239 -43.7192 -43.5106 -43.5097  -2.6500  -2.2781  -2.1466  -1.8084
    -1.5982  -1.3249  -1.2219  -0.4697  -0.2730  -0.0082   0.2054   0.8564
     0.9546   1.0699   1.7174   2.0226   2.4501   2.7592   2.8495   3.1057
     7.6564   8.1794   8.7398   9.3322

          k = 0.3889-0.3528 0.0000 (  4485 PWs)   bands (ev):

   -44.4788 -44.4495 -44.2474 -44.1798 -44.1120 -44.0527 -43.9191 -43.9125
   -43.6282 -43.6275 -43.5159 -43.5127  -3.0435  -2.8170  -2.7380  -2.2250
    -1.8961  -1.6865  -1.0026  -0.3950  -0.1726   0.2573   0.4408   1.1567
     1.6759   1.9254   2.0877   2.5343   2.6542   2.8252   3.1070   3.3413
     5.2076   5.9428   6.8088   8.3022

          k = 0.3889-0.2245 0.0000 (  4444 PWs)   bands (ev):

   -44.4546 -44.4357 -44.2589 -44.1430 -44.0854 -44.0025 -43.9017 -43.8870
   -43.5821 -43.5811 -43.5214 -43.5154  -3.1333  -3.0028  -2.7664  -2.3772
    -2.0761  -1.6584  -0.6956  -0.3619  -0.1678   0.2561   0.8951   0.8960
     1.8603   2.0489   2.4889   2.6560   2.7050   2.8160   3.0120   3.1190
     3.2875   3.7009   5.1983   7.6631

          k =-0.5000-0.8660 0.0000 (  4492 PWs)   bands (ev):

   -44.5109 -44.4786 -44.2507 -44.1687 -44.1021 -44.0156 -43.9459 -43.9381
   -43.5963 -43.5954 -43.5177 -43.5130  -3.3339  -3.1029  -2.9721  -2.5218
    -2.2433  -1.8195  -0.7700  -0.5433  -0.2668   0.6323   0.8495   1.1995
     2.1420   2.3585   2.8661   2.9234   3.0736   3.2632   3.5823   3.6124
     4.3727   5.9440   6.4646   6.7653

     the Fermi energy is     2.5631 ev

!    total energy              =    -684.65311171 Ry
     estimated scf accuracy    <       0.00000004 Ry
     smearing contrib. (-TS)   =      -0.01838000 Ry
     internal energy E=F+TS    =    -684.63473171 Ry

     The total energy is F=E-TS. E is the sum of the following terms:
     one-electron contribution =   -9551.82567507 Ry
     hartree contribution      =    4789.45076622 Ry
     xc contribution           =    -119.59130150 Ry
     ewald contribution        =    4197.33147864 Ry

     total magnetization       =    -0.00 Bohr mag/cell
     absolute magnetization    =     0.00 Bohr mag/cell

     convergence has been achieved in   6 iterations

     negative rho (up, down):  1.072E-01 1.072E-01

     Forces acting on atoms (cartesian axes, Ry/au):

     atom    1 type  1   force =     0.00000000    0.00000000   -0.00014522
     atom    2 type  1   force =     0.00000000    0.00000000    0.00015146
     atom    3 type  1   force =     0.00000000    0.00000000   -0.00014832
     atom    4 type  1   force =     0.00000000    0.00000000    0.00014208

     Total force =     0.000294     Total SCF correction =     0.000583
     SCF correction compared to forces is large: reduce conv_thr to get better values
     Energy error            =      5.6E-06
     Gradient error          =      1.5E-04
Begin final coordinates

ATOMIC_POSITIONS (angstrom)
Rh            0.0000000000        0.0000000000        0.0497770660
Rh            2.7108568000        1.5651139000        2.2297574564
Rh            1.3554284000        0.7825569000        4.4104627946
Rh            0.0000000000        0.0000000000        6.5904344831
End final coordinates



     Writing output data file /home/STUDENTI/leonardo.razzai/WORK/relax_surf/4-L.save/

     lsda relaxation :  a final configuration with zero
                        absolute magnetization has been found

     the program is checking if it is really the minimum energy structure
     by performing a new scf iteration without any "electronic" history

     Initial potential from superposition of free atoms

     starting charge   57.99961, renormalised to   60.00000

     negative rho (up, down):  1.070E-01 1.049E-01

     total cpu time spent up to now is      662.9 secs

     Self-consistent Calculation

     iteration #  1     ecut=    35.00 Ry     beta= 0.40
     Davidson diagonalization with overlap
     ethr =  1.00E-06,  avg # of iterations = 10.9

     negative rho (up, down):  1.102E-01 1.091E-01

     total cpu time spent up to now is      681.7 secs

     total energy              =    -684.72330430 Ry
     estimated scf accuracy    <       2.98552194 Ry

     total magnetization       =     0.22 Bohr mag/cell
     absolute magnetization    =     0.22 Bohr mag/cell

     iteration #  2     ecut=    35.00 Ry     beta= 0.40
     Davidson diagonalization with overlap
     ethr =  4.98E-03,  avg # of iterations =  1.0

     negative rho (up, down):  1.152E-01 1.153E-01

     total cpu time spent up to now is      688.2 secs

     total energy              =    -684.53699046 Ry
     estimated scf accuracy    <       0.72057207 Ry

     total magnetization       =     0.21 Bohr mag/cell
     absolute magnetization    =     0.22 Bohr mag/cell

     iteration #  3     ecut=    35.00 Ry     beta= 0.40
     Davidson diagonalization with overlap
     ethr =  1.20E-03,  avg # of iterations =  2.4

     negative rho (up, down):  1.154E-01 1.157E-01

     total cpu time spent up to now is      696.2 secs

     total energy              =    -684.65253259 Ry
     estimated scf accuracy    <       0.01529708 Ry

     total magnetization       =     0.17 Bohr mag/cell
     absolute magnetization    =     0.18 Bohr mag/cell

     iteration #  4     ecut=    35.00 Ry     beta= 0.40
     Davidson diagonalization with overlap
     ethr =  2.55E-05,  avg # of iterations =  4.3

     negative rho (up, down):  1.154E-01 1.158E-01

     total cpu time spent up to now is      704.3 secs

     total energy              =    -684.65364022 Ry
     estimated scf accuracy    <       0.01039535 Ry

     total magnetization       =     0.15 Bohr mag/cell
     absolute magnetization    =     0.16 Bohr mag/cell

     iteration #  5     ecut=    35.00 Ry     beta= 0.40
     Davidson diagonalization with overlap
     ethr =  1.73E-05,  avg # of iterations =  1.2

     negative rho (up, down):  1.152E-01 1.156E-01

     total cpu time spent up to now is      710.8 secs

     total energy              =    -684.65377402 Ry
     estimated scf accuracy    <       0.00433050 Ry

     total magnetization       =     0.11 Bohr mag/cell
     absolute magnetization    =     0.12 Bohr mag/cell

     iteration #  6     ecut=    35.00 Ry     beta= 0.40
     Davidson diagonalization with overlap
     ethr =  7.22E-06,  avg # of iterations =  1.3

     negative rho (up, down):  1.148E-01 1.151E-01

     total cpu time spent up to now is      717.4 secs

     total energy              =    -684.65407435 Ry
     estimated scf accuracy    <       0.00093349 Ry

     total magnetization       =     0.09 Bohr mag/cell
     absolute magnetization    =     0.09 Bohr mag/cell

     iteration #  7     ecut=    35.00 Ry     beta= 0.40
     Davidson diagonalization with overlap
     ethr =  1.56E-06,  avg # of iterations =  3.6

     negative rho (up, down):  1.130E-01 1.130E-01

     total cpu time spent up to now is      724.6 secs

     total energy              =    -684.65405327 Ry
     estimated scf accuracy    <       0.00144920 Ry

     total magnetization       =     0.07 Bohr mag/cell
     absolute magnetization    =     0.07 Bohr mag/cell

     iteration #  8     ecut=    35.00 Ry     beta= 0.40
     Davidson diagonalization with overlap
     ethr =  1.56E-06,  avg # of iterations =  3.1

     negative rho (up, down):  1.119E-01 1.116E-01

     total cpu time spent up to now is      732.1 secs

     total energy              =    -684.65321921 Ry
     estimated scf accuracy    <       0.00288197 Ry

     total magnetization       =     0.00 Bohr mag/cell
     absolute magnetization    =     0.01 Bohr mag/cell

     iteration #  9     ecut=    35.00 Ry     beta= 0.40
     Davidson diagonalization with overlap
     ethr =  1.56E-06,  avg # of iterations =  2.2

     negative rho (up, down):  1.105E-01 1.102E-01

     total cpu time spent up to now is      740.1 secs

     total energy              =    -684.65324294 Ry
     estimated scf accuracy    <       0.00044208 Ry

     total magnetization       =    -0.04 Bohr mag/cell
     absolute magnetization    =     0.05 Bohr mag/cell

     iteration # 10     ecut=    35.00 Ry     beta= 0.40
     Davidson diagonalization with overlap
     ethr =  7.37E-07,  avg # of iterations =  1.9

     negative rho (up, down):  1.098E-01 1.094E-01

     total cpu time spent up to now is      747.1 secs

     total energy              =    -684.65313969 Ry
     estimated scf accuracy    <       0.00018483 Ry

     total magnetization       =    -0.08 Bohr mag/cell
     absolute magnetization    =     0.08 Bohr mag/cell

     iteration # 11     ecut=    35.00 Ry     beta= 0.40
     Davidson diagonalization with overlap
     ethr =  3.08E-07,  avg # of iterations =  2.2

     negative rho (up, down):  1.087E-01 1.085E-01

     total cpu time spent up to now is      754.3 secs

     total energy              =    -684.65312117 Ry
     estimated scf accuracy    <       0.00006532 Ry

     total magnetization       =    -0.09 Bohr mag/cell
     absolute magnetization    =     0.10 Bohr mag/cell

     iteration # 12     ecut=    35.00 Ry     beta= 0.40
     Davidson diagonalization with overlap
     ethr =  1.09E-07,  avg # of iterations =  1.6

     negative rho (up, down):  1.080E-01 1.078E-01

     total cpu time spent up to now is      761.4 secs

     total energy              =    -684.65311282 Ry
     estimated scf accuracy    <       0.00002860 Ry

     total magnetization       =    -0.06 Bohr mag/cell
     absolute magnetization    =     0.06 Bohr mag/cell

     iteration # 13     ecut=    35.00 Ry     beta= 0.40
     Davidson diagonalization with overlap
     ethr =  4.77E-08,  avg # of iterations =  1.9

     negative rho (up, down):  1.076E-01 1.075E-01

     total cpu time spent up to now is      768.7 secs

     total energy              =    -684.65311040 Ry
     estimated scf accuracy    <       0.00000671 Ry

     total magnetization       =    -0.04 Bohr mag/cell
     absolute magnetization    =     0.04 Bohr mag/cell

     iteration # 14     ecut=    35.00 Ry     beta= 0.40
     Davidson diagonalization with overlap
     ethr =  1.12E-08,  avg # of iterations =  1.6

     negative rho (up, down):  1.073E-01 1.073E-01

     total cpu time spent up to now is      775.7 secs

     total energy              =    -684.65311005 Ry
     estimated scf accuracy    <       0.00000217 Ry

     total magnetization       =    -0.03 Bohr mag/cell
     absolute magnetization    =     0.03 Bohr mag/cell

     iteration # 15     ecut=    35.00 Ry     beta= 0.40
     Davidson diagonalization with overlap
     ethr =  3.62E-09,  avg # of iterations =  2.1

     negative rho (up, down):  1.073E-01 1.072E-01

     total cpu time spent up to now is      783.3 secs

     total energy              =    -684.65311134 Ry
     estimated scf accuracy    <       0.00000039 Ry

     total magnetization       =    -0.01 Bohr mag/cell
     absolute magnetization    =     0.01 Bohr mag/cell

     iteration # 16     ecut=    35.00 Ry     beta= 0.40
     Davidson diagonalization with overlap
     ethr =  6.44E-10,  avg # of iterations =  2.2

     negative rho (up, down):  1.073E-01 1.072E-01

     total cpu time spent up to now is      791.2 secs

     total energy              =    -684.65311145 Ry
     estimated scf accuracy    <       0.00000016 Ry

     total magnetization       =    -0.01 Bohr mag/cell
     absolute magnetization    =     0.01 Bohr mag/cell

     iteration # 17     ecut=    35.00 Ry     beta= 0.40
     Davidson diagonalization with overlap
     ethr =  2.70E-10,  avg # of iterations =  2.2

     negative rho (up, down):  1.072E-01 1.072E-01
 
     Magnetic moment per site:
     atom:    1    charge:   13.1066    magn:   -0.0021    constr:    0.0000
     atom:    2    charge:   13.1670    magn:   -0.0007    constr:    0.0000
     atom:    3    charge:   13.1670    magn:   -0.0007    constr:    0.0000
     atom:    4    charge:   13.1067    magn:   -0.0021    constr:    0.0000

     total cpu time spent up to now is      798.8 secs

     End of self-consistent calculation

 ------ SPIN UP ------------


          k = 0.0556 0.0962 0.0000 (  4451 PWs)   bands (ev):

   -44.4735 -44.1539 -43.9908 -43.9724 -43.9467 -43.9128 -43.5517 -43.5352
   -43.5147 -43.5113 -43.4813 -43.4812  -4.5119  -3.3560  -2.9024  -2.6186
    -0.7775  -0.6219  -0.5456  -0.1979  -0.1718  -0.0655  -0.0293   0.1007
     0.3299   0.4699   0.4716   1.3695   1.4826   1.5841   1.9392   2.0402
     2.2248   2.7285   2.9935   3.8669

          k = 0.0556 0.2245 0.0000 (  4420 PWs)   bands (ev):

   -44.4340 -44.2063 -44.0911 -44.0603 -44.0032 -43.9436 -43.6415 -43.6388
   -43.5354 -43.5254 -43.5145 -43.5140  -3.6331  -2.6530  -2.3150  -1.9390
    -1.3763  -1.0731  -0.9930  -0.2359  -0.2211  -0.0955   0.1001   0.3418
     0.5242   0.8374   0.8974   1.0450   1.2288   1.5154   1.8314   2.0136
     2.4809   2.9700   3.3509   5.2574

          k = 0.0556 0.3528 0.0000 (  4467 PWs)   bands (ev):

   -44.4027 -44.3440 -44.2275 -44.1089 -44.0558 -43.9834 -43.8028 -43.7923
   -43.5586 -43.5582 -43.5220 -43.5163  -2.9251  -2.7048  -2.3921  -2.0598
    -1.7301  -1.3840  -0.6030  -0.5895  -0.0746  -0.0099   0.4552   0.7643
     0.9173   1.1068   1.5201   1.7297   2.1395   2.2038   2.5427   2.6394
     2.7618   3.0757   4.3759   6.7570

          k = 0.0556 0.4811 0.0000 (  4463 PWs)   bands (ev):

   -44.4700 -44.4444 -44.2512 -44.1520 -44.0924 -44.0141 -43.9127 -43.9005
   -43.5916 -43.5912 -43.5133 -43.5085  -3.1458  -2.9710  -2.8101  -2.3649
    -2.0627  -1.7034  -0.7984  -0.4010  -0.1862   0.3462   0.6997   1.1105
     1.9205   2.0505   2.4141   2.6124   2.8517   2.8890   3.0728   3.3400
     4.0074   4.7117   5.7982   7.9550

          k = 0.0556-0.5453 0.0000 (  4486 PWs)   bands (ev):

   -44.4978 -44.4662 -44.2445 -44.1664 -44.1010 -44.0214 -43.9333 -43.9264
   -43.5992 -43.5989 -43.5112 -43.5073  -3.2511  -3.0236  -2.9110  -2.4378
    -2.1477  -1.7812  -0.8322  -0.4945  -0.2289   0.5423   0.7073   1.2262
     2.0623   2.2597   2.6244   2.8455   2.9372   3.1406   3.3440   3.4513
     4.7341   5.9632   6.3863   7.4282

          k = 0.0556-0.4170 0.0000 (  4465 PWs)   bands (ev):

   -44.4234 -44.4082 -44.2530 -44.1307 -44.0770 -44.0011 -43.8681 -43.8552
   -43.5777 -43.5774 -43.5171 -43.5115  -2.9657  -2.8871  -2.6222  -2.2364
    -1.9087  -1.5623  -0.7204  -0.2508  -0.1491   0.0011   0.6097   1.0007
     1.3570   1.8380   1.9211   2.2274   2.4269   2.7061   2.7110   3.1597
     3.2628   3.5824   5.0530   7.4922

          k = 0.0556-0.2887 0.0000 (  4439 PWs)   bands (ev):

   -44.4125 -44.2697 -44.1664 -44.0875 -44.0299 -43.9632 -43.7235 -43.7171
   -43.5365 -43.5359 -43.5277 -43.5209  -3.1690  -2.5452  -2.2461  -1.7703
    -1.6668  -1.1971  -1.0281  -0.4088  -0.1061   0.0437   0.1877   0.4398
     0.6292   0.9075   1.1028   1.2536   1.6678   1.9804   2.0016   2.2232
     2.5295   3.0195   3.8146   5.9999

          k = 0.0556-0.1604 0.0000 (  4443 PWs)   bands (ev):

   -44.4565 -44.1695 -44.0300 -44.0146 -43.9771 -43.9263 -43.5702 -43.5696
   -43.5435 -43.5278 -43.4954 -43.4953  -4.1275  -3.0115  -2.6049  -2.2945
    -1.0478  -0.8409  -0.7790  -0.2084  -0.1098  -0.0136   0.0575   0.1263
     0.2750   0.6344   0.7425   1.1896   1.3065   1.3402   1.7393   2.0163
     2.3733   2.8990   3.0343   4.5381

          k = 0.0556-0.0321 0.0000 (  4465 PWs)   bands (ev):

   -44.4831 -44.1493 -43.9680 -43.9596 -43.9189 -43.9055 -43.5564 -43.5348
   -43.4853 -43.4849 -43.4740 -43.4738  -4.7177  -3.5501  -3.0737  -2.8054
    -0.5702  -0.4978  -0.4469  -0.3496  -0.2807  -0.1308   0.0765   0.1841
     0.2049   0.3243   0.5989   1.5002   1.5004   1.8592   1.9129   2.1163
     2.5477   2.5601   3.0428   3.3343

          k = 0.1667 0.2887 0.0000 (  4425 PWs)   bands (ev):

   -44.3994 -44.2935 -44.2122 -44.0939 -44.0512 -44.0034 -43.7560 -43.7495
   -43.5695 -43.5690 -43.5215 -43.5185  -2.7569  -2.2397  -1.9189  -1.8434
    -1.6451  -1.3277  -0.8770  -0.6551  -0.3573  -0.3048  -0.2677   0.4250
     0.5062   0.9476   1.1235   1.5250   2.0531   2.2881   2.4709   2.7445
     2.8269   2.9062   4.3707   6.5719

          k = 0.1667 0.4170 0.0000 (  4459 PWs)   bands (ev):

   -44.4125 -44.3894 -44.2611 -44.1473 -44.1048 -44.0587 -43.8553 -43.8487
   -43.6329 -43.6308 -43.5122 -43.5099  -2.5897  -2.4738  -2.2874  -1.9117
    -1.4491  -1.4155  -1.0362  -0.5992  -0.3928   0.0802   0.3184   0.5351
     0.7154   1.1036   1.6391   1.7817   2.0607   2.7189   3.0339   3.2439
     4.4958   4.8802   6.1243   8.2601

          k = 0.1667 0.5453 0.0000 (  4490 PWs)   bands (ev):

   -44.4617 -44.4306 -44.2335 -44.2103 -44.1189 -44.0926 -43.9027 -43.8994
   -43.6673 -43.6648 -43.5066 -43.5058  -2.8643  -2.5571  -2.4987  -1.9988
    -1.6098  -1.5571  -1.2410  -0.3953  -0.1164   0.0528   0.2550   1.0569
     1.3009   1.5504   1.8915   2.3336   2.5242   2.8055   2.9814   3.2581
     6.4783   7.2035   7.9453   8.6367

          k = 0.1667-0.4811 0.0000 (  4476 PWs)   bands (ev):

   -44.4421 -44.4173 -44.2506 -44.1820 -44.1154 -44.0794 -43.8868 -43.8817
   -43.6554 -43.6528 -43.5088 -43.5068  -2.7665  -2.5263  -2.4228  -1.9667
    -1.5454  -1.5024  -1.1581  -0.4497  -0.1622  -0.0348   0.3196   0.9100
     1.0764   1.3371   1.8197   2.0825   2.2069   2.7596   3.0852   3.3378
     5.5095   6.0764   7.1909   8.9930

          k = 0.1667-0.3528 0.0000 (  4458 PWs)   bands (ev):

   -44.3956 -44.3446 -44.2526 -44.1147 -44.0836 -44.0335 -43.8107 -43.8034
   -43.6028 -43.6016 -43.5166 -43.5146  -2.5113  -2.3462  -2.1278  -1.8464
    -1.4739  -1.3629  -0.9634  -0.6874  -0.4461  -0.0710   0.0937   0.2739
     0.5224   0.9744   1.3270   1.7501   2.0037   2.6152   2.7634   3.0126
     3.5889   3.7736   5.1395   7.3764

          k = 0.1667-0.2245 0.0000 (  4433 PWs)   bands (ev):

   -44.4161 -44.2459 -44.1521 -44.0789 -44.0227 -43.9711 -43.6973 -43.6930
   -43.5390 -43.5389 -43.5288 -43.5218  -3.1994  -2.3568  -2.1189  -1.7534
    -1.5342  -1.2763  -1.0176  -0.5021  -0.3424  -0.2406  -0.0316   0.3614
     0.6703   0.9058   0.9984   1.1558   1.6740   1.9972   2.0836   2.2693
     2.3966   2.8653   3.8023   5.8642

          k = 0.1667-0.0962 0.0000 (  4427 PWs)   bands (ev):

   -44.4488 -44.1806 -44.0518 -44.0293 -43.9915 -43.9283 -43.5964 -43.5953
   -43.5407 -43.5271 -43.5003 -43.4998  -3.9571  -2.8882  -2.5012  -2.1659
    -1.1927  -0.9012  -0.8610  -0.1522  -0.1427   0.0445   0.0639   0.2345
     0.3295   0.6654   0.8613   1.0017   1.2506   1.3930   1.7109   1.9026
     2.5563   2.9540   3.0832   4.7889

          k = 0.2778 0.4811 0.0000 (  4485 PWs)   bands (ev):

   -44.4114 -44.3867 -44.2898 -44.1967 -44.1624 -44.1153 -43.8615 -43.8571
   -43.7288 -43.7237 -43.5054 -43.5044  -2.4248  -2.2850  -1.9500  -1.6201
    -1.5051  -1.2799  -1.1889  -0.5862  -0.3295   0.1194   0.3168   0.3788
     0.5359   1.1052   1.6077   1.6816   2.1290   2.7333   3.0030   3.2340
     6.8528   7.5633   8.7418  10.3906

          k = 0.2778 0.6094 0.0000 (  4491 PWs)   bands (ev):

   -44.4000 -44.3784 -44.3100 -44.2267 -44.1569 -44.1316 -43.8536 -43.8466
   -43.7623 -43.7565 -43.5041 -43.5025  -2.3956  -2.1469  -1.8988  -1.6834
    -1.6351  -1.1747  -1.1421  -0.4843  -0.3430   0.0768   0.2221   0.4677
     0.5768   1.1188   1.6139   1.7139   2.3481   2.7312   2.8365   3.0179
     8.1120   8.8634   9.5201  10.2184

          k = 0.2778-0.4170 0.0000 (  4462 PWs)   bands (ev):

   -44.4168 -44.3924 -44.2706 -44.1703 -44.1388 -44.0932 -43.8625 -43.8605
   -43.6817 -43.6781 -43.5078 -43.5067  -2.5178  -2.3447  -2.1057  -1.7584
    -1.3655  -1.2948  -1.2237  -0.6558  -0.3835   0.1357   0.3279   0.4179
     0.5716   1.0532   1.6538   1.7645   1.9616   2.7396   3.1103   3.3387
     5.6372   6.1851   7.3857   9.3075

          k = 0.2778-0.2887 0.0000 (  4463 PWs)   bands (ev):

   -44.4044 -44.3738 -44.2501 -44.1246 -44.0785 -44.0171 -43.8350 -43.8253
   -43.5899 -43.5894 -43.5171 -43.5129  -2.7129  -2.6294  -2.4089  -2.0156
    -1.6104  -1.4507  -0.8269  -0.5669  -0.2302  -0.0069   0.3937   0.6724
     0.8663   1.1456   1.5500   1.8444   2.1564   2.6774   2.7254   3.0519
     3.4718   3.7028   5.0909   7.4074

          k = 0.2778-0.1604 0.0000 (  4458 PWs)   bands (ev):

   -44.4067 -44.3061 -44.1954 -44.0979 -44.0398 -43.9652 -43.7627 -43.7539
   -43.5414 -43.5403 -43.5255 -43.5192  -3.0836  -2.6855  -2.3309  -1.9714
    -1.7421  -1.2786  -0.7538  -0.4251  -0.0257   0.0590   0.4323   0.6828
     0.8920   0.8988   1.3109   1.5119   1.7617   2.0956   2.0983   2.2167
     2.5651   3.1352   3.9615   6.2926

          k = 0.3889 0.6736 0.0000 (  4511 PWs)   bands (ev):

   -44.4338 -44.4048 -44.2648 -44.2205 -44.1364 -44.1264 -43.8819 -43.8753
   -43.7187 -43.7140 -43.5050 -43.5040  -2.6456  -2.2737  -2.1423  -1.8039
    -1.5936  -1.3202  -1.2173  -0.4651  -0.2684  -0.0032   0.2103   0.8612
     0.9594   1.0746   1.7225   2.0274   2.4554   2.7644   2.8543   3.1104
     7.6607   8.1837   8.7442   9.3365

          k = 0.3889-0.3528 0.0000 (  4485 PWs)   bands (ev):

   -44.4743 -44.4450 -44.2428 -44.1752 -44.1075 -44.0482 -43.9139 -43.9073
   -43.6230 -43.6223 -43.5102 -43.5071  -3.0392  -2.8127  -2.7337  -2.2204
    -1.8914  -1.6818  -0.9979  -0.3904  -0.1678   0.2621   0.4457   1.1615
     1.6807   1.9303   2.0927   2.5392   2.6590   2.8303   3.1118   3.3461
     5.2121   5.9473   6.8131   8.3064

          k = 0.3889-0.2245 0.0000 (  4444 PWs)   bands (ev):

   -44.4501 -44.4312 -44.2544 -44.1384 -44.0809 -43.9980 -43.8965 -43.8818
   -43.5768 -43.5759 -43.5157 -43.5098  -3.1289  -2.9985  -2.7620  -2.3726
    -2.0714  -1.6537  -0.6908  -0.3572  -0.1632   0.2608   0.9000   0.9008
     1.8651   2.0540   2.4938   2.6606   2.7098   2.8207   3.0169   3.1241
     3.2925   3.7054   5.2027   7.6674

          k =-0.5000-0.8660 0.0000 (  4492 PWs)   bands (ev):

   -44.5063 -44.4740 -44.2461 -44.1640 -44.0976 -44.0110 -43.9408 -43.9330
   -43.5910 -43.5902 -43.5121 -43.5074  -3.3295  -3.0986  -2.9678  -2.5171
    -2.2386  -1.8148  -0.7651  -0.5386  -0.2623   0.6372   0.8544   1.2043
     2.1472   2.3636   2.8709   2.9282   3.0781   3.2679   3.5875   3.6175
     4.3770   5.9482   6.4689   6.7696

 ------ SPIN DOWN ----------


          k = 0.0556 0.0962 0.0000 (  4451 PWs)   bands (ev):

   -44.4743 -44.1549 -43.9916 -43.9733 -43.9475 -43.9136 -43.5547 -43.5381
   -43.5170 -43.5136 -43.4836 -43.4835  -4.5118  -3.3561  -2.9030  -2.6193
    -0.7787  -0.6226  -0.5463  -0.1986  -0.1726  -0.0668  -0.0308   0.0991
     0.3284   0.4683   0.4701   1.3682   1.4814   1.5823   1.9374   2.0387
     2.2231   2.7268   2.9920   3.8656

          k = 0.0556 0.2245 0.0000 (  4420 PWs)   bands (ev):

   -44.4347 -44.2072 -44.0920 -44.0611 -44.0040 -43.9444 -43.6438 -43.6411
   -43.5384 -43.5283 -43.5168 -43.5162  -3.6331  -2.6532  -2.3154  -1.9398
    -1.3772  -1.0740  -0.9938  -0.2370  -0.2224  -0.0971   0.0991   0.3405
     0.5233   0.8359   0.8962   1.0434   1.2272   1.5137   1.8298   2.0120
     2.4789   2.9685   3.3495   5.2563

          k = 0.0556 0.3528 0.0000 (  4467 PWs)   bands (ev):

   -44.4035 -44.3449 -44.2284 -44.1098 -44.0566 -43.9842 -43.8050 -43.7944
   -43.5608 -43.5604 -43.5250 -43.5193  -2.9254  -2.7053  -2.3927  -2.0606
    -1.7310  -1.3852  -0.6041  -0.5905  -0.0755  -0.0112   0.4537   0.7631
     0.9161   1.1054   1.5187   1.7283   2.1376   2.2026   2.5409   2.6378
     2.7604   3.0742   4.3748   6.7561

          k = 0.0556 0.4811 0.0000 (  4463 PWs)   bands (ev):

   -44.4708 -44.4452 -44.2520 -44.1530 -44.0932 -44.0150 -43.9148 -43.9025
   -43.5939 -43.5934 -43.5163 -43.5115  -3.1463  -2.9715  -2.8107  -2.3658
    -2.0637  -1.7046  -0.7997  -0.4021  -0.1872   0.3448   0.6983   1.1090
     1.9189   2.0486   2.4128   2.6107   2.8502   2.8878   3.0713   3.3384
     4.0063   4.7110   5.7975   7.9544

          k = 0.0556-0.5453 0.0000 (  4486 PWs)   bands (ev):

   -44.4987 -44.4670 -44.2454 -44.1674 -44.1019 -44.0223 -43.9354 -43.9283
   -43.6015 -43.6011 -43.5143 -43.5103  -3.2516  -3.0241  -2.9116  -2.4388
    -2.1487  -1.7824  -0.8336  -0.4955  -0.2299   0.5409   0.7058   1.2247
     2.0603   2.2579   2.6233   2.8442   2.9356   3.1395   3.3423   3.4495
     4.7333   5.9628   6.3859   7.4278

          k = 0.0556-0.4170 0.0000 (  4465 PWs)   bands (ev):

   -44.4242 -44.4091 -44.2539 -44.1317 -44.0779 -44.0020 -43.8702 -43.8572
   -43.5800 -43.5796 -43.5202 -43.5145  -2.9662  -2.8875  -2.6228  -2.2373
    -1.9097  -1.5634  -0.7217  -0.2518  -0.1501  -0.0001   0.6082   0.9992
     1.3558   1.8369   1.9194   2.2255   2.4255   2.7047   2.7096   3.1583
     3.2613   3.5813   5.0521   7.4914

          k = 0.0556-0.2887 0.0000 (  4439 PWs)   bands (ev):

   -44.4132 -44.2705 -44.1673 -44.0883 -44.0307 -43.9640 -43.7257 -43.7193
   -43.5388 -43.5382 -43.5307 -43.5239  -3.1691  -2.5456  -2.2466  -1.7712
    -1.6674  -1.1981  -1.0291  -0.4099  -0.1074   0.0427   0.1865   0.4384
     0.6277   0.9063   1.1013   1.2523   1.6665   1.9788   1.9998   2.2216
     2.5276   3.0181   3.8133   5.9989

          k = 0.0556-0.1604 0.0000 (  4443 PWs)   bands (ev):

   -44.4573 -44.1704 -44.0309 -44.0154 -43.9779 -43.9271 -43.5724 -43.5719
   -43.5464 -43.5306 -43.4977 -43.4975  -4.1275  -3.0116  -2.6054  -2.2953
    -1.0488  -0.8418  -0.7796  -0.2098  -0.1112  -0.0145   0.0559   0.1254
     0.2737   0.6331   0.7410   1.1881   1.3047   1.3387   1.7379   2.0147
     2.3714   2.8975   3.0327   4.5369

          k = 0.0556-0.0321 0.0000 (  4465 PWs)   bands (ev):

   -44.4839 -44.1503 -43.9688 -43.9604 -43.9197 -43.9063 -43.5594 -43.5376
   -43.4876 -43.4872 -43.4762 -43.4761  -4.7177  -3.5502  -3.0742  -2.8061
    -0.5714  -0.4986  -0.4477  -0.3503  -0.2815  -0.1322   0.0750   0.1825
     0.2034   0.3227   0.5973   1.4991   1.4993   1.8577   1.9111   2.1146
     2.5465   2.5579   3.0412   3.3329

          k = 0.1667 0.2887 0.0000 (  4425 PWs)   bands (ev):

   -44.4002 -44.2944 -44.2131 -44.0947 -44.0520 -44.0042 -43.7582 -43.7517
   -43.5718 -43.5713 -43.5245 -43.5214  -2.7570  -2.2401  -1.9194  -1.8439
    -1.6459  -1.3287  -0.8779  -0.6563  -0.3587  -0.3061  -0.2689   0.4238
     0.5047   0.9459   1.1217   1.5238   2.0513   2.2866   2.4691   2.7432
     2.8255   2.9047   4.3695   6.5709

          k = 0.1667 0.4170 0.0000 (  4459 PWs)   bands (ev):

   -44.4133 -44.3902 -44.2619 -44.1482 -44.1056 -44.0596 -43.8574 -43.8507
   -43.6352 -43.6330 -43.5152 -43.5129  -2.5902  -2.4743  -2.2880  -1.9125
    -1.4500  -1.4166  -1.0373  -0.6002  -0.3937   0.0788   0.3169   0.5339
     0.7140   1.1022   1.6376   1.7799   2.0588   2.7170   3.0323   3.2427
     4.4948   4.8791   6.1234   8.2593

          k = 0.1667 0.5453 0.0000 (  4490 PWs)   bands (ev):

   -44.4626 -44.4315 -44.2344 -44.2112 -44.1198 -44.0935 -43.9048 -43.9014
   -43.6695 -43.6670 -43.5097 -43.5088  -2.8649  -2.5576  -2.4993  -1.9997
    -1.6107  -1.5583  -1.2420  -0.3963  -0.1176   0.0515   0.2536   1.0556
     1.2996   1.5490   1.8896   2.3323   2.5223   2.8032   2.9800   3.2568
     6.4776   7.2029   7.9447   8.6363

          k = 0.1667-0.4811 0.0000 (  4476 PWs)   bands (ev):

   -44.4429 -44.4181 -44.2515 -44.1829 -44.1162 -44.0803 -43.8889 -43.8838
   -43.6576 -43.6550 -43.5119 -43.5099  -2.7671  -2.5268  -2.4234  -1.9676
    -1.5464  -1.5035  -1.1592  -0.4507  -0.1631  -0.0363   0.3181   0.9088
     1.0750   1.3358   1.8177   2.0812   2.2051   2.7576   3.0837   3.3365
     5.5087   6.0756   7.1901   8.9924

          k = 0.1667-0.3528 0.0000 (  4458 PWs)   bands (ev):

   -44.3964 -44.3454 -44.2535 -44.1156 -44.0845 -44.0344 -43.8129 -43.8055
   -43.6050 -43.6038 -43.5196 -43.5176  -2.5116  -2.3467  -2.1284  -1.8471
    -1.4746  -1.3639  -0.9644  -0.6885  -0.4472  -0.0723   0.0924   0.2726
     0.5211   0.9729   1.3253   1.7487   2.0018   2.6134   2.7619   3.0114
     3.5876   3.7723   5.1384   7.3755

          k = 0.1667-0.2245 0.0000 (  4433 PWs)   bands (ev):

   -44.4169 -44.2468 -44.1529 -44.0797 -44.0235 -43.9719 -43.6995 -43.6952
   -43.5413 -43.5412 -43.5318 -43.5247  -3.1994  -2.3570  -2.1194  -1.7540
    -1.5351  -1.2773  -1.0185  -0.5033  -0.3438  -0.2420  -0.0326   0.3602
     0.6689   0.9043   0.9969   1.1546   1.6727   1.9957   2.0818   2.2678
     2.3948   2.8639   3.8010   5.8632

          k = 0.1667-0.0962 0.0000 (  4427 PWs)   bands (ev):

   -44.4496 -44.1815 -44.0527 -44.0302 -43.9923 -43.9291 -43.5986 -43.5975
   -43.5436 -43.5300 -43.5026 -43.5020  -3.9570  -2.8883  -2.5017  -2.1666
    -1.1936  -0.9021  -0.8617  -0.1536  -0.1440   0.0437   0.0624   0.2337
     0.3282   0.6642   0.8598   1.0002   1.2487   1.3915   1.7094   1.9010
     2.5543   2.9527   3.0816   4.7877

          k = 0.2778 0.4811 0.0000 (  4485 PWs)   bands (ev):

   -44.4122 -44.3875 -44.2906 -44.1976 -44.1633 -44.1162 -43.8636 -43.8592
   -43.7310 -43.7259 -43.5085 -43.5074  -2.4253  -2.2857  -1.9506  -1.6208
    -1.5059  -1.2807  -1.1899  -0.5872  -0.3305   0.1178   0.3152   0.3774
     0.5345   1.1040   1.6061   1.6801   2.1269   2.7310   3.0014   3.2328
     6.8522   7.5625   8.7410  10.3900

          k = 0.2778 0.6094 0.0000 (  4491 PWs)   bands (ev):

   -44.4009 -44.3793 -44.3108 -44.2275 -44.1578 -44.1325 -43.8557 -43.8487
   -43.7645 -43.7586 -43.5072 -43.5055  -2.3962  -2.1475  -1.8994  -1.6843
    -1.6359  -1.1755  -1.1430  -0.4853  -0.3440   0.0752   0.2204   0.4662
     0.5754   1.1177   1.6123   1.7126   2.3457   2.7289   2.8352   3.0168
     8.1115   8.8627   9.5195  10.2178

          k = 0.2778-0.4170 0.0000 (  4462 PWs)   bands (ev):

   -44.4176 -44.3932 -44.2714 -44.1712 -44.1397 -44.0941 -43.8646 -43.8626
   -43.6840 -43.6803 -43.5109 -43.5098  -2.5183  -2.3453  -2.1063  -1.7592
    -1.3663  -1.2958  -1.2246  -0.6569  -0.3845   0.1341   0.3265   0.4166
     0.5702   1.0519   1.6522   1.7630   1.9596   2.7375   3.1086   3.3375
     5.6364   6.1841   7.3849   9.3067

          k = 0.2778-0.2887 0.0000 (  4463 PWs)   bands (ev):

   -44.4052 -44.3746 -44.2510 -44.1255 -44.0794 -44.0179 -43.8371 -43.8274
   -43.5922 -43.5917 -43.5201 -43.5159  -2.7132  -2.6299  -2.4095  -2.0163
    -1.6112  -1.4519  -0.8280  -0.5678  -0.2311  -0.0083   0.3922   0.6712
     0.8650   1.1441   1.5485   1.8427   2.1544   2.6757   2.7240   3.0506
     3.4704   3.7016   5.0898   7.4065

          k = 0.2778-0.1604 0.0000 (  4458 PWs)   bands (ev):

   -44.4074 -44.3070 -44.1962 -44.0987 -44.0406 -43.9661 -43.7649 -43.7560
   -43.5437 -43.5426 -43.5285 -43.5221  -3.0838  -2.6860  -2.3314  -1.9723
    -1.7429  -1.2797  -0.7547  -0.4262  -0.0270   0.0582   0.4309   0.6814
     0.8908   0.8976   1.3098   1.5104   1.7605   2.0940   2.0965   2.2149
     2.5633   3.1337   3.9602   6.2916

          k = 0.3889 0.6736 0.0000 (  4511 PWs)   bands (ev):

   -44.4346 -44.4056 -44.2657 -44.2214 -44.1373 -44.1273 -43.8840 -43.8774
   -43.7209 -43.7162 -43.5080 -43.5071  -2.6462  -2.2743  -2.1428  -1.8048
    -1.5945  -1.3213  -1.2182  -0.4661  -0.2694  -0.0048   0.2088   0.8599
     0.9581   1.0733   1.7207   2.0261   2.4530   2.7622   2.8530   3.1092
     7.6602   8.1832   8.7436   9.3360

          k = 0.3889-0.3528 0.0000 (  4485 PWs)   bands (ev):

   -44.4751 -44.4458 -44.2437 -44.1762 -44.1083 -44.0490 -43.9160 -43.9093
   -43.6252 -43.6245 -43.5133 -43.5101  -3.0397  -2.8132  -2.7343  -2.2213
    -1.8924  -1.6830  -0.9991  -0.3913  -0.1691   0.2608   0.4442   1.1601
     1.6793   1.9287   2.0910   2.5376   2.6576   2.8284   3.1103   3.3447
     5.2113   5.9466   6.8125   8.3059

          k = 0.3889-0.2245 0.0000 (  4444 PWs)   bands (ev):

   -44.4509 -44.4320 -44.2552 -44.1394 -44.0817 -43.9988 -43.8986 -43.8839
   -43.5791 -43.5781 -43.5187 -43.5128  -3.1295  -2.9990  -2.7626  -2.3735
    -2.0724  -1.6549  -0.6921  -0.3584  -0.1641   0.2595   0.8985   0.8993
     1.8636   2.0522   2.4922   2.6596   2.7085   2.8196   3.0154   3.1221
     3.2908   3.7047   5.2019   7.6667

          k =-0.5000-0.8660 0.0000 (  4492 PWs)   bands (ev):

   -44.5072 -44.4749 -44.2470 -44.1651 -44.0984 -44.0119 -43.9428 -43.9350
   -43.5932 -43.5924 -43.5151 -43.5104  -3.3301  -3.0991  -2.9684  -2.5181
    -2.2396  -1.8160  -0.7667  -0.5396  -0.2631   0.6357   0.8529   1.2028
     2.1451   2.3616   2.8694   2.9268   3.0773   3.2668   3.5854   3.6155
     4.3765   5.9480   6.4684   6.7692

     the Fermi energy is     2.5672 ev

!    total energy              =    -684.65311164 Ry
     estimated scf accuracy    <       0.00000005 Ry
     smearing contrib. (-TS)   =      -0.01838011 Ry
     internal energy E=F+TS    =    -684.63473153 Ry

     The total energy is F=E-TS. E is the sum of the following terms:
     one-electron contribution =   -9551.82253568 Ry
     hartree contribution      =    4789.44749113 Ry
     xc contribution           =    -119.59116562 Ry
     ewald contribution        =    4197.33147864 Ry

     total magnetization       =    -0.01 Bohr mag/cell
     absolute magnetization    =     0.01 Bohr mag/cell

     convergence has been achieved in  17 iterations

     negative rho (up, down):  1.072E-01 1.072E-01

     Forces acting on atoms (cartesian axes, Ry/au):

     atom    1 type  1   force =     0.00000000    0.00000000   -0.00008934
     atom    2 type  1   force =     0.00000000    0.00000000    0.00011602
     atom    3 type  1   force =     0.00000000    0.00000000   -0.00010835
     atom    4 type  1   force =     0.00000000    0.00000000    0.00008167

     Total force =     0.000200     Total SCF correction =     0.000823
     SCF correction compared to forces is large: reduce conv_thr to get better values
     Energy error            =      5.6E-06
     Gradient error          =      1.2E-04

     bfgs converged in   8 scf cycles and   7 bfgs steps
     (criteria: energy <  1.0E-04 Ry, force <  1.0E-03 Ry/Bohr)

     End of BFGS Geometry Optimization

     Final energy   =    -684.6531116404 Ry

     File /home/STUDENTI/leonardo.razzai/WORK/relax_surf/4-L.bfgs deleted, as requested
Begin final coordinates

ATOMIC_POSITIONS (angstrom)
Rh            0.0000000000        0.0000000000        0.0497770660
Rh            2.7108568000        1.5651139000        2.2297574564
Rh            1.3554284000        0.7825569000        4.4104627946
Rh            0.0000000000        0.0000000000        6.5904344831
End final coordinates


 
     init_run     :      4.03s CPU      4.35s WALL (       1 calls)
     electrons    :    758.70s CPU    776.83s WALL (       9 calls)
     update_pot   :      3.24s CPU      3.27s WALL (       7 calls)
     forces       :     12.43s CPU     12.68s WALL (       9 calls)

     Called by init_run:
     wfcinit      :      2.79s CPU      2.95s WALL (       1 calls)
     potinit      :      0.40s CPU      0.41s WALL (       2 calls)
     hinit0       :      0.52s CPU      0.61s WALL (       1 calls)

     Called by electrons:
     c_bands      :    587.21s CPU    596.01s WALL (     100 calls)
     sum_band     :    119.20s CPU    125.19s WALL (     100 calls)
     v_of_rho     :      9.32s CPU      9.71s WALL (     109 calls)
     newd         :     16.20s CPU     18.75s WALL (     109 calls)
     mix_rho      :     28.16s CPU     28.58s WALL (     100 calls)

     Called by c_bands:
     init_us_2    :      8.34s CPU      8.48s WALL (   10500 calls)
     cegterg      :    511.43s CPU    519.62s WALL (    5000 calls)

     Called by *egterg:
     cdiaghg      :     35.79s CPU     36.14s WALL (   14714 calls)
     h_psi        :    368.12s CPU    375.78s WALL (   15164 calls)
     s_psi        :     26.42s CPU     26.57s WALL (   15164 calls)
     g_psi        :      3.00s CPU      3.01s WALL (   10114 calls)

     Called by h_psi:
     h_psi:calbec :     35.80s CPU     36.32s WALL (   15164 calls)
     vloc_psi     :    302.20s CPU    309.18s WALL (   15164 calls)
     add_vuspsi   :     28.59s CPU     28.76s WALL (   15164 calls)

     General routines
     calbec       :     53.56s CPU     54.39s WALL (   21964 calls)
     fft          :      4.91s CPU      5.03s WALL (    2847 calls)
     ffts         :     14.84s CPU     15.05s WALL (   28331 calls)
     fftw         :    335.75s CPU    344.13s WALL ( 1023480 calls)
     interpolate  :      0.49s CPU      0.49s WALL (     218 calls)
 
     Parallel routines
     fft_scatt_xy :     40.19s CPU     40.50s WALL ( 1054658 calls)
     fft_scatt_yz :     83.63s CPU     86.10s WALL ( 1054658 calls)
 
     PWSCF        :  13m 0.36s CPU  13m21.03s WALL

 
   This run was terminated on:  22:42:55   4Apr2023            

=------------------------------------------------------------------------------=
   JOB DONE.
=------------------------------------------------------------------------------=
