MPI startup(): shm:dapl fabric is unknown or has been removed from the product, please use ofi or shm:ofi instead.

     Program PWSCF v.6.7MaX starts on  5Apr2023 at  9:26:17 

     This program is part of the open-source Quantum ESPRESSO suite
     for quantum simulation of materials; please cite
         "P. Giannozzi et al., J. Phys.:Condens. Matter 21 395502 (2009);
         "P. Giannozzi et al., J. Phys.:Condens. Matter 29 465901 (2017);
          URL http://www.quantum-espresso.org", 
     in publications or presentations arising from this work. More details at
     http://www.quantum-espresso.org/quote

     Parallel version (MPI), running on     8 processors

     MPI processes distributed on     1 nodes
     R & G space division:  proc/nbgrp/npool/nimage =       8
     Reading input from n_layers9.pwi

     Current dimensions of program PWSCF are:
     Max number of different atomic species (ntypx) = 10
     Max number of k-points (npk) =  40000
     Max angular momentum in pseudopotentials (lmaxx) =  3

     Subspace diagonalization in iterative solution of the eigenvalue problem:
     a serial algorithm will be used

 
     Parallelization info
     --------------------
     sticks:   dense  smooth     PW     G-vecs:    dense   smooth      PW
     Min          63      31     11                12632     4451     972
     Max          65      32     12                12645     4494     987
     Sum         511     253     91               101117    35839    7825
 


     bravais-lattice index     =            4
     lattice parameter (alat)  =       5.1228  a.u.
     unit-cell volume          =    1276.0194 (a.u.)^3
     number of atoms/cell      =            9
     number of atomic types    =            1
     number of electrons       =       135.00
     number of Kohn-Sham states=           82
     kinetic-energy cutoff     =      35.0000  Ry
     charge density cutoff     =     280.0000  Ry
     scf convergence threshold =      1.0E-06
     mixing beta               =       0.4000
     number of iterations used =            8  local-TF  mixing
     energy convergence thresh.=      1.0E-04
     force convergence thresh. =      1.0E-03
     Exchange-correlation=  SLA  PW   PBX  PBC
                           (   1   4   3   4   0   0   0)
     nstep                     =           50


     celldm(1)=   5.122776  celldm(2)=   0.000000  celldm(3)=  10.960000
     celldm(4)=   0.000000  celldm(5)=   0.000000  celldm(6)=   0.000000

     crystal axes: (cart. coord. in units of alat)
               a(1) = (   1.000000   0.000000   0.000000 )  
               a(2) = (  -0.500000   0.866025   0.000000 )  
               a(3) = (   0.000000   0.000000  10.960000 )  

     reciprocal axes: (cart. coord. in units 2 pi/alat)
               b(1) = (  1.000000  0.577350  0.000000 )  
               b(2) = (  0.000000  1.154701  0.000000 )  
               b(3) = (  0.000000  0.000000  0.091241 )  


     PseudoPot. # 1 for Rh read from file:
     /home/software/materia/pseudo/rh_pbe_v1.4.uspp.F.UPF
     MD5 check sum: 761627e959a2e3a1f56b0b5fe687810e
     Pseudo is Ultrasoft + core correction, Zval = 15.0
     Generated by new atomic code, or converted to UPF format
     Using radial grid of  969 points,  7 beta functions with: 
                l(1) =   0
                l(2) =   0
                l(3) =   1
                l(4) =   1
                l(5) =   2
                l(6) =   2
                l(7) =   2
     Q(r) pseudized with  8 coefficients,  rinner =    1.200   1.200   1.200
                                                       1.200   1.200

     atomic species   valence    mass     pseudopotential
        Rh            15.00   102.90500     Rh( 1.00)

     Starting magnetic structure 
     atomic species   magnetization
        Rh           0.010

      6 Sym. Ops. (no inversion) found



   Cartesian axes

     site n.     atom                  positions (alat units)
         1           Rh  tau(   1) = (   0.0000000   0.0000000   0.0000000  )
         2           Rh  tau(   2) = (   1.0000002   0.5773504   0.8164967  )
         3           Rh  tau(   3) = (   0.5000001   0.2886752   1.6329934  )
         4           Rh  tau(   4) = (   0.0000000   0.0000000   2.4494902  )
         5           Rh  tau(   5) = (   1.0000002   0.5773504   3.2659869  )
         6           Rh  tau(   6) = (   0.5000001   0.2886752   4.0824836  )
         7           Rh  tau(   7) = (   0.0000000   0.0000000   4.8989803  )
         8           Rh  tau(   8) = (   1.0000002   0.5773504   5.7154770  )
         9           Rh  tau(   9) = (   0.5000001   0.2886752   6.5319738  )

     number of k points=    25  Gaussian smearing, width (Ry)=  0.0200
                       cart. coord. in units 2pi/alat
        k(    1) = (   0.0555556   0.0962250   0.0000000), wk =   0.0246914
        k(    2) = (   0.0555556   0.2245251   0.0000000), wk =   0.0493827
        k(    3) = (   0.0555556   0.3528252   0.0000000), wk =   0.0493827
        k(    4) = (   0.0555556   0.4811252   0.0000000), wk =   0.0493827
        k(    5) = (   0.0555556  -0.5452753   0.0000000), wk =   0.0493827
        k(    6) = (   0.0555556  -0.4169752   0.0000000), wk =   0.0493827
        k(    7) = (   0.0555556  -0.2886751   0.0000000), wk =   0.0493827
        k(    8) = (   0.0555556  -0.1603751   0.0000000), wk =   0.0493827
        k(    9) = (   0.0555556  -0.0320750   0.0000000), wk =   0.0246914
        k(   10) = (   0.1666667   0.2886751   0.0000000), wk =   0.0246914
        k(   11) = (   0.1666667   0.4169752   0.0000000), wk =   0.0493827
        k(   12) = (   0.1666667   0.5452753   0.0000000), wk =   0.0493827
        k(   13) = (   0.1666667  -0.4811252   0.0000000), wk =   0.0493827
        k(   14) = (   0.1666667  -0.3528252   0.0000000), wk =   0.0493827
        k(   15) = (   0.1666667  -0.2245251   0.0000000), wk =   0.0493827
        k(   16) = (   0.1666667  -0.0962250   0.0000000), wk =   0.0246914
        k(   17) = (   0.2777778   0.4811252   0.0000000), wk =   0.0246914
        k(   18) = (   0.2777778   0.6094253   0.0000000), wk =   0.0493827
        k(   19) = (   0.2777778  -0.4169752   0.0000000), wk =   0.0493827
        k(   20) = (   0.2777778  -0.2886751   0.0000000), wk =   0.0493827
        k(   21) = (   0.2777778  -0.1603751   0.0000000), wk =   0.0246914
        k(   22) = (   0.3888889   0.6735753   0.0000000), wk =   0.0246914
        k(   23) = (   0.3888889  -0.3528252   0.0000000), wk =   0.0493827
        k(   24) = (   0.3888889  -0.2245251   0.0000000), wk =   0.0246914
        k(   25) = (  -0.5000000  -0.8660254   0.0000000), wk =   0.0123457

     Dense  grid:   101117 G-vectors     FFT dimensions: (  27,  27, 300)

     Smooth grid:    35839 G-vectors     FFT dimensions: (  20,  20, 216)

     Estimated max dynamical RAM per process >     112.35 MB

     Estimated total dynamical RAM >     898.82 MB
     Generating pointlists ...
     new r_m :   0.4125 (alat units)  2.1131 (a.u.) for type    1

     Initial potential from superposition of free atoms

     starting charge  130.49911, renormalised to  135.00000

     negative rho (up, down):  2.540E-01 2.490E-01
     Starting wfcs are  108 randomized atomic wfcs

     total cpu time spent up to now is       10.4 secs

     Self-consistent Calculation

     iteration #  1     ecut=    35.00 Ry     beta= 0.40
     Davidson diagonalization with overlap
     ethr =  1.00E-02,  avg # of iterations =  3.0

     negative rho (up, down):  2.535E-01 2.511E-01

     total cpu time spent up to now is       36.8 secs

     total energy              =   -1540.89974661 Ry
     estimated scf accuracy    <       6.73958682 Ry

     total magnetization       =     0.49 Bohr mag/cell
     absolute magnetization    =     0.50 Bohr mag/cell

     iteration #  2     ecut=    35.00 Ry     beta= 0.40
     Davidson diagonalization with overlap
     ethr =  4.99E-03,  avg # of iterations =  1.0

     negative rho (up, down):  2.570E-01 2.567E-01

     total cpu time spent up to now is       56.0 secs

     total energy              =   -1540.50572128 Ry
     estimated scf accuracy    <       1.74510293 Ry

     total magnetization       =     0.45 Bohr mag/cell
     absolute magnetization    =     0.47 Bohr mag/cell

     iteration #  3     ecut=    35.00 Ry     beta= 0.40
     Davidson diagonalization with overlap
     ethr =  1.29E-03,  avg # of iterations =  2.0

     negative rho (up, down):  2.601E-01 2.613E-01

     total cpu time spent up to now is       78.7 secs

     total energy              =   -1540.56730477 Ry
     estimated scf accuracy    <       0.50478236 Ry

     total magnetization       =     0.38 Bohr mag/cell
     absolute magnetization    =     0.40 Bohr mag/cell

     iteration #  4     ecut=    35.00 Ry     beta= 0.40
     Davidson diagonalization with overlap
     ethr =  3.74E-04,  avg # of iterations =  2.0

     negative rho (up, down):  2.619E-01 2.631E-01

     total cpu time spent up to now is      101.4 secs

     total energy              =   -1540.61694972 Ry
     estimated scf accuracy    <       0.09548465 Ry

     total magnetization       =     0.31 Bohr mag/cell
     absolute magnetization    =     0.32 Bohr mag/cell

     iteration #  5     ecut=    35.00 Ry     beta= 0.40
     Davidson diagonalization with overlap
     ethr =  7.07E-05,  avg # of iterations =  5.5

     negative rho (up, down):  2.637E-01 2.649E-01

     total cpu time spent up to now is      124.6 secs

     total energy              =   -1540.61871211 Ry
     estimated scf accuracy    <       0.00418703 Ry

     total magnetization       =     0.27 Bohr mag/cell
     absolute magnetization    =     0.29 Bohr mag/cell

     iteration #  6     ecut=    35.00 Ry     beta= 0.40
     Davidson diagonalization with overlap
     c_bands:  1 eigenvalues not converged
     c_bands:  1 eigenvalues not converged
     ethr =  3.10E-06,  avg # of iterations =  7.7

     negative rho (up, down):  2.642E-01 2.653E-01

     total cpu time spent up to now is      151.7 secs

     total energy              =   -1540.61806688 Ry
     estimated scf accuracy    <       0.00621855 Ry

     total magnetization       =     0.21 Bohr mag/cell
     absolute magnetization    =     0.23 Bohr mag/cell

     iteration #  7     ecut=    35.00 Ry     beta= 0.40
     Davidson diagonalization with overlap
     ethr =  3.10E-06,  avg # of iterations =  3.8

     negative rho (up, down):  2.632E-01 2.640E-01

     total cpu time spent up to now is      175.3 secs

     total energy              =   -1540.61849340 Ry
     estimated scf accuracy    <       0.00053767 Ry

     total magnetization       =     0.16 Bohr mag/cell
     absolute magnetization    =     0.17 Bohr mag/cell

     iteration #  8     ecut=    35.00 Ry     beta= 0.40
     Davidson diagonalization with overlap
     ethr =  3.98E-07,  avg # of iterations =  6.9

     negative rho (up, down):  2.601E-01 2.602E-01

     total cpu time spent up to now is      206.2 secs

     total energy              =   -1540.61806924 Ry
     estimated scf accuracy    <       0.00254356 Ry

     total magnetization       =     0.10 Bohr mag/cell
     absolute magnetization    =     0.11 Bohr mag/cell

     iteration #  9     ecut=    35.00 Ry     beta= 0.40
     Davidson diagonalization with overlap
     c_bands:  1 eigenvalues not converged
     ethr =  3.98E-07,  avg # of iterations =  8.6

     negative rho (up, down):  2.592E-01 2.591E-01

     total cpu time spent up to now is      235.1 secs

     total energy              =   -1540.61790500 Ry
     estimated scf accuracy    <       0.00072029 Ry

     total magnetization       =     0.02 Bohr mag/cell
     absolute magnetization    =     0.06 Bohr mag/cell

     iteration # 10     ecut=    35.00 Ry     beta= 0.40
     Davidson diagonalization with overlap
     ethr =  3.98E-07,  avg # of iterations =  4.0

     negative rho (up, down):  2.584E-01 2.582E-01

     total cpu time spent up to now is      258.2 secs

     total energy              =   -1540.61783104 Ry
     estimated scf accuracy    <       0.00018306 Ry

     total magnetization       =    -0.00 Bohr mag/cell
     absolute magnetization    =     0.05 Bohr mag/cell

     iteration # 11     ecut=    35.00 Ry     beta= 0.40
     Davidson diagonalization with overlap
     ethr =  1.36E-07,  avg # of iterations =  5.0

     negative rho (up, down):  2.584E-01 2.582E-01

     total cpu time spent up to now is      286.5 secs

     total energy              =   -1540.61785449 Ry
     estimated scf accuracy    <       0.00003990 Ry

     total magnetization       =    -0.02 Bohr mag/cell
     absolute magnetization    =     0.04 Bohr mag/cell

     iteration # 12     ecut=    35.00 Ry     beta= 0.40
     Davidson diagonalization with overlap
     ethr =  2.96E-08,  avg # of iterations =  1.2

     negative rho (up, down):  2.583E-01 2.582E-01

     total cpu time spent up to now is      306.0 secs

     total energy              =   -1540.61784954 Ry
     estimated scf accuracy    <       0.00002954 Ry

     total magnetization       =    -0.02 Bohr mag/cell
     absolute magnetization    =     0.04 Bohr mag/cell

     iteration # 13     ecut=    35.00 Ry     beta= 0.40
     Davidson diagonalization with overlap
     ethr =  2.19E-08,  avg # of iterations =  1.3

     negative rho (up, down):  2.584E-01 2.582E-01

     total cpu time spent up to now is      326.1 secs

     total energy              =   -1540.61785162 Ry
     estimated scf accuracy    <       0.00000235 Ry

     total magnetization       =    -0.02 Bohr mag/cell
     absolute magnetization    =     0.02 Bohr mag/cell

     iteration # 14     ecut=    35.00 Ry     beta= 0.40
     Davidson diagonalization with overlap
     ethr =  1.74E-09,  avg # of iterations =  1.9

     negative rho (up, down):  2.584E-01 2.583E-01
 
     Magnetic moment per site:
     atom:    1    charge:   13.1753    magn:   -0.0001    constr:    0.0000
     atom:    2    charge:   13.2364    magn:   -0.0014    constr:    0.0000
     atom:    3    charge:   13.2472    magn:   -0.0025    constr:    0.0000
     atom:    4    charge:   13.2496    magn:   -0.0030    constr:    0.0000
     atom:    5    charge:   13.2483    magn:   -0.0028    constr:    0.0000
     atom:    6    charge:   13.2493    magn:   -0.0030    constr:    0.0000
     atom:    7    charge:   13.2475    magn:   -0.0026    constr:    0.0000
     atom:    8    charge:   13.2358    magn:   -0.0014    constr:    0.0000
     atom:    9    charge:   13.1754    magn:   -0.0001    constr:    0.0000

     total cpu time spent up to now is      346.6 secs

     End of self-consistent calculation

 ------ SPIN UP ------------


          k = 0.0556 0.0962 0.0000 (  4451 PWs)   bands (ev):

   -34.7942 -34.7494 -34.6494 -34.5339 -34.4195 -34.3188 -34.2956 -34.2941
   -34.2772 -34.2730 -34.2616 -34.2610 -34.2418 -34.2398 -34.2364 -34.2203
   -34.2079 -34.2060 -34.1860 -34.1836 -34.1719 -33.8858 -33.8852 -33.8616
   -33.8614 -33.8295 -33.8295   4.8214   5.1430   5.6355   6.1827   6.5415
     6.5956   6.6223   6.9682   6.9853   8.7099   8.7248   8.9326   8.9661
     8.9753   9.0792   9.1901   9.2769   9.3434   9.4232   9.4289   9.4867
     9.5034   9.5478   9.5578   9.5809   9.6444   9.6625   9.7409   9.7802
     9.8092   9.8598  10.0892  10.1052  10.2526  10.8293  10.8705  10.8707
    11.0459  11.0984  11.2617  11.3148  11.3893  11.4510  11.5580  11.6257
    11.8281  11.9379  12.2410  12.3693  12.5377  12.6693  12.9315  13.6289
    14.3052  14.7080

          k = 0.0556 0.2245 0.0000 (  4420 PWs)   bands (ev):

   -34.7399 -34.7098 -34.6351 -34.5571 -34.4889 -34.4392 -34.4133 -34.4009
   -34.3775 -34.3693 -34.3400 -34.3077 -34.3058 -34.2956 -34.2799 -34.2614
   -34.2532 -34.2402 -34.2230 -34.2049 -34.1924 -33.9883 -33.9880 -33.8734
   -33.8731 -33.8626 -33.8625   5.7447   6.0080   6.4150   6.8781   7.1258
     7.1907   7.3635   7.6178   7.6782   8.0158   8.2577   8.3930   8.4104
     8.5272   8.6381   8.7111   8.7877   9.1408   9.3287   9.4138   9.5009
     9.5643   9.6660   9.6830   9.7138   9.8217   9.8447  10.0023  10.1283
    10.1649  10.2467  10.3971  10.4701  10.5464  10.5685  10.6270  10.7315
    10.8400  10.9342  11.0563  11.1538  11.4539  11.5611  11.6002  11.7833
    12.0055  12.1790  12.5143  12.5199  12.6861  13.2485  14.1652  15.1632
    16.0848  16.8018

          k = 0.0556 0.3528 0.0000 (  4467 PWs)   bands (ev):

   -34.7017 -34.6815 -34.6682 -34.6558 -34.6132 -34.5992 -34.5679 -34.5451
   -34.5110 -34.4473 -34.3890 -34.3620 -34.3576 -34.3383 -34.3311 -34.3109
   -34.2960 -34.2756 -34.2623 -34.2381 -34.2236 -34.1439 -34.1437 -33.9067
   -33.9066 -33.8621 -33.8618   6.5476   6.7590   6.8592   6.9166   6.9870
     7.1493   7.2020   7.3757   7.4582   7.6831   7.7895   7.9536   8.0882
     8.4493   8.7041   8.8825   9.0562   9.2074   9.3542   9.4596   9.5309
     9.5570   9.5781   9.8105   9.8522  10.1680  10.1862  10.4274  10.5744
    10.6109  10.7178  10.9000  11.1008  11.2477  11.3531  11.4034  11.5217
    11.6858  11.7379  11.8017  11.9600  12.1021  12.1494  12.2873  12.3364
    12.3787  12.4275  12.5951  12.7800  13.2191  14.2860  15.4696  16.6946
    17.8532  18.8545

          k = 0.0556 0.4811 0.0000 (  4463 PWs)   bands (ev):

   -34.7876 -34.7704 -34.7564 -34.7392 -34.7254 -34.7003 -34.6813 -34.5320
   -34.5063 -34.4500 -34.4122 -34.4039 -34.3933 -34.3833 -34.3649 -34.3462
   -34.3334 -34.3045 -34.2928 -34.2640 -34.2590 -34.2451 -34.2418 -33.9398
   -33.9397 -33.8537 -33.8532   6.3736   6.4815   6.5578   6.6974   6.7203
     6.8265   6.9024   7.0252   7.1242   7.2576   7.4920   7.5194   7.7799
     8.2631   8.6059   8.9206   9.0843   9.2571   9.3186   9.5447   9.5677
     9.7262   9.9727  10.2438  10.2945  10.4926  10.8959  10.9841  11.1174
    11.5410  11.6380  11.9135  11.9652  12.0801  12.3068  12.3891  12.4229
    12.4638  12.5071  12.5316  12.6205  12.6617  12.8070  12.8940  13.0167
    13.3713  13.8024  14.1871  14.3090  14.6152  15.4631  16.5604  17.7057
    18.7517  20.2296

          k = 0.0556-0.5453 0.0000 (  4486 PWs)   bands (ev):

   -34.8157 -34.7981 -34.7782 -34.7603 -34.7554 -34.7219 -34.7153 -34.5048
   -34.4968 -34.4448 -34.4200 -34.4132 -34.4060 -34.3982 -34.3749 -34.3535
   -34.3442 -34.3118 -34.3012 -34.2731 -34.2717 -34.2611 -34.2573 -33.9475
   -33.9473 -33.8520 -33.8515   6.2527   6.4312   6.4600   6.5967   6.6676
     6.7471   6.8004   6.9832   7.0300   7.1649   7.4066   7.4309   7.7081
     8.2256   8.5925   8.8353   9.0145   9.1867   9.2696   9.5137   9.7080
     9.8024   9.9530  10.4336  10.4587  10.4715  11.0540  11.1877  11.2583
    11.6719  11.8847  12.1280  12.2125  12.3492  12.4258  12.5735  12.6533
    12.6926  12.7255  12.7682  12.8136  12.8451  12.9540  13.0523  13.1254
    13.9707  14.5859  15.2388  15.6866  15.7402  15.9002  16.4226  17.0013
    17.4046  20.0578

          k = 0.0556-0.4170 0.0000 (  4465 PWs)   bands (ev):

   -34.7364 -34.7275 -34.7168 -34.7023 -34.6734 -34.6544 -34.6234 -34.5680
   -34.5185 -34.4518 -34.4005 -34.3862 -34.3792 -34.3614 -34.3494 -34.3315
   -34.3162 -34.2915 -34.2796 -34.2532 -34.2414 -34.2049 -34.2044 -33.9259
   -33.9258 -33.8572 -33.8568   6.5518   6.5933   6.7342   6.7834   6.8980
     6.9624   7.0695   7.1106   7.2739   7.4384   7.6138   7.7142   7.9078
     8.3479   8.6413   8.9958   9.2388   9.2943   9.3750   9.4104   9.5400
     9.6589   9.7892  10.0560  10.0810  10.3023  10.5375  10.6349  10.9881
    11.0905  11.2815  11.4078  11.4976  11.7649  11.8530  11.9427  12.0128
    12.0784  12.1557  12.2498  12.3181  12.4825  12.5046  12.6466  12.7348
    12.8731  12.9845  13.0942  13.1714  13.7896  14.8740  16.1045  17.3855
    18.6332  19.7468

          k = 0.0556-0.2887 0.0000 (  4439 PWs)   bands (ev):

   -34.7084 -34.6887 -34.6399 -34.5984 -34.5557 -34.5211 -34.4921 -34.4725
   -34.4529 -34.4233 -34.3720 -34.3339 -34.3322 -34.3177 -34.3065 -34.2853
   -34.2747 -34.2583 -34.2427 -34.2209 -34.2066 -34.0679 -34.0678 -33.8845
   -33.8844 -33.8673 -33.8672   6.2717   6.4728   6.7504   7.0203   7.1199
     7.2822   7.5130   7.5685   7.7928   7.8376   8.0487   8.0918   8.2869
     8.4836   8.4938   8.7144   8.8858   8.9351   9.2185   9.4453   9.5520
     9.6133   9.6482   9.7049   9.8176   9.8805   9.9911  10.0626  10.1729
    10.3489  10.5714  10.6029  10.6584  10.7759  10.9167  10.9569  11.1127
    11.1656  11.2071  11.4464  11.5401  11.6305  11.8167  11.8458  11.9244
    12.1391  12.2505  12.5352  12.7234  12.8314  13.7477  14.8163  15.9394
    16.9850  17.8596

          k = 0.0556-0.1604 0.0000 (  4443 PWs)   bands (ev):

   -34.7712 -34.7320 -34.6415 -34.5397 -34.4430 -34.3678 -34.3459 -34.3366
   -34.3208 -34.3111 -34.2885 -34.2816 -34.2785 -34.2716 -34.2550 -34.2420
   -34.2321 -34.2209 -34.2033 -34.1919 -34.1815 -33.9178 -33.9176 -33.8787
   -33.8784 -33.8437 -33.8435   5.2181   5.5220   5.9914   6.5228   6.8536
     6.8966   6.9546   7.2860   7.3088   8.3894   8.5188   8.6525   8.7116
     8.7932   8.8384   8.9226   9.0471   9.2910   9.3433   9.4980   9.5693
     9.5809   9.6146   9.7069   9.7161   9.7522   9.8023   9.8280   9.8601
     9.9636  10.0226  10.0969  10.2282  10.3668  10.3840  10.7083  10.7691
    10.8693  10.9600  10.9726  11.1430  11.3544  11.4249  11.5366  11.7442
    11.8214  12.2032  12.2287  12.5119  12.6554  12.7932  13.5246  14.3799
    15.1734  15.7239

          k = 0.0556-0.0321 0.0000 (  4465 PWs)   bands (ev):

   -34.8064 -34.7589 -34.6547 -34.5332 -34.4119 -34.2994 -34.2711 -34.2684
   -34.2618 -34.2592 -34.2477 -34.2385 -34.2315 -34.2221 -34.2142 -34.2040
   -34.2028 -34.1837 -34.1817 -34.1758 -34.1646 -33.8878 -33.8875 -33.8334
   -33.8333 -33.8222 -33.8219   4.6116   4.9395   5.4394   5.9896   6.3633
     6.4143   6.4478   6.7860   6.8005   8.8782   8.9076   9.0949   9.1136
     9.1215   9.2105   9.2687   9.2950   9.3259   9.3359   9.3547   9.3616
     9.4486   9.4869   9.4978   9.5527   9.5868   9.6023   9.6229   9.7660
     9.8590   9.9549   9.9570   9.9592  10.6183  11.0018  11.0034  11.1565
    11.1652  11.2762  11.2957  11.3606  11.4018  11.4827  11.6431  11.7756
    11.9627  11.9860  12.0738  12.3331  12.4265  12.5806  12.7199  13.0288
    13.6358  13.9349

          k = 0.1667 0.2887 0.0000 (  4425 PWs)   bands (ev):

   -34.6822 -34.6791 -34.6489 -34.6172 -34.5813 -34.5542 -34.5333 -34.5067
   -34.4920 -34.4491 -34.3915 -34.3580 -34.3494 -34.3348 -34.3167 -34.3141
   -34.2974 -34.2813 -34.2766 -34.2630 -34.2099 -34.1002 -34.1000 -33.9175
   -33.9174 -33.8630 -33.8629   6.7600   6.8534   7.0234   7.2556   7.5292
     7.7267   7.7323   7.7833   7.8447   7.8787   7.9755   8.0125   8.1241
     8.2585   8.3485   8.4099   8.8496   8.9004   8.9321   9.0343   9.2020
     9.3379   9.4068   9.4187   9.4412   9.4995  10.0667  10.0743  10.2384
    10.3203  10.4694  10.5274  10.9150  10.9488  11.0016  11.1891  11.4298
    11.5195  11.6495  11.8047  12.0188  12.1101  12.2061  12.3446  12.3545
    12.3965  12.4707  12.5649  12.5820  13.3231  14.2942  15.3696  16.5142
    17.6084  19.2347

          k = 0.1667 0.4170 0.0000 (  4459 PWs)   bands (ev):

   -34.7197 -34.7071 -34.7015 -34.6873 -34.6636 -34.6430 -34.6269 -34.5762
   -34.5270 -34.4653 -34.4275 -34.4227 -34.4079 -34.3892 -34.3759 -34.3692
   -34.3436 -34.3434 -34.3118 -34.2906 -34.2431 -34.1967 -34.1965 -33.9802
   -33.9800 -33.8539 -33.8536   6.9241   6.9840   7.0872   7.1903   7.2863
     7.3373   7.5031   7.5313   7.6003   7.7584   7.8133   8.0603   8.1451
     8.3627   8.4720   8.6729   8.8594   8.8975   9.0373   9.1609   9.2496
     9.4576   9.5977   9.8024   9.8763  10.0169  10.0762  10.2454  10.3795
    10.5140  10.7887  11.0038  11.1066  11.1576  11.3321  11.3826  11.6676
    11.7462  12.0293  12.5009  12.5935  12.7224  12.7912  12.8386  12.9961
    13.9986  14.1339  14.2292  14.4780  15.0353  15.9188  16.9934  18.1639
    19.3298  20.3931

          k = 0.1667 0.5453 0.0000 (  4490 PWs)   bands (ev):

   -34.7784 -34.7619 -34.7370 -34.7236 -34.7210 -34.6885 -34.6851 -34.5205
   -34.5087 -34.4816 -34.4722 -34.4658 -34.4466 -34.4247 -34.3963 -34.3862
   -34.3748 -34.3522 -34.3350 -34.3011 -34.2744 -34.2425 -34.2424 -34.0143
   -34.0142 -33.8489 -33.8487   6.6123   6.8403   6.9003   7.0542   7.1159
     7.1731   7.2295   7.4430   7.5162   7.5525   7.7930   7.9076   8.0409
     8.2607   8.3596   8.5344   8.6609   9.0061   9.2581   9.3708   9.5198
     9.7245   9.8255   9.8577  10.1842  10.2405  10.2923  10.6687  10.7689
    11.0994  11.1281  11.2186  11.4778  11.7574  11.9202  12.0275  12.1342
    12.2040  12.3446  12.4952  12.5565  12.6327  12.7847  12.9010  12.9977
    15.8295  16.1465  16.5014  16.8064  17.1225  17.5154  17.9212  18.2225
    18.3880  20.3523

          k = 0.1667-0.4811 0.0000 (  4476 PWs)   bands (ev):

   -34.7576 -34.7409 -34.7253 -34.7109 -34.7007 -34.6720 -34.6653 -34.5470
   -34.5176 -34.4697 -34.4533 -34.4493 -34.4322 -34.4140 -34.3892 -34.3868
   -34.3603 -34.3521 -34.3235 -34.2999 -34.2611 -34.2270 -34.2269 -34.0024
   -34.0023 -33.8505 -33.8505   6.7232   6.9238   6.9311   7.1456   7.1545
     7.1979   7.3493   7.4822   7.5445   7.6281   7.8100   7.9622   8.0819
     8.2688   8.4409   8.6445   8.7543   8.8869   9.1930   9.2912   9.5490
     9.6266   9.7414   9.9137   9.9855  10.0450  10.3059  10.5092  10.6808
    10.8668  10.9084  11.0585  11.3746  11.5853  11.6596  11.7143  11.8248
    11.8765  12.1569  12.5298  12.6522  12.7496  12.8487  12.9531  13.0918
    14.9558  15.1635  15.3752  15.6571  16.1513  16.8900  17.8022  18.7738
    19.6260  20.5846

          k = 0.1667-0.3528 0.0000 (  4458 PWs)   bands (ev):

   -34.6845 -34.6799 -34.6635 -34.6600 -34.6241 -34.6050 -34.5832 -34.5729
   -34.5229 -34.4624 -34.4053 -34.3905 -34.3816 -34.3607 -34.3492 -34.3350
   -34.3279 -34.3203 -34.2979 -34.2770 -34.2255 -34.1534 -34.1532 -33.9505
   -33.9503 -33.8585 -33.8584   7.0156   7.1087   7.1805   7.2536   7.3816
     7.4726   7.5640   7.6493   7.7043   7.8259   7.9891   8.1114   8.2040
     8.3069   8.4356   8.5980   8.7075   8.8172   8.9887   9.1756   9.2205
     9.2510   9.3491   9.5419   9.7002   9.7448   9.9895  10.0034  10.2075
    10.4850  10.5946  10.7007  10.8904  11.0909  11.1497  11.2893  11.5717
    11.6399  11.8800  12.3003  12.3622  12.4851  12.5303  12.5975  12.7705
    13.1034  13.1777  13.2426  13.4109  14.0348  15.0107  16.1244  17.3100
    18.4632  19.5051

          k = 0.1667-0.2245 0.0000 (  4433 PWs)   bands (ev):

   -34.7125 -34.6926 -34.6368 -34.5819 -34.5326 -34.4956 -34.4687 -34.4500
   -34.4329 -34.4185 -34.3727 -34.3307 -34.3235 -34.3144 -34.2975 -34.2836
   -34.2683 -34.2577 -34.2493 -34.2352 -34.1991 -34.0430 -34.0428 -33.8871
   -33.8870 -33.8684 -33.8683   6.2229   6.4307   6.7545   7.1380   7.4076
     7.4875   7.6275   7.7530   7.8696   7.9634   8.0781   8.1570   8.2025
     8.3345   8.4469   8.5790   8.6562   8.8893   9.1433   9.1953   9.2939
     9.4067   9.4688   9.5945   9.6632   9.6822   9.8939  10.0120  10.1938
    10.4239  10.4454  10.5485  10.6114  10.7230  10.8704  10.9134  11.0431
    11.1662  11.2029  11.4888  11.5365  11.5866  11.8552  11.8920  11.8996
    12.0584  12.2091  12.3937  12.5544  12.8724  13.7322  14.7245  15.7965
    16.8068  17.6522

          k = 0.1667-0.0962 0.0000 (  4427 PWs)   bands (ev):

   -34.7611 -34.7243 -34.6385 -34.5443 -34.4580 -34.3943 -34.3737 -34.3574
   -34.3421 -34.3249 -34.3020 -34.2949 -34.2914 -34.2761 -34.2691 -34.2493
   -34.2419 -34.2283 -34.2054 -34.1946 -34.1837 -33.9438 -33.9437 -33.8770
   -33.8766 -33.8483 -33.8482   5.3984   5.6899   6.1400   6.6480   6.9454
     6.9730   7.1161   7.4079   7.4435   8.1994   8.4526   8.5479   8.6070
     8.7051   8.7929   8.8472   8.9428   9.3459   9.3872   9.4836   9.5956
     9.6041   9.6452   9.7163   9.7791   9.8423   9.8492   9.9353   9.9877
    10.0435  10.0514  10.0815  10.2239  10.3720  10.4761  10.5465  10.7287
    10.7410  10.9066  11.0120  11.1401  11.2797  11.5001  11.5145  11.7082
    12.0156  12.0873  12.3588  12.6193  12.7738  12.8419  13.7239  14.6605
    15.5069  16.1179

          k = 0.2778 0.4811 0.0000 (  4485 PWs)   bands (ev):

   -34.7128 -34.7119 -34.6985 -34.6951 -34.6647 -34.6563 -34.6176 -34.6020
   -34.5724 -34.5297 -34.5012 -34.4954 -34.4716 -34.4573 -34.4265 -34.4216
   -34.3774 -34.3563 -34.3382 -34.3165 -34.2814 -34.2046 -34.2045 -34.0742
   -34.0740 -33.8478 -33.8475   7.1552   7.1596   7.3112   7.3355   7.4480
     7.6298   7.8129   7.8743   7.9385   7.9518   8.0841   8.1027   8.2326
     8.2602   8.3804   8.4219   8.6931   8.7805   8.9440   9.0598   9.2245
     9.3661   9.5613   9.6483   9.9060   9.9089  10.1376  10.1381  10.5747
    10.6565  10.7236  10.8429  11.0793  11.1115  11.2779  11.3023  11.6240
    11.8777  12.2060  12.4911  12.6675  12.6925  12.6946  12.8239  12.9885
    16.3193  16.4532  16.7265  17.1456  17.7246  18.4698  19.3404  20.2317
    20.6968  20.7803

          k = 0.2778 0.6094 0.0000 (  4491 PWs)   bands (ev):

   -34.7137 -34.6976 -34.6854 -34.6753 -34.6573 -34.6523 -34.6352 -34.5972
   -34.5754 -34.5627 -34.5455 -34.5223 -34.5193 -34.4794 -34.4253 -34.4213
   -34.3679 -34.3569 -34.3395 -34.3214 -34.3012 -34.1961 -34.1959 -34.1069
   -34.1067 -33.8462 -33.8458   7.1156   7.3155   7.3752   7.5199   7.5731
     7.6382   7.7606   7.8497   7.9254   7.9320   8.0768   8.1368   8.1864
     8.2199   8.3392   8.4967   8.5868   8.9071   8.9670   9.1855   9.2793
     9.3734   9.4382   9.6520   9.8352   9.8743  10.1852  10.1929  10.5475
    10.6607  10.8212  10.9504  11.0481  11.1592  11.2962  11.3505  11.9463
    12.0927  12.2753  12.3644  12.4779  12.5316  12.5811  12.6344  12.7652
    17.5194  17.7052  18.0128  18.3852  18.7278  19.0359  19.3925  19.7971
    20.2222  20.3384

          k = 0.2778-0.4170 0.0000 (  4462 PWs)   bands (ev):

   -34.7234 -34.7106 -34.7059 -34.6938 -34.6708 -34.6570 -34.6338 -34.5795
   -34.5425 -34.4911 -34.4599 -34.4565 -34.4398 -34.4201 -34.4125 -34.3927
   -34.3790 -34.3554 -34.3332 -34.3026 -34.2604 -34.2062 -34.2061 -34.0282
   -34.0279 -33.8501 -33.8499   7.0041   7.1408   7.1769   7.3191   7.3646
     7.5032   7.6065   7.7049   7.7834   7.8935   8.0854   8.1162   8.2086
     8.3365   8.5445   8.5578   8.5887   8.7377   8.9642   9.0122   9.2559
     9.3853   9.5358   9.7738   9.9237   9.9523  10.1519  10.1746  10.3363
    10.5187  10.7560  10.9035  11.0680  11.1792  11.3095  11.3593  11.5204
    11.6887  12.1166  12.5302  12.7450  12.7794  12.8437  12.9311  13.0941
    15.1527  15.2411  15.4284  15.7754  16.3418  17.1463  18.1265  19.1992
    20.2591  21.1529

          k = 0.2778-0.2887 0.0000 (  4463 PWs)   bands (ev):

   -34.7034 -34.7020 -34.6829 -34.6792 -34.6397 -34.6259 -34.5937 -34.5793
   -34.5216 -34.4548 -34.4019 -34.3883 -34.3832 -34.3601 -34.3463 -34.3399
   -34.3243 -34.3001 -34.2819 -34.2707 -34.2309 -34.1754 -34.1753 -33.9380
   -33.9379 -33.8579 -33.8577   6.7625   6.8923   6.9781   7.0085   7.1737
     7.1829   7.2836   7.3790   7.4985   7.6434   7.8017   8.0079   8.0502
     8.3473   8.5479   8.8669   8.9098   9.1579   9.1946   9.2907   9.3936
     9.5215   9.6365   9.7330   9.8490  10.0686  10.1934  10.3597  10.5246
    10.5533  10.7665  10.9879  11.1627  11.2364  11.2800  11.4545  11.7691
    11.7807  12.0742  12.2196  12.3642  12.4258  12.5373  12.6169  12.7969
    12.9461  13.1405  13.1711  13.3217  13.9384  14.9449  16.1026  17.3290
    18.5204  19.5798

          k = 0.2778-0.1604 0.0000 (  4458 PWs)   bands (ev):

   -34.7035 -34.6818 -34.6491 -34.6263 -34.5876 -34.5603 -34.5289 -34.5030
   -34.4868 -34.4355 -34.3791 -34.3450 -34.3401 -34.3291 -34.3156 -34.2914
   -34.2808 -34.2666 -34.2405 -34.2230 -34.2162 -34.1054 -34.1052 -33.8893
   -33.8891 -33.8653 -33.8650   6.3791   6.5795   6.7934   6.8954   6.9745
     7.1639   7.3374   7.4295   7.5747   7.7373   7.8912   7.9692   8.2081
     8.5195   8.7260   8.8645   9.0499   9.1865   9.3413   9.4722   9.5552
     9.6037   9.6589   9.8007   9.9018  10.1178  10.1655  10.3542  10.4627
    10.4684  10.6113  10.7071  10.8925  11.0773  11.1079  11.2099  11.2528
    11.2948  11.3933  11.4504  11.6191  11.7386  11.8416  11.9445  11.9553
    12.0911  12.3850  12.6646  12.8307  12.8440  13.8959  15.0521  16.2366
    17.3382  18.2687

          k = 0.3889 0.6736 0.0000 (  4511 PWs)   bands (ev):

   -34.7507 -34.7336 -34.7048 -34.6981 -34.6928 -34.6693 -34.6626 -34.5507
   -34.5415 -34.5250 -34.5157 -34.5068 -34.4769 -34.4418 -34.4226 -34.4120
   -34.3687 -34.3681 -34.3423 -34.3098 -34.2898 -34.2227 -34.2226 -34.0643
   -34.0643 -33.8472 -33.8471   6.8383   7.0613   7.2255   7.3767   7.3980
     7.4304   7.5687   7.6404   7.7280   7.8220   8.0228   8.0477   8.1944
     8.3296   8.3652   8.4042   8.5325   8.7586   9.0334   9.2206   9.4643
     9.5940   9.7040   9.8153   9.9002  10.1436  10.2408  10.3825  10.6297
    10.6707  10.6942  11.0153  11.2683  11.4550  11.6003  11.7042  12.1268
    12.1759  12.2633  12.3527  12.5064  12.5229  12.6925  12.7834  12.8076
    17.0401  17.2533  17.5031  17.7406  17.9827  18.2581  18.5701  18.8797
    19.1452  20.4853

          k = 0.3889-0.3528 0.0000 (  4485 PWs)   bands (ev):

   -34.7916 -34.7744 -34.7548 -34.7390 -34.7320 -34.7013 -34.6926 -34.5188
   -34.5010 -34.4532 -34.4376 -34.4330 -34.4169 -34.3940 -34.3878 -34.3695
   -34.3537 -34.3240 -34.3134 -34.2879 -34.2640 -34.2496 -34.2482 -33.9710
   -33.9709 -33.8514 -33.8511   6.4525   6.6380   6.6638   6.8004   6.8718
     6.9523   7.0007   7.2043   7.2792   7.3158   7.6173   7.6701   7.8329
     8.2259   8.4995   8.7455   8.9083   9.2368   9.3369   9.4565   9.5188
     9.6519   9.9071  10.0910  10.2205  10.4858  10.6676  10.8005  11.0660
    11.2918  11.5625  11.5944  11.7063  11.9770  12.1724  12.2280  12.2581
    12.2892  12.3660  12.5666  12.6294  12.7343  12.8319  12.9714  13.0944
    14.5579  14.9387  15.3228  15.5565  15.8420  16.4125  17.1792  17.9520
    18.5220  20.2830

          k = 0.3889-0.2245 0.0000 (  4444 PWs)   bands (ev):

   -34.7676 -34.7512 -34.7438 -34.7246 -34.7046 -34.6832 -34.6559 -34.5495
   -34.5127 -34.4508 -34.4037 -34.3877 -34.3815 -34.3682 -34.3552 -34.3278
   -34.3200 -34.2999 -34.2717 -34.2586 -34.2458 -34.2301 -34.2281 -33.9248
   -33.9246 -33.8557 -33.8550   6.4119   6.4521   6.5745   6.6841   6.7423
     6.8232   6.9431   6.9803   7.1270   7.3073   7.4820   7.5314   7.8208
     8.3194   8.6695   9.0128   9.1862   9.2650   9.3531   9.5692   9.5781
     9.7218   9.9556  10.1619  10.3402  10.4330  10.8268  10.9635  11.1214
    11.4906  11.6204  11.9325  11.9584  12.1721  12.2337  12.2741  12.3233
    12.3754  12.4155  12.4745  12.5193  12.5876  12.6577  12.7721  12.8576
    12.8855  12.9537  13.2439  13.2816  13.8303  14.9628  16.2193  17.5067
    18.7619  19.9998

          k =-0.5000-0.8660 0.0000 (  4492 PWs)   bands (ev):

   -34.8234 -34.8074 -34.7876 -34.7666 -34.7659 -34.7264 -34.7258 -34.5016
   -34.4967 -34.4386 -34.4142 -34.4063 -34.4058 -34.3982 -34.3709 -34.3442
   -34.3420 -34.3131 -34.2856 -34.2844 -34.2714 -34.2594 -34.2577 -33.9390
   -33.9389 -33.8525 -33.8519   6.1781   6.3605   6.3836   6.5320   6.5932
     6.6660   6.7430   6.9057   6.9378   7.1156   7.3228   7.3476   7.6708
     8.2172   8.6277   8.8704   9.0466   9.1340   9.2443   9.4791   9.8771
     9.9040   9.9472  10.3850  10.5805  10.6400  10.9612  11.4411  11.4858
    11.5576  12.0947  12.3133  12.3538  12.4746  12.6694  12.7557  12.7706
    12.8096  12.8589  12.9122  12.9328  12.9819  13.0830  13.2540  13.2575
    13.4586  14.3551  15.1731  15.6535  15.8272  16.0878  16.2672  16.4205
    16.4811  19.9738

 ------ SPIN DOWN ----------


          k = 0.0556 0.0962 0.0000 (  4451 PWs)   bands (ev):

   -34.7979 -34.7526 -34.6524 -34.5370 -34.4226 -34.3219 -34.2985 -34.2978
   -34.2806 -34.2760 -34.2646 -34.2645 -34.2453 -34.2433 -34.2403 -34.2237
   -34.2121 -34.2097 -34.1901 -34.1876 -34.1761 -33.8861 -33.8855 -33.8617
   -33.8614 -33.8296 -33.8295   4.8216   5.1431   5.6356   6.1826   6.5402
     6.5944   6.6209   6.9679   6.9849   8.7074   8.7224   8.9308   8.9633
     8.9729   9.0767   9.1883   9.2748   9.3414   9.4202   9.4258   9.4845
     9.5010   9.5455   9.5554   9.5787   9.6423   9.6609   9.7382   9.7774
     9.8080   9.8592  10.0886  10.1047  10.2517  10.8278  10.8674  10.8674
    11.0430  11.0960  11.2598  11.3117  11.3879  11.4488  11.5563  11.6238
    11.8264  11.9354  12.2394  12.3666  12.5364  12.6663  12.9294  13.6274
    14.3044  14.7070

          k = 0.0556 0.2245 0.0000 (  4420 PWs)   bands (ev):

   -34.7436 -34.7130 -34.6383 -34.5603 -34.4920 -34.4419 -34.4166 -34.4045
   -34.3811 -34.3727 -34.3437 -34.3110 -34.3091 -34.2989 -34.2834 -34.2647
   -34.2570 -34.2437 -34.2270 -34.2090 -34.1965 -33.9884 -33.9880 -33.8737
   -33.8733 -33.8627 -33.8625   5.7448   6.0080   6.4149   6.8777   7.1240
     7.1894   7.3623   7.6172   7.6774   8.0137   8.2559   8.3907   8.4082
     8.5252   8.6366   8.7089   8.7859   9.1391   9.3268   9.4127   9.4994
     9.5628   9.6634   9.6805   9.7119   9.8199   9.8422  10.0002  10.1258
    10.1625  10.2442  10.3949  10.4681  10.5445  10.5664  10.6251  10.7293
    10.8378  10.9323  11.0550  11.1521  11.4516  11.5588  11.5975  11.7811
    12.0029  12.1773  12.5128  12.5173  12.6833  13.2465  14.1635  15.1620
    16.0840  16.8008

          k = 0.0556 0.3528 0.0000 (  4467 PWs)   bands (ev):

   -34.7053 -34.6848 -34.6720 -34.6591 -34.6166 -34.6020 -34.5707 -34.5490
   -34.5142 -34.4506 -34.3923 -34.3653 -34.3606 -34.3420 -34.3344 -34.3144
   -34.2995 -34.2791 -34.2662 -34.2422 -34.2277 -34.1441 -34.1439 -33.9068
   -33.9067 -33.8623 -33.8620   6.5466   6.7583   6.8575   6.9153   6.9860
     7.1476   7.2001   7.3740   7.4568   7.6815   7.7885   7.9524   8.0867
     8.4479   8.7023   8.8810   9.0544   9.2062   9.3522   9.4573   9.5291
     9.5545   9.5762   9.8084   9.8505  10.1662  10.1845  10.4263  10.5730
    10.6094  10.7164  10.8979  11.0987  11.2456  11.3501  11.4013  11.5197
    11.6828  11.7350  11.7996  11.9578  12.0999  12.1477  12.2845  12.3345
    12.3767  12.4256  12.5934  12.7770  13.2174  14.2845  15.4683  16.6935
    17.8525  18.8539

          k = 0.0556 0.4811 0.0000 (  4463 PWs)   bands (ev):

   -34.7912 -34.7734 -34.7601 -34.7421 -34.7288 -34.7038 -34.6851 -34.5350
   -34.5088 -34.4530 -34.4154 -34.4073 -34.3965 -34.3872 -34.3682 -34.3497
   -34.3368 -34.3079 -34.2966 -34.2680 -34.2622 -34.2459 -34.2433 -33.9399
   -33.9398 -33.8539 -33.8534   6.3717   6.4798   6.5561   6.6954   6.7188
     6.8250   6.9006   7.0237   7.1226   7.2560   7.4915   7.5185   7.7786
     8.2617   8.6041   8.9188   9.0822   9.2548   9.3161   9.5428   9.5657
     9.7243   9.9707  10.2426  10.2929  10.4906  10.8946  10.9822  11.1158
    11.5391  11.6363  11.9119  11.9634  12.0783  12.3046  12.3866  12.4200
    12.4616  12.5040  12.5280  12.6177  12.6591  12.8050  12.8924  13.0137
    13.3698  13.8010  14.1856  14.3075  14.6146  15.4625  16.5597  17.7050
    18.7508  20.2291

          k = 0.0556-0.5453 0.0000 (  4486 PWs)   bands (ev):

   -34.8193 -34.8011 -34.7817 -34.7634 -34.7587 -34.7256 -34.7191 -34.5072
   -34.4988 -34.4484 -34.4233 -34.4167 -34.4098 -34.4017 -34.3781 -34.3570
   -34.3474 -34.3153 -34.3047 -34.2758 -34.2743 -34.2633 -34.2599 -33.9476
   -33.9474 -33.8522 -33.8517   6.2508   6.4295   6.4584   6.5944   6.6662
     6.7456   6.7986   6.9817   7.0283   7.1632   7.4058   7.4304   7.7069
     8.2241   8.5906   8.8334   9.0126   9.1844   9.2672   9.5114   9.7061
     9.8005   9.9510  10.4319  10.4574  10.4696  11.0520  11.1861  11.2571
    11.6700  11.8830  12.1261  12.2107  12.3473  12.4236  12.5703  12.6501
    12.6894  12.7225  12.7651  12.8108  12.8421  12.9518  13.0511  13.1234
    13.9697  14.5849  15.2377  15.6859  15.7389  15.8997  16.4221  17.0005
    17.4034  20.0569

          k = 0.0556-0.4170 0.0000 (  4465 PWs)   bands (ev):

   -34.7400 -34.7310 -34.7201 -34.7054 -34.6768 -34.6576 -34.6273 -34.5711
   -34.5214 -34.4548 -34.4037 -34.3895 -34.3823 -34.3651 -34.3527 -34.3350
   -34.3196 -34.2950 -34.2835 -34.2573 -34.2454 -34.2053 -34.2049 -33.9260
   -33.9259 -33.8574 -33.8570   6.5504   6.5914   6.7326   6.7823   6.8958
     6.9609   7.0684   7.1087   7.2725   7.4369   7.6132   7.7132   7.9064
     8.3465   8.6397   8.9942   9.2367   9.2920   9.3728   9.4079   9.5383
     9.6566   9.7880  10.0544  10.0790  10.3011  10.5354  10.6334  10.9861
    11.0890  11.2801  11.4059  11.4960  11.7628  11.8509  11.9400  12.0109
    12.0757  12.1524  12.2477  12.3154  12.4804  12.5016  12.6445  12.7328
    12.8702  12.9826  13.0919  13.1705  13.7885  14.8729  16.1035  17.3846
    18.6325  19.7464

          k = 0.0556-0.2887 0.0000 (  4439 PWs)   bands (ev):

   -34.7121 -34.6920 -34.6434 -34.6017 -34.5588 -34.5237 -34.4950 -34.4765
   -34.4565 -34.4268 -34.3754 -34.3372 -34.3353 -34.3212 -34.3100 -34.2887
   -34.2784 -34.2618 -34.2467 -34.2250 -34.2107 -34.0680 -34.0679 -33.8845
   -33.8845 -33.8676 -33.8675   6.2715   6.4726   6.7500   7.0194   7.1182
     7.2808   7.5116   7.5665   7.7911   7.8363   8.0475   8.0901   8.2852
     8.4820   8.4919   8.7130   8.8841   8.9335   9.2168   9.4435   9.5502
     9.6113   9.6454   9.7028   9.8157   9.8787   9.9892  10.0615  10.1717
    10.3471  10.5683  10.6011  10.6565  10.7735  10.9142  10.9545  11.1102
    11.1629  11.2042  11.4447  11.5387  11.6289  11.8141  11.8443  11.9219
    12.1367  12.2483  12.5335  12.7203  12.8294  13.7460  14.8148  15.9382
    16.9842  17.8588

          k = 0.0556-0.1604 0.0000 (  4443 PWs)   bands (ev):

   -34.7749 -34.7352 -34.6446 -34.5428 -34.4461 -34.3706 -34.3492 -34.3402
   -34.3241 -34.3145 -34.2919 -34.2852 -34.2816 -34.2753 -34.2585 -34.2457
   -34.2357 -34.2245 -34.2074 -34.1960 -34.1856 -33.9179 -33.9177 -33.8789
   -33.8787 -33.8437 -33.8435   5.2182   5.5221   5.9914   6.5227   6.8519
     6.8954   6.9533   7.2856   7.3084   8.3871   8.5165   8.6506   8.7089
     8.7911   8.8361   8.9209   9.0452   9.2896   9.3413   9.4965   9.5667
     9.5783   9.6123   9.7045   9.7137   9.7502   9.8003   9.8262   9.8584
     9.9616  10.0201  10.0941  10.2264  10.3658  10.3832  10.7056  10.7664
    10.8678  10.9577  10.9717  11.1412  11.3515  11.4227  11.5340  11.7420
    11.8191  12.2015  12.2262  12.5104  12.6523  12.7911  13.5227  14.3786
    15.1726  15.7228

          k = 0.0556-0.0321 0.0000 (  4465 PWs)   bands (ev):

   -34.8101 -34.7621 -34.6577 -34.5362 -34.4150 -34.3029 -34.2744 -34.2714
   -34.2650 -34.2621 -34.2512 -34.2420 -34.2348 -34.2255 -34.2178 -34.2074
   -34.2068 -34.1877 -34.1858 -34.1800 -34.1688 -33.8881 -33.8878 -33.8335
   -33.8334 -33.8223 -33.8220   4.6118   4.9397   5.4394   5.9895   6.3622
     6.4129   6.4464   6.7857   6.8002   8.8757   8.9052   9.0928   9.1106
     9.1194   9.2080   9.2657   9.2930   9.3229   9.3340   9.3522   9.3592
     9.4462   9.4845   9.4955   9.5504   9.5842   9.5996   9.6200   9.7653
     9.8585   9.9545   9.9565   9.9588  10.6176  10.9985  11.0001  11.1537
    11.1624  11.2734  11.2926  11.3593  11.3993  11.4804  11.6408  11.7742
    11.9620  11.9838  12.0725  12.3313  12.4241  12.5790  12.7169  13.0271
    13.6352  13.9340

          k = 0.1667 0.2887 0.0000 (  4425 PWs)   bands (ev):

   -34.6858 -34.6825 -34.6526 -34.6207 -34.5845 -34.5568 -34.5359 -34.5106
   -34.4957 -34.4525 -34.3948 -34.3608 -34.3519 -34.3385 -34.3199 -34.3177
   -34.3013 -34.2855 -34.2807 -34.2667 -34.2140 -34.1003 -34.1002 -33.9176
   -33.9175 -33.8632 -33.8632   6.7598   6.8529   7.0226   7.2545   7.5279
     7.7246   7.7303   7.7820   7.8426   7.8771   7.9735   8.0110   8.1227
     8.2570   8.3469   8.4077   8.8483   8.8991   8.9303   9.0330   9.2006
     9.3366   9.4061   9.4174   9.4388   9.4968  10.0647  10.0725  10.2359
    10.3180  10.4677  10.5253  10.9122  10.9465  10.9990  11.1865  11.4279
    11.5178  11.6473  11.8021  12.0161  12.1081  12.2034  12.3427  12.3523
    12.3946  12.4685  12.5636  12.5790  13.3214  14.2925  15.3682  16.5131
    17.6076  19.2346

          k = 0.1667 0.4170 0.0000 (  4459 PWs)   bands (ev):

   -34.7233 -34.7103 -34.7050 -34.6907 -34.6669 -34.6465 -34.6306 -34.5794
   -34.5301 -34.4685 -34.4302 -34.4251 -34.4111 -34.3931 -34.3795 -34.3729
   -34.3475 -34.3469 -34.3159 -34.2944 -34.2472 -34.1970 -34.1968 -33.9803
   -33.9801 -33.8541 -33.8538   6.9221   6.9823   7.0855   7.1890   7.2846
     7.3352   7.5017   7.5298   7.5989   7.7570   7.8120   8.0586   8.1436
     8.3615   8.4708   8.6713   8.8575   8.8955   9.0353   9.1592   9.2481
     9.4559   9.5962   9.8010   9.8744  10.0149  10.0744  10.2442  10.3783
    10.5127  10.7868  11.0012  11.1033  11.1550  11.3297  11.3808  11.6662
    11.7441  12.0273  12.4989  12.5904  12.7197  12.7883  12.8363  12.9929
    13.9962  14.1316  14.2277  14.4771  15.0344  15.9179  16.9925  18.1630
    19.3291  20.3927

          k = 0.1667 0.5453 0.0000 (  4490 PWs)   bands (ev):

   -34.7821 -34.7650 -34.7404 -34.7268 -34.7243 -34.6922 -34.6889 -34.5235
   -34.5115 -34.4847 -34.4761 -34.4684 -34.4497 -34.4280 -34.3996 -34.3898
   -34.3785 -34.3560 -34.3388 -34.3051 -34.2785 -34.2430 -34.2429 -34.0144
   -34.0143 -33.8491 -33.8489   6.6102   6.8386   6.8985   7.0520   7.1145
     7.1716   7.2278   7.4416   7.5145   7.5509   7.7912   7.9062   8.0403
     8.2594   8.3579   8.5325   8.6584   9.0044   9.2564   9.3695   9.5184
     9.7228   9.8229   9.8562  10.1822  10.2387  10.2905  10.6667  10.7671
    11.0977  11.1271  11.2174  11.4755  11.7550  11.9180  12.0247  12.1313
    12.2025  12.3427  12.4924  12.5539  12.6297  12.7825  12.8981  12.9944
    15.8281  16.1453  16.5003  16.8053  17.1216  17.5147  17.9204  18.2217
    18.3869  20.3432

          k = 0.1667-0.4811 0.0000 (  4476 PWs)   bands (ev):

   -34.7612 -34.7439 -34.7289 -34.7141 -34.7040 -34.6757 -34.6690 -34.5503
   -34.5205 -34.4731 -34.4559 -34.4517 -34.4358 -34.4176 -34.3925 -34.3904
   -34.3639 -34.3560 -34.3274 -34.3038 -34.2652 -34.2274 -34.2274 -34.0025
   -34.0024 -33.8507 -33.8507   6.7212   6.9221   6.9294   7.1441   7.1524
     7.1962   7.3477   7.4808   7.5429   7.6265   7.8085   7.9606   8.0810
     8.2677   8.4395   8.6425   8.7517   8.8853   9.1912   9.2898   9.5477
     9.6250   9.7397   9.9112   9.9838  10.0433  10.3039  10.5074  10.6790
    10.8660  10.9072  11.0564  11.3721  11.5825  11.6568  11.7127  11.8227
    11.8741  12.1549  12.5278  12.6490  12.7468  12.8463  12.9505  13.0885
    14.9538  15.1619  15.3738  15.6561  16.1505  16.8893  17.8014  18.7731
    19.6252  20.5825

          k = 0.1667-0.3528 0.0000 (  4458 PWs)   bands (ev):

   -34.6880 -34.6833 -34.6672 -34.6635 -34.6277 -34.6079 -34.5859 -34.5766
   -34.5264 -34.4657 -34.4085 -34.3931 -34.3842 -34.3643 -34.3529 -34.3383
   -34.3318 -34.3244 -34.3021 -34.2807 -34.2296 -34.1536 -34.1535 -33.9506
   -33.9504 -33.8587 -33.8586   7.0143   7.1070   7.1795   7.2525   7.3801
     7.4710   7.5621   7.6480   7.7026   7.8245   7.9874   8.1096   8.2022
     8.3055   8.4339   8.5965   8.7061   8.8162   8.9873   9.1738   9.2184
     9.2483   9.3475   9.5404   9.6996   9.7438   9.9877  10.0020  10.2053
    10.4831  10.5918  10.6985  10.8880  11.0879  11.1473  11.2869  11.5704
    11.6381  11.8781  12.2977  12.3601  12.4821  12.5273  12.5955  12.7673
    13.1009  13.1748  13.2410  13.4102  14.0336  15.0094  16.1232  17.3090
    18.4624  19.5046

          k = 0.1667-0.2245 0.0000 (  4433 PWs)   bands (ev):

   -34.7162 -34.6959 -34.6402 -34.5852 -34.5357 -34.4982 -34.4715 -34.4540
   -34.4365 -34.4221 -34.3763 -34.3339 -34.3264 -34.3178 -34.3009 -34.2870
   -34.2722 -34.2614 -34.2534 -34.2393 -34.2032 -34.0431 -34.0429 -33.8872
   -33.8871 -33.8687 -33.8686   6.2228   6.4305   6.7541   7.1375   7.4058
     7.4861   7.6262   7.7514   7.8681   7.9621   8.0761   8.1548   8.2007
     8.3329   8.4453   8.5769   8.6547   8.8879   9.1415   9.1934   9.2929
     9.4057   9.4673   9.5925   9.6606   9.6797   9.8913  10.0099  10.1918
    10.4222  10.4438  10.5466  10.6087  10.7203  10.8677  10.9112  11.0409
    11.1635  11.2003  11.4874  11.5348  11.5845  11.8529  11.8892  11.8983
    12.0562  12.2069  12.3918  12.5514  12.8703  13.7303  14.7229  15.7953
    16.8059  17.6513

          k = 0.1667-0.0962 0.0000 (  4427 PWs)   bands (ev):

   -34.7648 -34.7276 -34.6417 -34.5474 -34.4611 -34.3970 -34.3771 -34.3609
   -34.3455 -34.3282 -34.3059 -34.2982 -34.2944 -34.2799 -34.2725 -34.2527
   -34.2458 -34.2317 -34.2093 -34.1987 -34.1879 -33.9439 -33.9437 -33.8773
   -33.8768 -33.8484 -33.8483   5.3985   5.6900   6.1400   6.6478   6.9436
     6.9719   7.1149   7.4075   7.4430   8.1971   8.4507   8.5456   8.6044
     8.7030   8.7912   8.8452   8.9411   9.3444   9.3851   9.4822   9.5933
     9.6011   9.6429   9.7151   9.7767   9.8410   9.8461   9.9327   9.9857
    10.0412  10.0496  10.0791  10.2210  10.3704  10.4749  10.5444  10.7276
    10.7390  10.9052  11.0099  11.1380  11.2774  11.4974  11.5124  11.7057
    12.0132  12.0852  12.3568  12.6175  12.7707  12.8399  13.7222  14.6592
    15.5061  16.1169

          k = 0.2778 0.4811 0.0000 (  4485 PWs)   bands (ev):

   -34.7163 -34.7153 -34.7018 -34.6983 -34.6683 -34.6595 -34.6211 -34.6056
   -34.5757 -34.5327 -34.5044 -34.4980 -34.4753 -34.4608 -34.4295 -34.4246
   -34.3812 -34.3600 -34.3421 -34.3205 -34.2856 -34.2049 -34.2048 -34.0744
   -34.0742 -33.8479 -33.8477   7.1531   7.1574   7.3095   7.3334   7.4464
     7.6284   7.8116   7.8725   7.9366   7.9497   8.0823   8.1009   8.2313
     8.2588   8.3788   8.4203   8.6917   8.7788   8.9426   9.0584   9.2231
     9.3647   9.5594   9.6464   9.9054   9.9082  10.1373  10.1376  10.5716
    10.6538  10.7209  10.8403  11.0763  11.1081  11.2765  11.3008  11.6214
    11.8760  12.2043  12.4891  12.6655  12.6890  12.6910  12.8217  12.9852
    16.3173  16.4517  16.7255  17.1448  17.7239  18.4691  19.3397  20.2310
    20.6959  20.7776

          k = 0.2778 0.6094 0.0000 (  4491 PWs)   bands (ev):

   -34.7173 -34.7006 -34.6891 -34.6784 -34.6607 -34.6559 -34.6387 -34.6004
   -34.5786 -34.5661 -34.5488 -34.5252 -34.5232 -34.4831 -34.4278 -34.4239
   -34.3717 -34.3606 -34.3435 -34.3255 -34.3054 -34.1964 -34.1962 -34.1071
   -34.1069 -33.8463 -33.8460   7.1134   7.3136   7.3730   7.5179   7.5715
     7.6363   7.7589   7.8477   7.9235   7.9305   8.0756   8.1353   8.1848
     8.2182   8.3377   8.4952   8.5854   8.9054   8.9654   9.1840   9.2778
     9.3719   9.4363   9.6505   9.8347   9.8735  10.1850  10.1927  10.5443
    10.6580  10.8185  10.9475  11.0449  11.1565  11.2949  11.3486  11.9438
    12.0913  12.2737  12.3616  12.4755  12.5286  12.5780  12.6318  12.7620
    17.5178  17.7040  18.0119  18.3844  18.7270  19.0351  19.3918  19.7965
    20.2214  20.3375

          k = 0.2778-0.4170 0.0000 (  4462 PWs)   bands (ev):

   -34.7269 -34.7136 -34.7093 -34.6973 -34.6739 -34.6608 -34.6373 -34.5829
   -34.5457 -34.4943 -34.4623 -34.4587 -34.4432 -34.4238 -34.4162 -34.3963
   -34.3828 -34.3592 -34.3370 -34.3065 -34.2645 -34.2066 -34.2064 -34.0283
   -34.0280 -33.8503 -33.8501   7.0020   7.1389   7.1751   7.3176   7.3628
     7.5016   7.6047   7.7035   7.7819   7.8921   8.0836   8.1148   8.2069
     8.3348   8.5428   8.5564   8.5871   8.7359   8.9627   9.0108   9.2544
     9.3838   9.5340   9.7723   9.9229   9.9511  10.1511  10.1734  10.3339
    10.5167  10.7538  10.9006  11.0648  11.1766  11.3067  11.3580  11.5185
    11.6869  12.1147  12.5282  12.7423  12.7763  12.8405  12.9289  13.0908
    15.1503  15.2392  15.4272  15.7745  16.3409  17.1455  18.1257  19.1984
    20.2585  21.1522

          k = 0.2778-0.2887 0.0000 (  4463 PWs)   bands (ev):

   -34.7070 -34.7056 -34.6862 -34.6825 -34.6431 -34.6290 -34.5975 -34.5823
   -34.5248 -34.4580 -34.4051 -34.3911 -34.3864 -34.3637 -34.3498 -34.3436
   -34.3276 -34.3040 -34.2856 -34.2749 -34.2350 -34.1757 -34.1756 -33.9381
   -33.9380 -33.8581 -33.8579   6.7611   6.8904   6.9770   7.0068   7.1720
     7.1812   7.2826   7.3773   7.4972   7.6418   7.8007   8.0062   8.0490
     8.3460   8.5465   8.8653   8.9080   9.1560   9.1928   9.2884   9.3917
     9.5201   9.6345   9.7311   9.8471  10.0669  10.1917  10.3583  10.5230
    10.5523  10.7648  10.9858  11.1603  11.2340  11.2771  11.4526  11.7672
    11.7787  12.0720  12.2165  12.3623  12.4230  12.5344  12.6148  12.7937
    12.9438  13.1377  13.1694  13.3209  13.9372  14.9436  16.1015  17.3281
    18.5197  19.5793

          k = 0.2778-0.1604 0.0000 (  4458 PWs)   bands (ev):

   -34.7072 -34.6850 -34.6528 -34.6296 -34.5907 -34.5630 -34.5318 -34.5070
   -34.4902 -34.4389 -34.3825 -34.3485 -34.3431 -34.3326 -34.3190 -34.2947
   -34.2847 -34.2700 -34.2444 -34.2271 -34.2204 -34.1056 -34.1054 -33.8894
   -33.8892 -33.8656 -33.8653   6.3784   6.5791   6.7927   6.8939   6.9731
     7.1625   7.3354   7.4280   7.5731   7.7360   7.8900   7.9679   8.2066
     8.5180   8.7240   8.8631   9.0484   9.1850   9.3399   9.4703   9.5527
     9.6006   9.6569   9.7982   9.9001  10.1155  10.1643  10.3535  10.4603
    10.4679  10.6101  10.7045  10.8901  11.0749  11.1058  11.2078  11.2498
    11.2915  11.3910  11.4478  11.6172  11.7374  11.8401  11.9425  11.9528
    12.0884  12.3830  12.6626  12.8289  12.8408  13.8943  15.0507  16.2355
    17.3374  18.2680

          k = 0.3889 0.6736 0.0000 (  4511 PWs)   bands (ev):

   -34.7543 -34.7367 -34.7081 -34.7014 -34.6962 -34.6731 -34.6663 -34.5538
   -34.5443 -34.5287 -34.5198 -34.5097 -34.4798 -34.4447 -34.4254 -34.4154
   -34.3724 -34.3721 -34.3461 -34.3138 -34.2940 -34.2230 -34.2230 -34.0644
   -34.0644 -33.8474 -33.8473   6.8362   7.0595   7.2236   7.3750   7.3965
     7.4283   7.5669   7.6387   7.7263   7.8204   8.0215   8.0462   8.1927
     8.3278   8.3634   8.4023   8.5315   8.7569   9.0320   9.2191   9.4632
     9.5925   9.7032   9.8133   9.8989  10.1405  10.2389  10.3801  10.6294
    10.6701  10.6918  11.0128  11.2656  11.4525  11.5984  11.7015  12.1247
    12.1744  12.2605  12.3504  12.5042  12.5196  12.6904  12.7797  12.8047
    17.0389  17.2522  17.5020  17.7395  17.9817  18.2572  18.5694  18.8791
    19.1443  20.4787

          k = 0.3889-0.3528 0.0000 (  4485 PWs)   bands (ev):

   -34.7952 -34.7775 -34.7583 -34.7420 -34.7354 -34.7048 -34.6964 -34.5217
   -34.5035 -34.4563 -34.4405 -34.4363 -34.4206 -34.3978 -34.3911 -34.3730
   -34.3568 -34.3278 -34.3170 -34.2919 -34.2678 -34.2503 -34.2492 -33.9711
   -33.9709 -33.8516 -33.8513   6.4505   6.6363   6.6621   6.7982   6.8704
     6.9506   6.9991   7.2029   7.2775   7.3141   7.6163   7.6692   7.8320
     8.2245   8.4977   8.7435   8.9058   9.2350   9.3352   9.4548   9.5167
     9.6496   9.9052  10.0895  10.2188  10.4839  10.6661  10.7988  11.0641
    11.2902  11.5614  11.5924  11.7048  11.9750  12.1700  12.2251  12.2558
    12.2869  12.3634  12.5644  12.6258  12.7315  12.8298  12.9691  13.0912
    14.5563  14.9375  15.3214  15.5552  15.8413  16.4119  17.1786  17.9512
    18.5209  20.2823

          k = 0.3889-0.2245 0.0000 (  4444 PWs)   bands (ev):

   -34.7712 -34.7542 -34.7475 -34.7276 -34.7080 -34.6865 -34.6598 -34.5526
   -34.5153 -34.4538 -34.4070 -34.3913 -34.3845 -34.3718 -34.3585 -34.3311
   -34.3237 -34.3033 -34.2756 -34.2623 -34.2500 -34.2306 -34.2290 -33.9249
   -33.9246 -33.8559 -33.8552   6.4100   6.4505   6.5729   6.6829   6.7401
     6.8217   6.9416   6.9786   7.1255   7.3057   7.4815   7.5305   7.8195
     8.3180   8.6678   9.0111   9.1843   9.2625   9.3501   9.5678   9.5756
     9.7200   9.9534  10.1608  10.3388  10.4308  10.8258  10.9613  11.1204
    11.4883  11.6188  11.9302  11.9570  12.1713  12.2312  12.2705  12.3203
    12.3730  12.4127  12.4717  12.5162  12.5838  12.6557  12.7710  12.8568
    12.8836  12.9511  13.2427  13.2798  13.8295  14.9619  16.2184  17.5060
    18.7612  19.9992

          k =-0.5000-0.8660 0.0000 (  4492 PWs)   bands (ev):

   -34.8271 -34.8104 -34.7910 -34.7698 -34.7692 -34.7300 -34.7296 -34.5038
   -34.4987 -34.4425 -34.4181 -34.4099 -34.4094 -34.4013 -34.3741 -34.3476
   -34.3453 -34.3164 -34.2883 -34.2876 -34.2723 -34.2620 -34.2618 -33.9391
   -33.9390 -33.8526 -33.8521   6.1761   6.3588   6.3820   6.5298   6.5918
     6.6645   6.7412   6.9042   6.9360   7.1140   7.3222   7.3472   7.6695
     8.2157   8.6258   8.8686   9.0452   9.1315   9.2413   9.4767   9.8750
     9.9022   9.9455  10.3828  10.5793  10.6385  10.9590  11.4400  11.4845
    11.5554  12.0928  12.3119  12.3513  12.4724  12.6660  12.7520  12.7674
    12.8065  12.8557  12.9091  12.9299  12.9786  13.0794  13.2539  13.2572
    13.4586  14.3542  15.1721  15.6536  15.8263  16.0872  16.2663  16.4192
    16.4799  19.9730

     the Fermi energy is    12.2021 ev

!    total energy              =   -1540.61785313 Ry
     estimated scf accuracy    <       0.00000068 Ry
     smearing contrib. (-TS)   =      -0.03867938 Ry
     internal energy E=F+TS    =   -1540.57917374 Ry

     The total energy is F=E-TS. E is the sum of the following terms:
     one-electron contribution =  -10633.12225325 Ry
     hartree contribution      =    5394.43644341 Ry
     xc contribution           =    -269.21136668 Ry
     ewald contribution        =    3967.31800277 Ry

     total magnetization       =    -0.02 Bohr mag/cell
     absolute magnetization    =     0.02 Bohr mag/cell

     convergence has been achieved in  14 iterations

     negative rho (up, down):  2.584E-01 2.583E-01

     Forces acting on atoms (cartesian axes, Ry/au):

     atom    1 type  1   force =     0.00000000    0.00000000    0.01196030
     atom    2 type  1   force =     0.00000000    0.00000000   -0.00730857
     atom    3 type  1   force =     0.00000000    0.00000000   -0.00651571
     atom    4 type  1   force =     0.00000000    0.00000000    0.00087935
     atom    5 type  1   force =     0.00000000    0.00000000   -0.00002106
     atom    6 type  1   force =     0.00000000    0.00000000   -0.00089840
     atom    7 type  1   force =     0.00000000    0.00000000    0.00653154
     atom    8 type  1   force =     0.00000000    0.00000000    0.00732891
     atom    9 type  1   force =     0.00000000    0.00000000   -0.01195636

     Total force =     0.021905     Total SCF correction =     0.004075
     SCF correction compared to forces is large: reduce conv_thr to get better values

     BFGS Geometry Optimization
     Energy error            =      0.0E+00
     Gradient error          =      1.2E-02

     number of scf cycles    =   1
     number of bfgs steps    =   0

     energy   new            =   -1540.6178531264 Ry

     new trust radius        =       0.0119602992 bohr
     new conv_thr            =       0.0000010000 Ry


ATOMIC_POSITIONS (angstrom)
Rh            0.0000000000        0.0000000000        0.0063291178
Rh            2.7108568000        1.5651139000        2.2095377721
Rh            1.3554284000        0.7825569000        4.4233626351
Rh            0.0000000000        0.0000000000        6.6406812316
Rh            2.7108568000        1.5651139000        8.8536100529
Rh            1.3554284000        0.7825569000       11.0665509881
Rh            0.0000000000        0.0000000000       13.2838880415
Rh            2.7108568000        1.5651139000       15.4977152929
Rh            1.3554284000        0.7825569000       17.7009152679



     Writing output data file /home/STUDENTI/leonardo.razzai/WORK/relax_surf/9-L.save/
     NEW-OLD atomic charge density approx. for the potential

     negative rho (up, down):  2.576E-01 2.575E-01
     Generating pointlists ...

     total cpu time spent up to now is      352.1 secs

     Self-consistent Calculation

     iteration #  1     ecut=    35.00 Ry     beta= 0.40
     Davidson diagonalization with overlap
     ethr =  1.00E-06,  avg # of iterations =  6.4

     negative rho (up, down):  2.576E-01 2.575E-01

     total cpu time spent up to now is      396.1 secs

     total energy              =   -1540.61785080 Ry
     estimated scf accuracy    <       0.02746547 Ry

     total magnetization       =    -0.01 Bohr mag/cell
     absolute magnetization    =     0.01 Bohr mag/cell

     iteration #  2     ecut=    35.00 Ry     beta= 0.40
     Davidson diagonalization with overlap
     ethr =  2.03E-05,  avg # of iterations =  1.0

     negative rho (up, down):  2.576E-01 2.575E-01

     total cpu time spent up to now is      415.4 secs

     total energy              =   -1540.61817293 Ry
     estimated scf accuracy    <       0.01528357 Ry

     total magnetization       =    -0.01 Bohr mag/cell
     absolute magnetization    =     0.01 Bohr mag/cell

     iteration #  3     ecut=    35.00 Ry     beta= 0.40
     Davidson diagonalization with overlap
     ethr =  1.13E-05,  avg # of iterations =  1.0

     negative rho (up, down):  2.576E-01 2.575E-01

     total cpu time spent up to now is      434.7 secs

     total energy              =   -1540.61827656 Ry
     estimated scf accuracy    <       0.00056205 Ry

     total magnetization       =    -0.01 Bohr mag/cell
     absolute magnetization    =     0.01 Bohr mag/cell

     iteration #  4     ecut=    35.00 Ry     beta= 0.40
     Davidson diagonalization with overlap
     ethr =  4.16E-07,  avg # of iterations =  1.0

     negative rho (up, down):  2.576E-01 2.575E-01

     total cpu time spent up to now is      454.0 secs

     total energy              =   -1540.61826631 Ry
     estimated scf accuracy    <       0.00024949 Ry

     total magnetization       =    -0.01 Bohr mag/cell
     absolute magnetization    =     0.01 Bohr mag/cell

     iteration #  5     ecut=    35.00 Ry     beta= 0.40
     Davidson diagonalization with overlap
     ethr =  1.85E-07,  avg # of iterations =  1.3

     negative rho (up, down):  2.576E-01 2.575E-01

     total cpu time spent up to now is      473.6 secs

     total energy              =   -1540.61827066 Ry
     estimated scf accuracy    <       0.00001244 Ry

     total magnetization       =    -0.00 Bohr mag/cell
     absolute magnetization    =     0.00 Bohr mag/cell

     iteration #  6     ecut=    35.00 Ry     beta= 0.40
     Davidson diagonalization with overlap
     ethr =  9.22E-09,  avg # of iterations =  1.1

     negative rho (up, down):  2.576E-01 2.575E-01

     total cpu time spent up to now is      493.1 secs

     total energy              =   -1540.61827111 Ry
     estimated scf accuracy    <       0.00000234 Ry

     total magnetization       =    -0.00 Bohr mag/cell
     absolute magnetization    =     0.00 Bohr mag/cell

     iteration #  7     ecut=    35.00 Ry     beta= 0.40
     Davidson diagonalization with overlap
     ethr =  1.73E-09,  avg # of iterations =  1.5

     negative rho (up, down):  2.575E-01 2.575E-01

     total cpu time spent up to now is      513.3 secs

     total energy              =   -1540.61827117 Ry
     estimated scf accuracy    <       0.00000325 Ry

     total magnetization       =    -0.00 Bohr mag/cell
     absolute magnetization    =     0.00 Bohr mag/cell

     iteration #  8     ecut=    35.00 Ry     beta= 0.40
     Davidson diagonalization with overlap
     ethr =  1.73E-09,  avg # of iterations =  1.0

     negative rho (up, down):  2.575E-01 2.575E-01

     total cpu time spent up to now is      532.8 secs

     total energy              =   -1540.61827134 Ry
     estimated scf accuracy    <       0.00000391 Ry

     total magnetization       =    -0.00 Bohr mag/cell
     absolute magnetization    =     0.00 Bohr mag/cell

     iteration #  9     ecut=    35.00 Ry     beta= 0.40
     Davidson diagonalization with overlap
     ethr =  1.73E-09,  avg # of iterations =  1.1

     negative rho (up, down):  2.575E-01 2.575E-01
 
     Magnetic moment per site:
     atom:    1    charge:   13.1785    magn:   -0.0000    constr:    0.0000
     atom:    2    charge:   13.2394    magn:   -0.0000    constr:    0.0000
     atom:    3    charge:   13.2462    magn:   -0.0000    constr:    0.0000
     atom:    4    charge:   13.2486    magn:   -0.0000    constr:    0.0000
     atom:    5    charge:   13.2485    magn:   -0.0000    constr:    0.0000
     atom:    6    charge:   13.2483    magn:   -0.0000    constr:    0.0000
     atom:    7    charge:   13.2465    magn:   -0.0000    constr:    0.0000
     atom:    8    charge:   13.2386    magn:   -0.0000    constr:    0.0000
     atom:    9    charge:   13.1783    magn:   -0.0000    constr:    0.0000

     total cpu time spent up to now is      552.0 secs

     End of self-consistent calculation

 ------ SPIN UP ------------


          k = 0.0556 0.0962 0.0000 (  4451 PWs)   bands (ev):

   -34.7935 -34.7504 -34.6560 -34.5390 -34.4237 -34.3223 -34.2996 -34.2946
   -34.2801 -34.2758 -34.2660 -34.2627 -34.2426 -34.2424 -34.2365 -34.2215
   -34.2084 -34.2067 -34.1859 -34.1841 -34.1726 -33.8959 -33.8954 -33.8699
   -33.8697 -33.8379 -33.8379   4.8236   5.1410   5.6269   6.1774   6.5431
     6.5944   6.6251   6.9519   6.9700   8.7067   8.7269   8.9259   8.9668
     8.9797   9.0781   9.1800   9.2683   9.3420   9.4233   9.4304   9.4836
     9.5007   9.5432   9.5565   9.5790   9.6365   9.6625   9.7357   9.7773
     9.8018   9.8538  10.0754  10.0903  10.2494  10.8249  10.8702  10.8711
    11.0446  11.0952  11.2556  11.3102  11.3843  11.4478  11.5547  11.6259
    11.8204  11.9365  12.2393  12.3654  12.5403  12.6686  12.9289  13.6312
    14.3115  14.7102

          k = 0.0556 0.2245 0.0000 (  4420 PWs)   bands (ev):

   -34.7393 -34.7104 -34.6402 -34.5609 -34.4932 -34.4453 -34.4172 -34.4020
   -34.3781 -34.3718 -34.3404 -34.3099 -34.3085 -34.2985 -34.2826 -34.2630
   -34.2539 -34.2414 -34.2226 -34.2054 -34.1930 -33.9965 -33.9962 -33.8837
   -33.8834 -33.8710 -33.8709   5.7469   6.0065   6.4074   6.8725   7.1275
     7.1889   7.3594   7.6039   7.6672   8.0149   8.2547   8.3927   8.4062
     8.5247   8.6244   8.7107   8.7763   9.1366   9.3231   9.4095   9.4966
     9.5631   9.6653   9.6818   9.7128   9.8188   9.8427   9.9967  10.1247
    10.1605  10.2434  10.3878  10.4625  10.5392  10.5655  10.6243  10.7272
    10.8356  10.9284  11.0534  11.1502  11.4516  11.5605  11.5971  11.7789
    12.0041  12.1788  12.5174  12.5194  12.6857  13.2484  14.1655  15.1675
    16.0913  16.8036

          k = 0.0556 0.3528 0.0000 (  4467 PWs)   bands (ev):

   -34.7014 -34.6825 -34.6680 -34.6574 -34.6171 -34.6055 -34.5721 -34.5463
   -34.5145 -34.4516 -34.3920 -34.3643 -34.3606 -34.3397 -34.3347 -34.3123
   -34.2970 -34.2766 -34.2621 -34.2386 -34.2242 -34.1514 -34.1512 -33.9151
   -33.9149 -33.8730 -33.8728   6.5495   6.7572   6.8613   6.9183   6.9780
     7.1434   7.1991   7.3692   7.4501   7.6727   7.7784   7.9461   8.0793
     8.4427   8.7014   8.8749   9.0544   9.2034   9.3510   9.4587   9.5298
     9.5561   9.5769   9.8035   9.8500  10.1563  10.1796  10.4204  10.5661
    10.6037  10.7143  10.8925  11.0960  11.2489  11.3506  11.4048  11.5162
    11.6847  11.7360  11.7978  11.9556  12.0979  12.1499  12.2855  12.3339
    12.3808  12.4243  12.5983  12.7794  13.2203  14.2887  15.4735  16.6982
    17.8579  18.8579

          k = 0.0556 0.4811 0.0000 (  4463 PWs)   bands (ev):

   -34.7882 -34.7731 -34.7566 -34.7424 -34.7268 -34.7030 -34.6823 -34.5369
   -34.5143 -34.4547 -34.4141 -34.4057 -34.3951 -34.3844 -34.3682 -34.3472
   -34.3351 -34.3054 -34.2931 -34.2648 -34.2617 -34.2511 -34.2460 -33.9481
   -33.9480 -33.8652 -33.8647   6.3755   6.4830   6.5555   6.6967   6.7196
     6.8167   6.8982   7.0203   7.1168   7.2457   7.4780   7.5087   7.7697
     8.2568   8.6004   8.9191   9.0856   9.2558   9.3181   9.5426   9.5601
     9.7261   9.9568  10.2429  10.2904  10.4810  10.8912  10.9791  11.1118
    11.5377  11.6317  11.9097  11.9657  12.0803  12.3071  12.3867  12.4223
    12.4619  12.5046  12.5319  12.6181  12.6624  12.8027  12.8918  13.0153
    13.3700  13.7994  14.1840  14.3084  14.6151  15.4656  16.5656  17.7078
    18.7512  20.2319

          k = 0.0556-0.5453 0.0000 (  4486 PWs)   bands (ev):

   -34.8164 -34.8008 -34.7799 -34.7626 -34.7570 -34.7238 -34.7162 -34.5135
   -34.5069 -34.4449 -34.4206 -34.4149 -34.4072 -34.3997 -34.3786 -34.3540
   -34.3464 -34.3129 -34.3021 -34.2768 -34.2757 -34.2639 -34.2598 -33.9558
   -33.9556 -33.8636 -33.8632   6.2545   6.4327   6.4572   6.5982   6.6645
     6.7358   6.7983   6.9766   7.0243   7.1537   7.3943   7.4174   7.6974
     8.2183   8.5867   8.8349   9.0162   9.1855   9.2695   9.5073   9.7041
     9.8007   9.9391  10.4276  10.4587  10.4611  11.0464  11.1818  11.2566
    11.6691  11.8830  12.1260  12.2113  12.3494  12.4270  12.5723  12.6504
    12.6895  12.7241  12.7669  12.8126  12.8438  12.9503  13.0484  13.1233
    13.9701  14.5828  15.2354  15.6864  15.7395  15.9017  16.4273  17.0032
    17.4042  20.0527

          k = 0.0556-0.4170 0.0000 (  4465 PWs)   bands (ev):

   -34.7370 -34.7288 -34.7174 -34.7042 -34.6764 -34.6581 -34.6245 -34.5714
   -34.5242 -34.4574 -34.4034 -34.3882 -34.3818 -34.3630 -34.3525 -34.3328
   -34.3175 -34.2924 -34.2795 -34.2537 -34.2423 -34.2118 -34.2111 -33.9343
   -33.9341 -33.8685 -33.8681   6.5535   6.5951   6.7328   6.7804   6.8990
     6.9554   7.0605   7.1084   7.2648   7.4267   7.6006   7.7048   7.8985
     8.3424   8.6365   8.9922   9.2386   9.2906   9.3731   9.4098   9.5402
     9.6530   9.7857  10.0496  10.0697  10.3001  10.5263  10.6305  10.9807
    11.0831  11.2757  11.4030  11.4947  11.7653  11.8543  11.9408  12.0114
    12.0762  12.1535  12.2472  12.3188  12.4786  12.5054  12.6469  12.7334
    12.8723  12.9819  13.0932  13.1678  13.7900  14.8771  16.1096  17.3885
    18.6358  19.7509

          k = 0.0556-0.2887 0.0000 (  4439 PWs)   bands (ev):

   -34.7078 -34.6890 -34.6430 -34.6010 -34.5603 -34.5276 -34.4966 -34.4733
   -34.4548 -34.4252 -34.3742 -34.3365 -34.3351 -34.3199 -34.3097 -34.2868
   -34.2753 -34.2595 -34.2425 -34.2214 -34.2072 -34.0758 -34.0757 -33.8929
   -33.8928 -33.8780 -33.8779   6.2739   6.4719   6.7448   7.0167   7.1191
     7.2763   7.5075   7.5626   7.7880   7.8291   8.0443   8.0848   8.2812
     8.4706   8.4902   8.7056   8.8874   8.9286   9.2158   9.4441   9.5497
     9.6096   9.6483   9.7014   9.8144   9.8718   9.9870  10.0550  10.1710
    10.3386  10.5715  10.5932  10.6524  10.7735  10.9139  10.9516  11.1108
    11.1633  11.2065  11.4398  11.5330  11.6270  11.8148  11.8449  11.9225
    12.1380  12.2518  12.5392  12.7226  12.8321  13.7491  14.8186  15.9436
    16.9909  17.8619

          k = 0.0556-0.1604 0.0000 (  4443 PWs)   bands (ev):

   -34.7706 -34.7329 -34.6477 -34.5443 -34.4472 -34.3731 -34.3493 -34.3374
   -34.3227 -34.3133 -34.2903 -34.2828 -34.2812 -34.2731 -34.2579 -34.2429
   -34.2335 -34.2217 -34.2030 -34.1924 -34.1821 -33.9264 -33.9262 -33.8886
   -33.8884 -33.8521 -33.8519   5.2202   5.5202   5.9830   6.5173   6.8555
     6.8964   6.9547   7.2696   7.2938   8.3888   8.5160   8.6510   8.7130
     8.7925   8.8366   8.9117   9.0374   9.2823   9.3382   9.4969   9.5675
     9.5808   9.6131   9.7054   9.7144   9.7511   9.7980   9.8251   9.8563
     9.9549  10.0180  10.0945  10.2256  10.3539  10.3700  10.7067  10.7687
    10.8645  10.9577  10.9677  11.1410  11.3512  11.4239  11.5334  11.7391
    11.8181  12.2023  12.2262  12.5144  12.6540  12.7925  13.5231  14.3836
    15.1800  15.7257

          k = 0.0556-0.0321 0.0000 (  4465 PWs)   bands (ev):

   -34.8057 -34.7599 -34.6616 -34.5384 -34.4161 -34.3012 -34.2738 -34.2716
   -34.2646 -34.2628 -34.2509 -34.2414 -34.2330 -34.2236 -34.2149 -34.2051
   -34.2028 -34.1832 -34.1821 -34.1765 -34.1652 -33.8978 -33.8975 -33.8418
   -33.8417 -33.8306 -33.8304   4.6138   4.9375   5.4306   5.9844   6.3642
     6.4138   6.4507   6.7699   6.7853   8.8758   8.9087   9.0929   9.1132
     9.1219   9.2089   9.2692   9.2904   9.3267   9.3362   9.3518   9.3564
     9.4462   9.4800   9.4995   9.5493   9.5824   9.5977   9.6207   9.7590
     9.8466   9.9400   9.9444   9.9535  10.6140  11.0020  11.0034  11.1554
    11.1636  11.2724  11.2923  11.3548  11.3962  11.4784  11.6351  11.7693
    11.9629  11.9793  12.0754  12.3330  12.4224  12.5821  12.7191  13.0297
    13.6418  13.9376

          k = 0.1667 0.2887 0.0000 (  4425 PWs)   bands (ev):

   -34.6817 -34.6790 -34.6508 -34.6192 -34.5855 -34.5612 -34.5380 -34.5077
   -34.4935 -34.4518 -34.3941 -34.3623 -34.3551 -34.3363 -34.3197 -34.3141
   -34.2970 -34.2808 -34.2779 -34.2634 -34.2104 -34.1079 -34.1077 -33.9259
   -33.9258 -33.8738 -33.8738   6.7627   6.8538   7.0197   7.2504   7.5222
     7.7270   7.7331   7.7748   7.8466   7.8754   7.9721   8.0017   8.1100
     8.2443   8.3389   8.4079   8.8440   8.8936   8.9285   9.0275   9.1975
     9.3335   9.3931   9.4056   9.4449   9.5023  10.0650  10.0727  10.2341
    10.3159  10.4656  10.5226  10.9137  10.9430  10.9983  11.1909  11.4222
    11.5141  11.6490  11.8018  12.0172  12.1094  12.2035  12.3461  12.3523
    12.3969  12.4690  12.5612  12.5807  13.3242  14.2966  15.3732  16.5178
    17.6137  18.5749

          k = 0.1667 0.4170 0.0000 (  4459 PWs)   bands (ev):

   -34.7205 -34.7094 -34.7020 -34.6878 -34.6669 -34.6466 -34.6280 -34.5792
   -34.5311 -34.4703 -34.4334 -34.4291 -34.4107 -34.3885 -34.3770 -34.3704
   -34.3453 -34.3432 -34.3126 -34.2906 -34.2437 -34.2037 -34.2035 -33.9884
   -33.9882 -33.8653 -33.8650   6.9261   6.9859   7.0863   7.1886   7.2810
     7.3379   7.4962   7.5199   7.5909   7.7471   7.8066   8.0521   8.1381
     8.3542   8.4630   8.6640   8.8549   8.8943   9.0356   9.1564   9.2476
     9.4551   9.5895   9.7988   9.8741  10.0103  10.0705  10.2369  10.3745
    10.5053  10.7846  11.0025  11.1045  11.1565  11.3290  11.3842  11.6704
    11.7467  12.0303  12.5018  12.5925  12.7209  12.7891  12.8383  12.9947
    13.9980  14.1329  14.2262  14.4740  15.0341  15.9208  16.9976  18.1663
    19.3324  20.3973

          k = 0.1667 0.5453 0.0000 (  4490 PWs)   bands (ev):

   -34.7791 -34.7645 -34.7394 -34.7246 -34.7232 -34.6907 -34.6858 -34.5251
   -34.5147 -34.4848 -34.4738 -34.4713 -34.4510 -34.4273 -34.3978 -34.3874
   -34.3756 -34.3520 -34.3352 -34.3013 -34.2749 -34.2493 -34.2491 -34.0224
   -34.0223 -33.8605 -33.8604   6.6142   6.8377   6.9020   7.0558   7.1132
     7.1636   7.2248   7.4317   7.5067   7.5438   7.7865   7.8981   8.0272
     8.2517   8.3493   8.5338   8.6634   8.9991   9.2544   9.3615   9.5151
     9.7210   9.8204   9.8594  10.1749  10.2350  10.2916  10.6630  10.7635
    11.0941  11.1213  11.2148  11.4766  11.7579  11.9200  12.0273  12.1338
    12.2060  12.3467  12.4947  12.5565  12.6314  12.7845  12.9008  12.9965
    15.8293  16.1447  16.4988  16.8044  17.1210  17.5153  17.9237  18.2235
    18.3875  20.3491

          k = 0.1667-0.4811 0.0000 (  4476 PWs)   bands (ev):

   -34.7583 -34.7436 -34.7264 -34.7116 -34.7039 -34.6744 -34.6662 -34.5500
   -34.5226 -34.4740 -34.4591 -34.4557 -34.4340 -34.4144 -34.3904 -34.3886
   -34.3617 -34.3519 -34.3241 -34.2999 -34.2617 -34.2338 -34.2337 -34.0105
   -34.0105 -33.8621 -33.8620   6.7252   6.9219   6.9329   7.1432   7.1556
     7.1910   7.3421   7.4720   7.5336   7.6195   7.8024   7.9544   8.0702
     8.2597   8.4308   8.6429   8.7567   8.8786   9.1921   9.2799   9.5451
     9.6234   9.7394   9.9085   9.9845  10.0395  10.2975  10.5040  10.6745
    10.8592  10.9020  11.0562  11.3735  11.5847  11.6579  11.7164  11.8267
    11.8777  12.1581  12.5307  12.6515  12.7487  12.8473  12.9530  13.0905
    14.9554  15.1619  15.3723  15.6544  16.1500  16.8911  17.8055  18.7752
    19.6256  20.5845

          k = 0.1667-0.3528 0.0000 (  4458 PWs)   bands (ev):

   -34.6846 -34.6810 -34.6632 -34.6611 -34.6265 -34.6112 -34.5885 -34.5740
   -34.5256 -34.4668 -34.4090 -34.3960 -34.3870 -34.3622 -34.3483 -34.3372
   -34.3277 -34.3209 -34.2986 -34.2772 -34.2260 -34.1608 -34.1606 -33.9588
   -33.9586 -33.8696 -33.8695   7.0177   7.1105   7.1803   7.2528   7.3775
     7.4658   7.5621   7.6399   7.6971   7.8170   7.9810   8.1059   8.1963
     8.2964   8.4270   8.5920   8.7011   8.8120   8.9849   9.1675   9.2207
     9.2518   9.3409   9.5354   9.6908   9.7385   9.9868  10.0007  10.2029
    10.4789  10.5914  10.6997  10.8867  11.0890  11.1473  11.2883  11.5712
    11.6377  11.8807  12.2999  12.3607  12.4844  12.5291  12.5964  12.7689
    13.1029  13.1769  13.2401  13.4055  14.0345  15.0134  16.1287  17.3131
    18.4673  19.5089

          k = 0.1667-0.2245 0.0000 (  4433 PWs)   bands (ev):

   -34.7119 -34.6930 -34.6407 -34.5849 -34.5370 -34.5022 -34.4734 -34.4503
   -34.4349 -34.4195 -34.3745 -34.3337 -34.3276 -34.3173 -34.3002 -34.2846
   -34.2686 -34.2582 -34.2495 -34.2356 -34.1996 -34.0510 -34.0508 -33.8955
   -33.8954 -33.8789 -33.8788   6.2251   6.4297   6.7480   7.1322   7.4087
     7.4834   7.6244   7.7459   7.8627   7.9572   8.0767   8.1528   8.1959
     8.3228   8.4393   8.5771   8.6479   8.8829   9.1381   9.1910   9.2875
     9.4031   9.4649   9.5870   9.6625   9.6815   9.8913  10.0102  10.1896
    10.4192  10.4382  10.5402  10.6123  10.7202  10.8712  10.9068  11.0367
    11.1634  11.2008  11.4813  11.5305  11.5822  11.8537  11.8910  11.8985
    12.0586  12.2094  12.3952  12.5540  12.8733  13.7335  14.7266  15.8005
    16.8128  17.6543

          k = 0.1667-0.0962 0.0000 (  4427 PWs)   bands (ev):

   -34.7605 -34.7252 -34.6444 -34.5487 -34.4622 -34.3999 -34.3766 -34.3591
   -34.3436 -34.3273 -34.3014 -34.2971 -34.2946 -34.2769 -34.2725 -34.2510
   -34.2428 -34.2297 -34.2050 -34.1952 -34.1843 -33.9522 -33.9521 -33.8871
   -33.8867 -33.8568 -33.8566   5.4005   5.6882   6.1318   6.6425   6.9478
     6.9722   7.1139   7.3923   7.4301   8.1991   8.4478   8.5492   8.6078
     8.7021   8.7840   8.8433   8.9289   9.3407   9.3817   9.4826   9.5937
     9.6059   9.6422   9.7163   9.7759   9.8389   9.8501   9.9328   9.9859
    10.0328  10.0495  10.0731  10.2216  10.3586  10.4634  10.5442  10.7229
    10.7378  10.9040  11.0095  11.1422  11.2743  11.4961  11.5137  11.7037
    12.0113  12.0857  12.3607  12.6217  12.7730  12.8403  13.7227  14.6646
    15.5136  16.1197

          k = 0.2778 0.4811 0.0000 (  4485 PWs)   bands (ev):

   -34.7143 -34.7137 -34.6986 -34.6967 -34.6667 -34.6592 -34.6197 -34.6030
   -34.5740 -34.5346 -34.5050 -34.5010 -34.4744 -34.4600 -34.4305 -34.4250
   -34.3782 -34.3563 -34.3391 -34.3156 -34.2820 -34.2118 -34.2117 -34.0821
   -34.0819 -33.8594 -33.8592   7.1562   7.1627   7.3084   7.3375   7.4399
     7.6184   7.8020   7.8709   7.9360   7.9535   8.0787   8.0989   8.2142
     8.2447   8.3715   8.4139   8.6862   8.7766   8.9352   9.0541   9.2182
     9.3647   9.5582   9.6471   9.8987   9.9025  10.1270  10.1278  10.5723
    10.6532  10.7222  10.8415  11.0778  11.1106  11.2817  11.3062  11.6253
    11.8796  12.2068  12.4922  12.6688  12.6915  12.6928  12.8246  12.9871
    16.3193  16.4518  16.7233  17.1434  17.7238  18.4704  19.3425  20.2326
    20.6958  20.7797

          k = 0.2778 0.6094 0.0000 (  4491 PWs)   bands (ev):

   -34.7144 -34.7004 -34.6852 -34.6774 -34.6598 -34.6536 -34.6369 -34.5999
   -34.5790 -34.5662 -34.5472 -34.5262 -34.5206 -34.4821 -34.4329 -34.4279
   -34.3672 -34.3561 -34.3400 -34.3207 -34.3019 -34.2036 -34.2034 -34.1146
   -34.1144 -33.8579 -33.8576   7.1177   7.3136   7.3771   7.5206   7.5636
     7.6360   7.7533   7.8511   7.9200   7.9264   8.0572   8.1222   8.1786
     8.2173   8.3309   8.4864   8.5752   8.9026   8.9586   9.1797   9.2724
     9.3720   9.4381   9.6475   9.8272   9.8684  10.1754  10.1836  10.5448
    10.6567  10.8207  10.9490  11.0460  11.1601  11.3022  11.3549  11.9468
    12.0947  12.2768  12.3643  12.4787  12.5309  12.5803  12.6345  12.7639
    17.5195  17.7039  18.0103  18.3838  18.7268  19.0345  19.3930  19.7970
    20.2212  20.3378

          k = 0.2778-0.4170 0.0000 (  4462 PWs)   bands (ev):

   -34.7244 -34.7136 -34.7065 -34.6935 -34.6745 -34.6587 -34.6360 -34.5814
   -34.5451 -34.4957 -34.4671 -34.4645 -34.4426 -34.4212 -34.4119 -34.3936
   -34.3802 -34.3561 -34.3343 -34.3021 -34.2609 -34.2133 -34.2132 -34.0363
   -34.0360 -33.8617 -33.8614   7.0062   7.1425   7.1762   7.3160   7.3622
     7.4967   7.6017   7.6936   7.7743   7.8851   8.0834   8.1061   8.1990
     8.3275   8.5386   8.5470   8.5830   8.7330   8.9563   9.0084   9.2518
     9.3824   9.5332   9.7681   9.9184   9.9475  10.1421  10.1670  10.3329
    10.5133  10.7546  10.9017  11.0667  11.1774  11.3091  11.3602  11.5235
    11.6918  12.1175  12.5312  12.7447  12.7784  12.8426  12.9312  13.0927
    15.1524  15.2399  15.4249  15.7724  16.3406  17.1474  18.1297  19.2010
    20.2609  21.1554

          k = 0.2778-0.2887 0.0000 (  4463 PWs)   bands (ev):

   -34.7037 -34.7028 -34.6841 -34.6801 -34.6429 -34.6305 -34.5953 -34.5827
   -34.5259 -34.4599 -34.4054 -34.3925 -34.3862 -34.3622 -34.3471 -34.3409
   -34.3264 -34.2999 -34.2822 -34.2713 -34.2316 -34.1826 -34.1825 -33.9463
   -33.9462 -33.8690 -33.8688   6.7644   6.8944   6.9759   7.0083   7.1702
     7.1825   7.2739   7.3733   7.4875   7.6329   7.7906   7.9998   8.0421
     8.3419   8.5401   8.8592   8.9075   9.1534   9.1928   9.2906   9.3915
     9.5164   9.6344   9.7285   9.8434  10.0648  10.1821  10.3522  10.5205
    10.5460  10.7591  10.9837  11.1620  11.2357  11.2786  11.4538  11.7670
    11.7809  12.0716  12.2208  12.3625  12.4256  12.5351  12.6168  12.7955
    12.9452  13.1393  13.1691  13.3168  13.9383  14.9477  16.1072  17.3321
    18.5240  19.5837

          k = 0.2778-0.1604 0.0000 (  4458 PWs)   bands (ev):

   -34.7030 -34.6822 -34.6501 -34.6285 -34.5926 -34.5667 -34.5331 -34.5043
   -34.4891 -34.4386 -34.3819 -34.3467 -34.3429 -34.3309 -34.3193 -34.2934
   -34.2809 -34.2682 -34.2403 -34.2235 -34.2169 -34.1132 -34.1129 -33.8976
   -33.8975 -33.8761 -33.8759   6.3811   6.5784   6.7901   6.8955   6.9696
     7.1565   7.3370   7.4198   7.5705   7.7273   7.8825   7.9619   8.1995
     8.5107   8.7233   8.8588   9.0461   9.1844   9.3372   9.4721   9.5536
     9.6058   9.6573   9.7975   9.8988  10.1028  10.1609  10.3464  10.4531
    10.4615  10.6094  10.7005  10.8840  11.0703  11.1081  11.2105  11.2494
    11.2937  11.3958  11.4457  11.6117  11.7327  11.8386  11.9450  11.9533
    12.0891  12.3891  12.6679  12.8315  12.8432  13.8978  15.0550  16.2407
    17.3437  18.2715

          k = 0.3889 0.6736 0.0000 (  4511 PWs)   bands (ev):

   -34.7513 -34.7361 -34.7079 -34.6989 -34.6945 -34.6712 -34.6635 -34.5540
   -34.5464 -34.5255 -34.5182 -34.5100 -34.4825 -34.4480 -34.4272 -34.4132
   -34.3683 -34.3681 -34.3426 -34.3094 -34.2904 -34.2298 -34.2297 -34.0722
   -34.0722 -33.8589 -33.8588   6.8403   7.0588   7.2275   7.3755   7.3859
     7.4321   7.5671   7.6334   7.7199   7.8106   8.0091   8.0344   8.1857
     8.3238   8.3616   8.4008   8.5235   8.7517   9.0280   9.2112   9.4587
     9.5909   9.6978   9.8164   9.8963  10.1399  10.2372  10.3755  10.6204
    10.6633  10.6924  11.0144  11.2676  11.4561  11.6019  11.7048  12.1273
    12.1791  12.2636  12.3533  12.5070  12.5214  12.6935  12.7813  12.8072
    17.0400  17.2523  17.5018  17.7386  17.9799  18.2555  18.5720  18.8814
    19.1445  20.4791

          k = 0.3889-0.3528 0.0000 (  4485 PWs)   bands (ev):

   -34.7923 -34.7771 -34.7562 -34.7414 -34.7336 -34.7035 -34.6935 -34.5244
   -34.5094 -34.4571 -34.4407 -34.4355 -34.4178 -34.3951 -34.3900 -34.3706
   -34.3561 -34.3240 -34.3135 -34.2889 -34.2656 -34.2559 -34.2534 -33.9792
   -33.9791 -33.8630 -33.8627   6.4544   6.6397   6.6613   6.8017   6.8687
     6.9455   6.9939   7.1957   7.2724   7.3054   7.6060   7.6589   7.8214
     8.2192   8.4916   8.7452   8.9109   9.2305   9.3326   9.4545   9.5156
     9.6486   9.8961  10.0895  10.2149  10.4765  10.6653  10.7959  11.0599
    11.2857  11.5581  11.5911  11.7034  11.9791  12.1723  12.2258  12.2582
    12.2881  12.3668  12.5663  12.6287  12.7331  12.8299  12.9707  13.0933
    14.5574  14.9363  15.3196  15.5552  15.8412  16.4136  17.1829  17.9534
    18.5214  20.2813

          k = 0.3889-0.2245 0.0000 (  4444 PWs)   bands (ev):

   -34.7682 -34.7539 -34.7432 -34.7275 -34.7065 -34.6864 -34.6570 -34.5534
   -34.5196 -34.4563 -34.4057 -34.3892 -34.3840 -34.3691 -34.3592 -34.3300
   -34.3197 -34.3017 -34.2716 -34.2602 -34.2465 -34.2367 -34.2338 -33.9331
   -33.9329 -33.8671 -33.8664   6.4137   6.4536   6.5724   6.6808   6.7442
     6.8141   6.9367   6.9776   7.1191   7.2952   7.4682   7.5209   7.8110
     8.3132   8.6651   9.0104   9.1860   9.2637   9.3551   9.5658   9.5744
     9.7212   9.9390  10.1603  10.3363  10.4206  10.8225  10.9541  11.1197
    11.4843  11.6147  11.9316  11.9552  12.1729  12.2303  12.2755  12.3215
    12.3751  12.4105  12.4760  12.5173  12.5864  12.6553  12.7654  12.8551
    12.8831  12.9525  13.2424  13.2808  13.8315  14.9661  16.2249  17.5095
    18.7628  20.0039

          k =-0.5000-0.8660 0.0000 (  4492 PWs)   bands (ev):

   -34.8241 -34.8100 -34.7893 -34.7687 -34.7677 -34.7287 -34.7263 -34.5114
   -34.5074 -34.4366 -34.4131 -34.4087 -34.4071 -34.4007 -34.3749 -34.3443
   -34.3440 -34.3149 -34.2902 -34.2844 -34.2775 -34.2617 -34.2583 -33.9473
   -33.9472 -33.8641 -33.8636   6.1798   6.3620   6.3807   6.5336   6.5902
     6.6545   6.7411   6.8991   6.9329   7.1042   7.3104   7.3336   7.6603
     8.2098   8.6225   8.8698   9.0471   9.1331   9.2463   9.4752   9.8600
     9.9025   9.9456  10.3725  10.5803  10.6349  10.9519  11.4395  11.4816
    11.5525  12.0977  12.3120  12.3518  12.4761  12.6679  12.7555  12.7695
    12.8059  12.8564  12.9099  12.9316  12.9805  13.0807  13.2468  13.2505
    13.4587  14.3520  15.1698  15.6545  15.8297  16.0885  16.2707  16.4212
    16.4819  19.9673

 ------ SPIN DOWN ----------


          k = 0.0556 0.0962 0.0000 (  4451 PWs)   bands (ev):

   -34.7936 -34.7504 -34.6561 -34.5390 -34.4237 -34.3223 -34.2996 -34.2946
   -34.2801 -34.2758 -34.2661 -34.2627 -34.2426 -34.2425 -34.2365 -34.2215
   -34.2085 -34.2067 -34.1859 -34.1841 -34.1727 -33.8960 -33.8954 -33.8700
   -33.8697 -33.8380 -33.8379   4.8236   5.1410   5.6269   6.1774   6.5431
     6.5944   6.6251   6.9519   6.9700   8.7067   8.7269   8.9259   8.9667
     8.9796   9.0781   9.1799   9.2683   9.3420   9.4233   9.4304   9.4836
     9.5007   9.5431   9.5565   9.5790   9.6365   9.6624   9.7357   9.7773
     9.8018   9.8537  10.0754  10.0903  10.2494  10.8249  10.8702  10.8711
    11.0446  11.0952  11.2556  11.3102  11.3843  11.4478  11.5546  11.6259
    11.8204  11.9365  12.2393  12.3654  12.5402  12.6685  12.9289  13.6312
    14.3115  14.7102

          k = 0.0556 0.2245 0.0000 (  4420 PWs)   bands (ev):

   -34.7393 -34.7105 -34.6403 -34.5610 -34.4932 -34.4454 -34.4173 -34.4021
   -34.3781 -34.3718 -34.3404 -34.3100 -34.3085 -34.2986 -34.2827 -34.2630
   -34.2539 -34.2415 -34.2227 -34.2054 -34.1931 -33.9965 -33.9962 -33.8838
   -33.8834 -33.8711 -33.8709   5.7469   6.0065   6.4074   6.8725   7.1274
     7.1889   7.3593   7.6038   7.6672   8.0148   8.2547   8.3927   8.4062
     8.5247   8.6244   8.7107   8.7762   9.1366   9.3231   9.4095   9.4966
     9.5630   9.6652   9.6818   9.7128   9.8188   9.8427   9.9967  10.1247
    10.1604  10.2434  10.3878  10.4625  10.5391  10.5654  10.6243  10.7272
    10.8356  10.9284  11.0534  11.1501  11.4516  11.5605  11.5971  11.7789
    12.0040  12.1788  12.5174  12.5193  12.6857  13.2484  14.1655  15.1675
    16.0913  16.8036

          k = 0.0556 0.3528 0.0000 (  4467 PWs)   bands (ev):

   -34.7014 -34.6826 -34.6681 -34.6574 -34.6172 -34.6055 -34.5721 -34.5464
   -34.5145 -34.4516 -34.3921 -34.3643 -34.3606 -34.3398 -34.3348 -34.3124
   -34.2970 -34.2766 -34.2621 -34.2386 -34.2243 -34.1514 -34.1512 -33.9151
   -33.9150 -33.8731 -33.8729   6.5495   6.7572   6.8613   6.9183   6.9780
     7.1434   7.1991   7.3691   7.4500   7.6727   7.7784   7.9461   8.0793
     8.4427   8.7014   8.8749   9.0544   9.2033   9.3509   9.4587   9.5298
     9.5561   9.5768   9.8034   9.8500  10.1563  10.1796  10.4204  10.5661
    10.6036  10.7143  10.8924  11.0960  11.2488  11.3506  11.4048  11.5162
    11.6846  11.7359  11.7977  11.9555  12.0979  12.1498  12.2855  12.3339
    12.3807  12.4242  12.5983  12.7794  13.2202  14.2887  15.4735  16.6982
    17.8579  18.8579

          k = 0.0556 0.4811 0.0000 (  4463 PWs)   bands (ev):

   -34.7883 -34.7732 -34.7566 -34.7424 -34.7268 -34.7030 -34.6823 -34.5369
   -34.5143 -34.4548 -34.4141 -34.4057 -34.3952 -34.3845 -34.3683 -34.3472
   -34.3351 -34.3055 -34.2931 -34.2649 -34.2618 -34.2512 -34.2461 -33.9482
   -33.9480 -33.8653 -33.8647   6.3755   6.4830   6.5554   6.6967   6.7196
     6.8167   6.8982   7.0203   7.1168   7.2457   7.4780   7.5087   7.7697
     8.2567   8.6004   8.9191   9.0856   9.2558   9.3181   9.5426   9.5600
     9.7261   9.9568  10.2429  10.2903  10.4810  10.8912  10.9791  11.1117
    11.5377  11.6317  11.9097  11.9656  12.0803  12.3070  12.3866  12.4223
    12.4619  12.5045  12.5318  12.6181  12.6624  12.8027  12.8918  13.0153
    13.3700  13.7994  14.1839  14.3083  14.6150  15.4655  16.5656  17.7078
    18.7512  20.2319

          k = 0.0556-0.5453 0.0000 (  4486 PWs)   bands (ev):

   -34.8164 -34.8008 -34.7799 -34.7627 -34.7570 -34.7239 -34.7163 -34.5136
   -34.5070 -34.4449 -34.4206 -34.4149 -34.4073 -34.3997 -34.3787 -34.3540
   -34.3464 -34.3129 -34.3021 -34.2769 -34.2757 -34.2639 -34.2598 -33.9559
   -33.9556 -33.8637 -33.8632   6.2545   6.4327   6.4572   6.5981   6.6645
     6.7358   6.7982   6.9766   7.0243   7.1537   7.3943   7.4174   7.6974
     8.2183   8.5867   8.8348   9.0162   9.1855   9.2695   9.5073   9.7040
     9.8007   9.9391  10.4275  10.4587  10.4611  11.0464  11.1818  11.2566
    11.6691  11.8830  12.1260  12.2113  12.3494  12.4269  12.5722  12.6503
    12.6894  12.7240  12.7668  12.8126  12.8438  12.9502  13.0484  13.1232
    13.9701  14.5828  15.2354  15.6864  15.7395  15.9017  16.4273  17.0032
    17.4042  20.0519

          k = 0.0556-0.4170 0.0000 (  4465 PWs)   bands (ev):

   -34.7371 -34.7288 -34.7174 -34.7043 -34.6765 -34.6581 -34.6246 -34.5714
   -34.5242 -34.4574 -34.4035 -34.3883 -34.3818 -34.3630 -34.3525 -34.3328
   -34.3175 -34.2924 -34.2796 -34.2538 -34.2423 -34.2118 -34.2111 -33.9343
   -33.9341 -33.8685 -33.8681   6.5535   6.5951   6.7328   6.7804   6.8990
     6.9554   7.0605   7.1083   7.2647   7.4267   7.6006   7.7047   7.8984
     8.3424   8.6365   8.9922   9.2386   9.2906   9.3730   9.4098   9.5401
     9.6529   9.7856  10.0496  10.0696  10.3001  10.5263  10.6305  10.9807
    11.0831  11.2757  11.4030  11.4947  11.7653  11.8543  11.9408  12.0113
    12.0762  12.1535  12.2472  12.3188  12.4785  12.5054  12.6468  12.7334
    12.8722  12.9819  13.0931  13.1678  13.7900  14.8771  16.1096  17.3885
    18.6358  19.7509

          k = 0.0556-0.2887 0.0000 (  4439 PWs)   bands (ev):

   -34.7078 -34.6890 -34.6430 -34.6010 -34.5604 -34.5277 -34.4966 -34.4734
   -34.4549 -34.4253 -34.3743 -34.3365 -34.3351 -34.3199 -34.3098 -34.2869
   -34.2753 -34.2596 -34.2425 -34.2214 -34.2072 -34.0758 -34.0757 -33.8929
   -33.8928 -33.8780 -33.8779   6.2739   6.4719   6.7448   7.0167   7.1191
     7.2762   7.5075   7.5626   7.7880   7.8291   8.0443   8.0848   8.2812
     8.4706   8.4902   8.7056   8.8874   8.9285   9.2158   9.4441   9.5497
     9.6096   9.6483   9.7014   9.8144   9.8718   9.9870  10.0549  10.1709
    10.3386  10.5715  10.5932  10.6524  10.7735  10.9139  10.9516  11.1108
    11.1633  11.2064  11.4398  11.5330  11.6270  11.8148  11.8449  11.9225
    12.1380  12.2518  12.5392  12.7225  12.8321  13.7491  14.8186  15.9435
    16.9908  17.8619

          k = 0.0556-0.1604 0.0000 (  4443 PWs)   bands (ev):

   -34.7707 -34.7329 -34.6477 -34.5444 -34.4472 -34.3731 -34.3493 -34.3374
   -34.3227 -34.3134 -34.2903 -34.2828 -34.2812 -34.2731 -34.2579 -34.2429
   -34.2336 -34.2217 -34.2030 -34.1925 -34.1822 -33.9264 -33.9262 -33.8887
   -33.8885 -33.8521 -33.8519   5.2202   5.5202   5.9830   6.5173   6.8555
     6.8964   6.9547   7.2696   7.2938   8.3888   8.5160   8.6510   8.7129
     8.7925   8.8366   8.9116   9.0374   9.2823   9.3382   9.4968   9.5674
     9.5808   9.6131   9.7053   9.7143   9.7511   9.7979   9.8250   9.8563
     9.9548  10.0180  10.0944  10.2256  10.3539  10.3700  10.7066  10.7687
    10.8645  10.9577  10.9677  11.1410  11.3511  11.4239  11.5333  11.7391
    11.8180  12.2022  12.2261  12.5144  12.6540  12.7925  13.5231  14.3836
    15.1800  15.7257

          k = 0.0556-0.0321 0.0000 (  4465 PWs)   bands (ev):

   -34.8058 -34.7599 -34.6616 -34.5384 -34.4161 -34.3012 -34.2739 -34.2716
   -34.2646 -34.2628 -34.2509 -34.2415 -34.2330 -34.2236 -34.2149 -34.2052
   -34.2029 -34.1833 -34.1821 -34.1765 -34.1653 -33.8979 -33.8976 -33.8418
   -33.8418 -33.8307 -33.8304   4.6138   4.9375   5.4306   5.9844   6.3642
     6.4138   6.4507   6.7698   6.7853   8.8758   8.9087   9.0929   9.1131
     9.1218   9.2089   9.2692   9.2904   9.3267   9.3362   9.3518   9.3564
     9.4462   9.4799   9.4995   9.5493   9.5824   9.5976   9.6207   9.7590
     9.8465   9.9400   9.9444   9.9534  10.6140  11.0020  11.0033  11.1553
    11.1635  11.2724  11.2923  11.3547  11.3962  11.4784  11.6351  11.7693
    11.9628  11.9792  12.0754  12.3330  12.4223  12.5820  12.7191  13.0296
    13.6417  13.9376

          k = 0.1667 0.2887 0.0000 (  4425 PWs)   bands (ev):

   -34.6817 -34.6790 -34.6509 -34.6193 -34.5855 -34.5612 -34.5380 -34.5078
   -34.4936 -34.4519 -34.3942 -34.3624 -34.3551 -34.3364 -34.3197 -34.3141
   -34.2970 -34.2808 -34.2780 -34.2634 -34.2105 -34.1079 -34.1078 -33.9259
   -33.9258 -33.8738 -33.8738   6.7627   6.8538   7.0197   7.2504   7.5222
     7.7270   7.7331   7.7748   7.8466   7.8754   7.9720   8.0017   8.1100
     8.2442   8.3389   8.4079   8.8440   8.8936   8.9285   9.0275   9.1974
     9.3335   9.3931   9.4056   9.4449   9.5022  10.0650  10.0727  10.2341
    10.3159  10.4656  10.5226  10.9137  10.9430  10.9982  11.1908  11.4222
    11.5141  11.6490  11.8018  12.0172  12.1094  12.2035  12.3461  12.3523
    12.3968  12.4690  12.5612  12.5807  13.3241  14.2966  15.3731  16.5178
    17.6137  18.5749

          k = 0.1667 0.4170 0.0000 (  4459 PWs)   bands (ev):

   -34.7205 -34.7094 -34.7020 -34.6878 -34.6670 -34.6466 -34.6280 -34.5793
   -34.5311 -34.4704 -34.4334 -34.4291 -34.4108 -34.3886 -34.3770 -34.3705
   -34.3453 -34.3432 -34.3127 -34.2906 -34.2437 -34.2037 -34.2035 -33.9885
   -33.9882 -33.8654 -33.8650   6.9261   6.9859   7.0863   7.1886   7.2810
     7.3379   7.4962   7.5199   7.5909   7.7471   7.8066   8.0521   8.1380
     8.3542   8.4630   8.6640   8.8549   8.8943   9.0356   9.1563   9.2476
     9.4550   9.5895   9.7988   9.8741  10.0103  10.0705  10.2369  10.3745
    10.5053  10.7846  11.0025  11.1045  11.1564  11.3290  11.3842  11.6704
    11.7467  12.0303  12.5018  12.5925  12.7208  12.7891  12.8382  12.9947
    13.9980  14.1329  14.2262  14.4740  15.0341  15.9208  16.9976  18.1663
    19.3324  20.3973

          k = 0.1667 0.5453 0.0000 (  4490 PWs)   bands (ev):

   -34.7792 -34.7645 -34.7394 -34.7246 -34.7232 -34.6907 -34.6858 -34.5251
   -34.5147 -34.4848 -34.4739 -34.4714 -34.4510 -34.4274 -34.3979 -34.3874
   -34.3757 -34.3521 -34.3352 -34.3014 -34.2749 -34.2493 -34.2491 -34.0224
   -34.0223 -33.8606 -33.8605   6.6142   6.8377   6.9020   7.0558   7.1132
     7.1635   7.2247   7.4317   7.5067   7.5437   7.7865   7.8981   8.0272
     8.2516   8.3493   8.5338   8.6633   8.9991   9.2544   9.3615   9.5151
     9.7210   9.8204   9.8594  10.1749  10.2350  10.2916  10.6630  10.7634
    11.0941  11.1212  11.2148  11.4765  11.7579  11.9200  12.0272  12.1337
    12.2059  12.3467  12.4947  12.5565  12.6314  12.7844  12.9008  12.9965
    15.8293  16.1447  16.4987  16.8044  17.1210  17.5153  17.9237  18.2235
    18.3875  20.3405

          k = 0.1667-0.4811 0.0000 (  4476 PWs)   bands (ev):

   -34.7584 -34.7436 -34.7264 -34.7117 -34.7039 -34.6745 -34.6662 -34.5500
   -34.5227 -34.4740 -34.4592 -34.4557 -34.4340 -34.4144 -34.3905 -34.3887
   -34.3617 -34.3519 -34.3241 -34.2999 -34.2618 -34.2338 -34.2337 -34.0106
   -34.0105 -33.8622 -33.8621   6.7252   6.9219   6.9329   7.1432   7.1556
     7.1910   7.3421   7.4720   7.5336   7.6195   7.8024   7.9544   8.0702
     8.2597   8.4308   8.6429   8.7566   8.8786   9.1921   9.2799   9.5451
     9.6234   9.7394   9.9084   9.9844  10.0395  10.2975  10.5040  10.6744
    10.8592  10.9019  11.0562  11.3734  11.5847  11.6579  11.7164  11.8267
    11.8777  12.1581  12.5306  12.6515  12.7486  12.8473  12.9530  13.0904
    14.9554  15.1619  15.3723  15.6544  16.1500  16.8911  17.8055  18.7752
    19.6256  20.5836

          k = 0.1667-0.3528 0.0000 (  4458 PWs)   bands (ev):

   -34.6846 -34.6810 -34.6632 -34.6612 -34.6266 -34.6112 -34.5885 -34.5740
   -34.5257 -34.4669 -34.4090 -34.3961 -34.3870 -34.3623 -34.3483 -34.3372
   -34.3277 -34.3209 -34.2986 -34.2772 -34.2261 -34.1608 -34.1606 -33.9588
   -33.9586 -33.8696 -33.8695   7.0177   7.1105   7.1803   7.2528   7.3775
     7.4658   7.5621   7.6399   7.6971   7.8170   7.9810   8.1059   8.1962
     8.2963   8.4270   8.5920   8.7011   8.8120   8.9849   9.1674   9.2207
     9.2518   9.3409   9.5354   9.6908   9.7385   9.9868  10.0007  10.2029
    10.4789  10.5914  10.6996  10.8867  11.0890  11.1472  11.2883  11.5712
    11.6377  11.8806  12.2998  12.3607  12.4844  12.5290  12.5964  12.7688
    13.1028  13.1769  13.2401  13.4055  14.0345  15.0133  16.1287  17.3131
    18.4673  19.5089

          k = 0.1667-0.2245 0.0000 (  4433 PWs)   bands (ev):

   -34.7119 -34.6930 -34.6407 -34.5850 -34.5371 -34.5023 -34.4734 -34.4503
   -34.4350 -34.4195 -34.3745 -34.3337 -34.3276 -34.3173 -34.3002 -34.2846
   -34.2686 -34.2583 -34.2495 -34.2357 -34.1997 -34.0510 -34.0509 -33.8956
   -33.8955 -33.8790 -33.8789   6.2251   6.4297   6.7480   7.1322   7.4087
     7.4834   7.6244   7.7459   7.8627   7.9572   8.0767   8.1528   8.1959
     8.3228   8.4393   8.5770   8.6478   8.8829   9.1381   9.1910   9.2875
     9.4031   9.4648   9.5869   9.6624   9.6815   9.8913  10.0102  10.1895
    10.4192  10.4382  10.5401  10.6123  10.7202  10.8712  10.9067  11.0367
    11.1633  11.2007  11.4813  11.5305  11.5822  11.8537  11.8910  11.8984
    12.0586  12.2094  12.3952  12.5540  12.8733  13.7335  14.7265  15.8005
    16.8128  17.6543

          k = 0.1667-0.0962 0.0000 (  4427 PWs)   bands (ev):

   -34.7606 -34.7252 -34.6445 -34.5487 -34.4622 -34.3999 -34.3767 -34.3592
   -34.3436 -34.3273 -34.3014 -34.2972 -34.2946 -34.2769 -34.2725 -34.2511
   -34.2429 -34.2297 -34.2050 -34.1952 -34.1844 -33.9522 -33.9521 -33.8871
   -33.8868 -33.8568 -33.8566   5.4006   5.6882   6.1318   6.6425   6.9477
     6.9722   7.1139   7.3923   7.4301   8.1991   8.4477   8.5491   8.6077
     8.7021   8.7840   8.8433   8.9289   9.3407   9.3817   9.4826   9.5936
     9.6059   9.6422   9.7162   9.7759   9.8388   9.8500   9.9328   9.9859
    10.0327  10.0495  10.0731  10.2215  10.3585  10.4634  10.5441  10.7229
    10.7378  10.9040  11.0095  11.1422  11.2742  11.4960  11.5136  11.7037
    12.0112  12.0857  12.3607  12.6217  12.7730  12.8402  13.7227  14.6646
    15.5135  16.1197

          k = 0.2778 0.4811 0.0000 (  4485 PWs)   bands (ev):

   -34.7144 -34.7138 -34.6986 -34.6968 -34.6668 -34.6593 -34.6197 -34.6031
   -34.5740 -34.5347 -34.5050 -34.5010 -34.4744 -34.4600 -34.4305 -34.4250
   -34.3783 -34.3564 -34.3391 -34.3156 -34.2820 -34.2119 -34.2118 -34.0821
   -34.0819 -33.8595 -33.8592   7.1562   7.1627   7.3084   7.3375   7.4398
     7.6184   7.8020   7.8708   7.9359   7.9535   8.0786   8.0988   8.2142
     8.2447   8.3715   8.4139   8.6862   8.7766   8.9352   9.0541   9.2182
     9.3647   9.5582   9.6471   9.8987   9.9025  10.1269  10.1278  10.5723
    10.6532  10.7221  10.8415  11.0778  11.1105  11.2816  11.3061  11.6252
    11.8796  12.2067  12.4921  12.6688  12.6914  12.6928  12.8245  12.9871
    16.3193  16.4518  16.7232  17.1434  17.7238  18.4704  19.3425  20.2326
    20.6958  20.7788

          k = 0.2778 0.6094 0.0000 (  4491 PWs)   bands (ev):

   -34.7144 -34.7004 -34.6852 -34.6775 -34.6598 -34.6536 -34.6369 -34.6000
   -34.5790 -34.5663 -34.5472 -34.5262 -34.5206 -34.4821 -34.4329 -34.4279
   -34.3672 -34.3561 -34.3401 -34.3208 -34.3020 -34.2036 -34.2034 -34.1146
   -34.1144 -33.8579 -33.8576   7.1176   7.3136   7.3771   7.5206   7.5636
     7.6360   7.7533   7.8511   7.9200   7.9263   8.0572   8.1221   8.1786
     8.2173   8.3309   8.4864   8.5752   8.9026   8.9586   9.1797   9.2723
     9.3720   9.4381   9.6474   9.8272   9.8684  10.1754  10.1835  10.5447
    10.6567  10.8207  10.9490  11.0460  11.1601  11.3021  11.3549  11.9467
    12.0947  12.2767  12.3642  12.4786  12.5309  12.5802  12.6344  12.7639
    17.5194  17.7039  18.0103  18.3838  18.7268  19.0345  19.3930  19.7970
    20.2212  20.3378

          k = 0.2778-0.4170 0.0000 (  4462 PWs)   bands (ev):

   -34.7245 -34.7137 -34.7065 -34.6935 -34.6746 -34.6587 -34.6360 -34.5815
   -34.5451 -34.4957 -34.4672 -34.4646 -34.4426 -34.4212 -34.4119 -34.3936
   -34.3802 -34.3561 -34.3344 -34.3021 -34.2610 -34.2134 -34.2132 -34.0363
   -34.0360 -33.8617 -33.8615   7.0061   7.1425   7.1762   7.3160   7.3622
     7.4967   7.6017   7.6935   7.7743   7.8851   8.0834   8.1060   8.1990
     8.3275   8.5386   8.5469   8.5830   8.7330   8.9563   9.0084   9.2518
     9.3824   9.5332   9.7680   9.9183   9.9474  10.1421  10.1670  10.3329
    10.5132  10.7546  10.9016  11.0666  11.1774  11.3091  11.3601  11.5235
    11.6917  12.1174  12.5312  12.7446  12.7783  12.8425  12.9311  13.0926
    15.1524  15.2399  15.4249  15.7724  16.3406  17.1474  18.1297  19.2010
    20.2609  21.1553

          k = 0.2778-0.2887 0.0000 (  4463 PWs)   bands (ev):

   -34.7038 -34.7028 -34.6841 -34.6801 -34.6429 -34.6305 -34.5953 -34.5828
   -34.5260 -34.4599 -34.4054 -34.3926 -34.3863 -34.3622 -34.3472 -34.3409
   -34.3265 -34.3000 -34.2823 -34.2713 -34.2316 -34.1826 -34.1826 -33.9464
   -33.9462 -33.8691 -33.8689   6.7644   6.8944   6.9759   7.0083   7.1702
     7.1824   7.2739   7.3733   7.4874   7.6328   7.7906   7.9998   8.0421
     8.3419   8.5400   8.8592   8.9075   9.1534   9.1928   9.2906   9.3915
     9.5164   9.6343   9.7285   9.8434  10.0648  10.1821  10.3521  10.5204
    10.5460  10.7591  10.9837  11.1620  11.2357  11.2786  11.4538  11.7670
    11.7809  12.0716  12.2208  12.3625  12.4256  12.5351  12.6168  12.7955
    12.9452  13.1393  13.1690  13.3168  13.9383  14.9476  16.1072  17.3321
    18.5240  19.5837

          k = 0.2778-0.1604 0.0000 (  4458 PWs)   bands (ev):

   -34.7031 -34.6822 -34.6502 -34.6285 -34.5926 -34.5668 -34.5332 -34.5044
   -34.4891 -34.4386 -34.3819 -34.3468 -34.3429 -34.3309 -34.3194 -34.2934
   -34.2810 -34.2682 -34.2403 -34.2236 -34.2169 -34.1132 -34.1130 -33.8977
   -33.8975 -33.8762 -33.8759   6.3811   6.5784   6.7901   6.8955   6.9695
     7.1565   7.3370   7.4198   7.5705   7.7272   7.8825   7.9619   8.1995
     8.5107   8.7233   8.8588   9.0461   9.1844   9.3372   9.4721   9.5535
     9.6057   9.6572   9.7975   9.8988  10.1028  10.1609  10.3463  10.4531
    10.4615  10.6094  10.7005  10.8840  11.0702  11.1081  11.2105  11.2494
    11.2937  11.3957  11.4457  11.6117  11.7326  11.8385  11.9449  11.9533
    12.0891  12.3891  12.6678  12.8315  12.8432  13.8977  15.0550  16.2407
    17.3437  18.2715

          k = 0.3889 0.6736 0.0000 (  4511 PWs)   bands (ev):

   -34.7513 -34.7362 -34.7079 -34.6989 -34.6945 -34.6713 -34.6635 -34.5540
   -34.5464 -34.5255 -34.5183 -34.5100 -34.4826 -34.4481 -34.4272 -34.4133
   -34.3683 -34.3681 -34.3426 -34.3095 -34.2905 -34.2298 -34.2298 -34.0723
   -34.0722 -33.8590 -33.8589   6.8403   7.0587   7.2275   7.3755   7.3858
     7.4320   7.5671   7.6334   7.7199   7.8106   8.0091   8.0344   8.1857
     8.3238   8.3616   8.4008   8.5234   8.7517   9.0280   9.2111   9.4586
     9.5909   9.6978   9.8163   9.8962  10.1399  10.2372  10.3754  10.6204
    10.6632  10.6924  11.0144  11.2675  11.4560  11.6019  11.7047  12.1273
    12.1790  12.2636  12.3532  12.5070  12.5214  12.6935  12.7813  12.8071
    17.0400  17.2523  17.5018  17.7386  17.9799  18.2555  18.5720  18.8813
    19.1445  20.4781

          k = 0.3889-0.3528 0.0000 (  4485 PWs)   bands (ev):

   -34.7923 -34.7771 -34.7562 -34.7414 -34.7336 -34.7035 -34.6936 -34.5244
   -34.5094 -34.4571 -34.4407 -34.4356 -34.4178 -34.3951 -34.3901 -34.3706
   -34.3562 -34.3240 -34.3135 -34.2889 -34.2657 -34.2559 -34.2535 -33.9792
   -33.9791 -33.8630 -33.8628   6.4544   6.6397   6.6613   6.8016   6.8687
     6.9455   6.9938   7.1957   7.2724   7.3053   7.6060   7.6588   7.8214
     8.2192   8.4916   8.7452   8.9109   9.2305   9.3326   9.4544   9.5156
     9.6486   9.8960  10.0895  10.2149  10.4764  10.6653  10.7959  11.0599
    11.2857  11.5581  11.5911  11.7034  11.9790  12.1723  12.2257  12.2581
    12.2880  12.3667  12.5663  12.6286  12.7330  12.8299  12.9706  13.0933
    14.5574  14.9362  15.3196  15.5552  15.8412  16.4136  17.1829  17.9534
    18.5214  20.2811

          k = 0.3889-0.2245 0.0000 (  4444 PWs)   bands (ev):

   -34.7683 -34.7540 -34.7432 -34.7276 -34.7065 -34.6865 -34.6570 -34.5535
   -34.5197 -34.4563 -34.4058 -34.3892 -34.3840 -34.3692 -34.3592 -34.3301
   -34.3198 -34.3017 -34.2716 -34.2602 -34.2465 -34.2367 -34.2339 -33.9332
   -33.9329 -33.8671 -33.8664   6.4137   6.4536   6.5724   6.6808   6.7442
     6.8141   6.9367   6.9776   7.1190   7.2952   7.4682   7.5209   7.8110
     8.3132   8.6651   9.0104   9.1860   9.2637   9.3551   9.5658   9.5743
     9.7212   9.9389  10.1603  10.3363  10.4206  10.8225  10.9540  11.1196
    11.4843  11.6147  11.9316  11.9551  12.1728  12.2303  12.2755  12.3215
    12.3750  12.4105  12.4760  12.5173  12.5863  12.6552  12.7654  12.8551
    12.8831  12.9525  13.2424  13.2808  13.8315  14.9661  16.2249  17.5094
    18.7628  20.0039

          k =-0.5000-0.8660 0.0000 (  4492 PWs)   bands (ev):

   -34.8242 -34.8101 -34.7894 -34.7688 -34.7678 -34.7288 -34.7263 -34.5114
   -34.5074 -34.4367 -34.4132 -34.4088 -34.4072 -34.4007 -34.3749 -34.3443
   -34.3441 -34.3149 -34.2902 -34.2844 -34.2775 -34.2618 -34.2584 -33.9473
   -33.9472 -33.8642 -33.8636   6.1798   6.3620   6.3807   6.5336   6.5902
     6.6545   6.7410   6.8991   6.9329   7.1042   7.3104   7.3336   7.6603
     8.2098   8.6224   8.8697   9.0471   9.1331   9.2463   9.4752   9.8600
     9.9025   9.9456  10.3725  10.5803  10.6349  10.9519  11.4395  11.4816
    11.5525  12.0977  12.3120  12.3518  12.4760  12.6679  12.7555  12.7695
    12.8058  12.8564  12.9099  12.9315  12.9804  13.0807  13.2468  13.2505
    13.4587  14.3520  15.1698  15.6545  15.8297  16.0885  16.2707  16.4212
    16.4819  19.9666

     the Fermi energy is    12.2027 ev

!    total energy              =   -1540.61827086 Ry
     estimated scf accuracy    <       0.00000082 Ry
     smearing contrib. (-TS)   =      -0.03861427 Ry
     internal energy E=F+TS    =   -1540.57965660 Ry

     The total energy is F=E-TS. E is the sum of the following terms:
     one-electron contribution =  -10637.72554554 Ry
     hartree contribution      =    5396.80952492 Ry
     xc contribution           =    -269.21687667 Ry
     ewald contribution        =    3969.55324070 Ry

     total magnetization       =    -0.00 Bohr mag/cell
     absolute magnetization    =     0.00 Bohr mag/cell

     convergence has been achieved in   9 iterations

     negative rho (up, down):  2.575E-01 2.575E-01

     Forces acting on atoms (cartesian axes, Ry/au):

     atom    1 type  1   force =     0.00000000    0.00000000    0.00923547
     atom    2 type  1   force =     0.00000000    0.00000000   -0.00442641
     atom    3 type  1   force =     0.00000000    0.00000000   -0.00525669
     atom    4 type  1   force =     0.00000000    0.00000000   -0.00006713
     atom    5 type  1   force =     0.00000000    0.00000000    0.00000363
     atom    6 type  1   force =     0.00000000    0.00000000    0.00006966
     atom    7 type  1   force =     0.00000000    0.00000000    0.00525030
     atom    8 type  1   force =     0.00000000    0.00000000    0.00441974
     atom    9 type  1   force =     0.00000000    0.00000000   -0.00922857

     Total force =     0.016273     Total SCF correction =     0.008837
     SCF correction compared to forces is large: reduce conv_thr to get better values
     Energy error            =      4.2E-04
     Gradient error          =      9.2E-03

     number of scf cycles    =   2
     number of bfgs steps    =   1

     energy   old            =   -1540.6178531264 Ry
     energy   new            =   -1540.6182708624 Ry

     CASE: energy  _new < energy  _old

     new trust radius        =       0.0131563292 bohr
     new conv_thr            =       0.0000004177 Ry


ATOMIC_POSITIONS (angstrom)
Rh            0.0000000000        0.0000000000        0.0132911474
Rh            2.7108568000        1.5651139000        2.2061675097
Rh            1.3554284000        0.7825569000        4.4194061508
Rh            0.0000000000        0.0000000000        6.6406511500
Rh            2.7108568000        1.5651139000        8.8536122386
Rh            1.3554284000        0.7825569000       11.0665825051
Rh            0.0000000000        0.0000000000       13.2878402210
Rh            2.7108568000        1.5651139000       15.5010811460
Rh            1.3554284000        0.7825569000       17.6939583314



     Writing output data file /home/STUDENTI/leonardo.razzai/WORK/relax_surf/9-L.save/
     NEW-OLD atomic charge density approx. for the potential

     negative rho (up, down):  2.564E-01 2.564E-01
     Generating pointlists ...

     total cpu time spent up to now is      557.6 secs

     Self-consistent Calculation

     iteration #  1     ecut=    35.00 Ry     beta= 0.40
     Davidson diagonalization with overlap
     ethr =  1.00E-06,  avg # of iterations =  6.0

     negative rho (up, down):  2.564E-01 2.564E-01

     total cpu time spent up to now is      601.4 secs

     total energy              =   -1540.61657927 Ry
     estimated scf accuracy    <       0.17305591 Ry

     total magnetization       =    -0.00 Bohr mag/cell
     absolute magnetization    =     0.00 Bohr mag/cell

     iteration #  2     ecut=    35.00 Ry     beta= 0.40
     Davidson diagonalization with overlap
     ethr =  1.28E-04,  avg # of iterations =  1.0

     negative rho (up, down):  2.564E-01 2.564E-01

     total cpu time spent up to now is      620.6 secs

     total energy              =   -1540.61792261 Ry
     estimated scf accuracy    <       0.10161430 Ry

     total magnetization       =    -0.00 Bohr mag/cell
     absolute magnetization    =     0.00 Bohr mag/cell

     iteration #  3     ecut=    35.00 Ry     beta= 0.40
     Davidson diagonalization with overlap
     ethr =  7.53E-05,  avg # of iterations =  1.0

     negative rho (up, down):  2.564E-01 2.564E-01

     total cpu time spent up to now is      639.9 secs

     total energy              =   -1540.61860430 Ry
     estimated scf accuracy    <       0.00396182 Ry

     total magnetization       =    -0.00 Bohr mag/cell
     absolute magnetization    =     0.00 Bohr mag/cell

     iteration #  4     ecut=    35.00 Ry     beta= 0.40
     Davidson diagonalization with overlap
     ethr =  2.93E-06,  avg # of iterations =  1.0

     negative rho (up, down):  2.564E-01 2.564E-01

     total cpu time spent up to now is      659.2 secs

     total energy              =   -1540.61857120 Ry
     estimated scf accuracy    <       0.00205011 Ry

     total magnetization       =    -0.00 Bohr mag/cell
     absolute magnetization    =     0.00 Bohr mag/cell

     iteration #  5     ecut=    35.00 Ry     beta= 0.40
     Davidson diagonalization with overlap
     ethr =  1.52E-06,  avg # of iterations =  1.0

     negative rho (up, down):  2.564E-01 2.564E-01

     total cpu time spent up to now is      678.6 secs

     total energy              =   -1540.61858983 Ry
     estimated scf accuracy    <       0.00000957 Ry

     total magnetization       =    -0.00 Bohr mag/cell
     absolute magnetization    =     0.00 Bohr mag/cell

     iteration #  6     ecut=    35.00 Ry     beta= 0.40
     Davidson diagonalization with overlap
     ethr =  7.09E-09,  avg # of iterations =  2.1

     negative rho (up, down):  2.564E-01 2.564E-01

     total cpu time spent up to now is      700.9 secs

     total energy              =   -1540.61859049 Ry
     estimated scf accuracy    <       0.00000062 Ry

     total magnetization       =    -0.00 Bohr mag/cell
     absolute magnetization    =     0.00 Bohr mag/cell

     iteration #  7     ecut=    35.00 Ry     beta= 0.40
     Davidson diagonalization with overlap
     ethr =  4.61E-10,  avg # of iterations =  2.1

     negative rho (up, down):  2.564E-01 2.564E-01
 
     Magnetic moment per site:
     atom:    1    charge:   13.1820    magn:   -0.0000    constr:    0.0000
     atom:    2    charge:   13.2428    magn:   -0.0000    constr:    0.0000
     atom:    3    charge:   13.2452    magn:   -0.0000    constr:    0.0000
     atom:    4    charge:   13.2473    magn:   -0.0000    constr:    0.0000
     atom:    5    charge:   13.2482    magn:   -0.0000    constr:    0.0000
     atom:    6    charge:   13.2470    magn:   -0.0000    constr:    0.0000
     atom:    7    charge:   13.2457    magn:   -0.0000    constr:    0.0000
     atom:    8    charge:   13.2419    magn:   -0.0000    constr:    0.0000
     atom:    9    charge:   13.1817    magn:   -0.0000    constr:    0.0000

     total cpu time spent up to now is      722.6 secs

     End of self-consistent calculation

 ------ SPIN UP ------------


          k = 0.0556 0.0962 0.0000 (  4451 PWs)   bands (ev):

   -34.7886 -34.7488 -34.6588 -34.5393 -34.4233 -34.3219 -34.3006 -34.2908
   -34.2786 -34.2754 -34.2664 -34.2590 -34.2396 -34.2378 -34.2312 -34.2174
   -34.2034 -34.2023 -34.1804 -34.1792 -34.1677 -33.9033 -33.9028 -33.8754
   -33.8752 -33.8435 -33.8435   4.8290   5.1407   5.6208   6.1753   6.5471
     6.5983   6.6305   6.9380   6.9575   8.7075   8.7334   8.9217   8.9719
     8.9883   9.0799   9.1734   9.2635   9.3447   9.4274   9.4365   9.4853
     9.4998   9.5417   9.5583   9.5810   9.6325   9.6666   9.7346   9.7794
     9.7986   9.8515  10.0648  10.0786  10.2500  10.8240  10.8746  10.8765
    11.0475  11.0956  11.2535  11.3100  11.3834  11.4490  11.5552  11.6298
    11.8167  11.9394  12.2413  12.3661  12.5470  12.6726  12.9304  13.6369
    14.3216  14.7163

          k = 0.0556 0.2245 0.0000 (  4420 PWs)   bands (ev):

   -34.7345 -34.7085 -34.6414 -34.5603 -34.4935 -34.4475 -34.4171 -34.3973
   -34.3743 -34.3687 -34.3359 -34.3092 -34.3080 -34.2964 -34.2796 -34.2590
   -34.2494 -34.2376 -34.2171 -34.2004 -34.1881 -34.0019 -34.0015 -33.8913
   -33.8910 -33.8765 -33.8764   5.7525   6.0068   6.4022   6.8700   7.1332
     7.1895   7.3581   7.5923   7.6594   8.0182   8.2544   8.3954   8.4070
     8.5254   8.6134   8.7135   8.7701   9.1363   9.3216   9.4085   9.4962
     9.5658   9.6682   9.6853   9.7157   9.8189   9.8438   9.9951  10.1240
    10.1610  10.2427  10.3825  10.4586  10.5367  10.5667  10.6256  10.7270
    10.8358  10.9269  11.0541  11.1501  11.4536  11.5638  11.5987  11.7789
    12.0070  12.1823  12.5206  12.5275  12.6902  13.2525  14.1698  15.1752
    16.1014  16.8092

          k = 0.0556 0.3528 0.0000 (  4467 PWs)   bands (ev):

   -34.6970 -34.6805 -34.6634 -34.6555 -34.6173 -34.6076 -34.5711 -34.5421
   -34.5132 -34.4511 -34.3902 -34.3634 -34.3605 -34.3360 -34.3331 -34.3082
   -34.2928 -34.2724 -34.2568 -34.2336 -34.2194 -34.1558 -34.1556 -33.9205
   -33.9204 -33.8813 -33.8811   6.5552   6.7571   6.8675   6.9231   6.9714
     7.1392   7.2010   7.3647   7.4455   7.6657   7.7707   7.9425   8.0742
     8.4397   8.7027   8.8706   9.0562   9.2022   9.3516   9.4616   9.5330
     9.5589   9.5801   9.7987   9.8514  10.1462  10.1785  10.4169  10.5614
    10.6002  10.7147  10.8889  11.0951  11.2542  11.3527  11.4100  11.5147
    11.6883  11.7386  11.7977  11.9553  12.0979  12.1542  12.2882  12.3355
    12.3865  12.4255  12.6062  12.7838  13.2254  14.2952  15.4814  16.7057
    17.8656  18.8645

          k = 0.0556 0.4811 0.0000 (  4463 PWs)   bands (ev):

   -34.7849 -34.7730 -34.7529 -34.7411 -34.7232 -34.7003 -34.6778 -34.5387
   -34.5194 -34.4541 -34.4116 -34.4041 -34.3933 -34.3800 -34.3661 -34.3431
   -34.3314 -34.3014 -34.2885 -34.2621 -34.2605 -34.2530 -34.2444 -33.9535
   -33.9534 -33.8741 -33.8736   6.3813   6.4885   6.5549   6.6984   6.7224
     6.8098   6.8962   7.0192   7.1135   7.2371   7.4672   7.5018   7.7635
     8.2543   8.5988   8.9211   9.0915   9.2589   9.3212   9.5431   9.5553
     9.7300   9.9444  10.2445  10.2899  10.4740  10.8902  10.9783  11.1101
    11.5384  11.6291  11.9095  11.9698  12.0845  12.3114  12.3882  12.4265
    12.4641  12.5068  12.5374  12.6205  12.6672  12.8027  12.8937  13.0187
    13.3727  13.7998  14.1848  14.3118  14.6184  15.4714  16.5744  17.7140
    18.7542  20.2364

          k = 0.0556-0.5453 0.0000 (  4486 PWs)   bands (ev):

   -34.8131 -34.8006 -34.7780 -34.7598 -34.7535 -34.7206 -34.7115 -34.5196
   -34.5142 -34.4398 -34.4177 -34.4128 -34.4030 -34.3963 -34.3771 -34.3496
   -34.3432 -34.3089 -34.2988 -34.2782 -34.2757 -34.2605 -34.2563 -33.9612
   -33.9610 -33.8726 -33.8722   6.2604   6.4381   6.4560   6.6037   6.6635
     6.7275   6.7982   6.9735   7.0231   7.1459   7.3856   7.4073   7.6907
     8.2149   8.5848   8.8381   9.0223   9.1887   9.2733   9.5023   9.7037
     9.8030   9.9292  10.4248  10.4547  10.4623  11.0429  11.1795  11.2590
    11.6700  11.8850  12.1279  12.2141  12.3536  12.4326  12.5757  12.6515
    12.6909  12.7278  12.7703  12.8162  12.8471  12.9507  13.0482  13.1253
    13.9731  14.5829  15.2359  15.6900  15.7427  15.9067  16.4353  17.0092
    17.4077  20.0494

          k = 0.0556-0.4170 0.0000 (  4465 PWs)   bands (ev):

   -34.7336 -34.7267 -34.7137 -34.7028 -34.6745 -34.6567 -34.6203 -34.5706
   -34.5264 -34.4582 -34.4016 -34.3870 -34.3812 -34.3592 -34.3502 -34.3288
   -34.3135 -34.2882 -34.2743 -34.2488 -34.2381 -34.2156 -34.2143 -33.9397
   -33.9395 -33.8771 -33.8767   6.5591   6.6010   6.7333   6.7794   6.9034
     6.9517   7.0549   7.1087   7.2594   7.4181   7.5907   7.6991   7.8931
     8.3408   8.6356   8.9922   9.2427   9.2908   9.3750   9.4131   9.5449
     9.6487   9.7845  10.0435  10.0650  10.3018  10.5196  10.6300  10.9773
    11.0794  11.2735  11.4020  11.4954  11.7694  11.8597  11.9434  12.0137
    12.0785  12.1558  12.2488  12.3237  12.4785  12.5111  12.6516  12.7364
    12.8763  12.9832  13.0965  13.1679  13.7942  14.8839  16.1185  17.3954
    18.6415  19.7577

          k = 0.0556-0.2887 0.0000 (  4439 PWs)   bands (ev):

   -34.7032 -34.6866 -34.6418 -34.5994 -34.5614 -34.5301 -34.4960 -34.4688
   -34.4515 -34.4223 -34.3716 -34.3358 -34.3350 -34.3175 -34.3070 -34.2828
   -34.2708 -34.2557 -34.2370 -34.2164 -34.2023 -34.0808 -34.0807 -33.8984
   -33.8983 -33.8859 -33.8857   6.2796   6.4729   6.7417   7.0161   7.1222
     7.2727   7.5040   7.5611   7.7861   7.8245   8.0432   8.0815   8.2790
     8.4601   8.4904   8.7005   8.8930   8.9262   9.2170   9.4469   9.5514
     9.6098   9.6525   9.7018   9.8144   9.8656   9.9867  10.0513  10.1728
    10.3313  10.5762  10.5866  10.6503  10.7752  10.9157  10.9504  11.1133
    11.1656  11.2106  11.4371  11.5297  11.6272  11.8173  11.8480  11.9251
    12.1411  12.2573  12.5478  12.7267  12.8371  13.7545  14.8247  15.9513
    17.0000  17.8679

          k = 0.0556-0.1604 0.0000 (  4443 PWs)   bands (ev):

   -34.7657 -34.7311 -34.6499 -34.5443 -34.4469 -34.3746 -34.3498 -34.3326
   -34.3199 -34.3104 -34.2892 -34.2823 -34.2772 -34.2688 -34.2549 -34.2383
   -34.2297 -34.2174 -34.1974 -34.1875 -34.1772 -33.9321 -33.9319 -33.8958
   -33.8956 -33.8576 -33.8574   5.2257   5.5201   5.9771   6.5149   6.8605
     6.9000   6.9581   7.2556   7.2816   8.3923   8.5169   8.6525   8.7189
     8.7948   8.8377   8.9049   9.0314   9.2775   9.3372   9.4994   9.5690
     9.5861   9.6158   9.7048   9.7183   9.7537   9.7971   9.8251   9.8561
     9.9503  10.0176  10.0972  10.2268  10.3448  10.3598  10.7095  10.7730
    10.8631  10.9595  10.9665  11.1423  11.3527  11.4266  11.5347  11.7380
    11.8191  12.2051  12.2280  12.5212  12.6575  12.7962  13.5256  14.3906
    15.1904  15.7314

          k = 0.0556-0.0321 0.0000 (  4465 PWs)   bands (ev):

   -34.8007 -34.7583 -34.6645 -34.5388 -34.4156 -34.2985 -34.2741 -34.2712
   -34.2647 -34.2637 -34.2480 -34.2383 -34.2288 -34.2193 -34.2105 -34.2011
   -34.1976 -34.1775 -34.1770 -34.1715 -34.1602 -33.9051 -33.9048 -33.8474
   -33.8473 -33.8362 -33.8360   4.6192   4.9372   5.4244   5.9824   6.3674
     6.4188   6.4564   6.7561   6.7728   8.8774   8.9146   9.0923   9.1171
     9.1283   9.2101   9.2741   9.2894   9.3314   9.3402   9.3515   9.3557
     9.4461   9.4774   9.5048   9.5505   9.5824   9.5974   9.6237   9.7552
     9.8375   9.9282   9.9327   9.9536  10.6133  11.0071  11.0081  11.1579
    11.1656  11.2728  11.2934  11.3525  11.3952  11.4785  11.6316  11.7670
    11.9663  11.9767  12.0808  12.3368  12.4225  12.5879  12.7231  13.0338
    13.6512  13.9441

          k = 0.1667 0.2887 0.0000 (  4425 PWs)   bands (ev):

   -34.6776 -34.6759 -34.6479 -34.6172 -34.5865 -34.5642 -34.5375 -34.5033
   -34.4898 -34.4498 -34.3919 -34.3636 -34.3575 -34.3328 -34.3174 -34.3089
   -34.2916 -34.2749 -34.2735 -34.2587 -34.2055 -34.1126 -34.1125 -33.9314
   -33.9312 -33.8819 -33.8819   6.7690   6.8566   7.0186   7.2481   7.5178
     7.7304   7.7374   7.7698   7.8516   7.8729   7.9740   7.9932   8.0983
     8.2338   8.3340   8.4112   8.8420   8.8900   8.9294   9.0244   9.1966
     9.3322   9.3814   9.3958   9.4527   9.5101  10.0677  10.0752  10.2336
    10.3155  10.4656  10.5220  10.9164  10.9409  11.0001  11.1963  11.4184
    11.5124  11.6527  11.8034  12.0199  12.1128  12.2053  12.3518  12.3544
    12.4017  12.4716  12.5613  12.5842  13.3293  14.3031  15.3807  16.5251
    17.6219  18.5812

          k = 0.1667 0.4170 0.0000 (  4459 PWs)   bands (ev):

   -34.7175 -34.7088 -34.6980 -34.6848 -34.6647 -34.6456 -34.6234 -34.5782
   -34.5317 -34.4706 -34.4355 -34.4321 -34.4088 -34.3828 -34.3729 -34.3662
   -34.3420 -34.3376 -34.3080 -34.2854 -34.2388 -34.2077 -34.2074 -33.9938
   -33.9935 -33.8740 -33.8736   6.9322   6.9918   7.0875   7.1889   7.2780
     7.3417   7.4922   7.5109   7.5849   7.7397   7.8039   8.0481   8.1349
     8.3491   8.4573   8.6585   8.8531   8.8949   9.0383   9.1552   9.2484
     9.4568   9.5847   9.7989   9.8761  10.0073  10.0689  10.2322  10.3733
    10.5002  10.7849  11.0056  11.1071  11.1599  11.3299  11.3898  11.6767
    11.7511  12.0355  12.5068  12.5962  12.7236  12.7915  12.8425  12.9981
    14.0018  14.1360  14.2270  14.4735  15.0365  15.9264  17.0055  18.1726
    19.3379  20.4041

          k = 0.1667 0.5453 0.0000 (  4490 PWs)   bands (ev):

   -34.7758 -34.7642 -34.7385 -34.7216 -34.7192 -34.6878 -34.6806 -34.5271
   -34.5182 -34.4844 -34.4742 -34.4696 -34.4494 -34.4244 -34.3944 -34.3833
   -34.3712 -34.3468 -34.3304 -34.2962 -34.2699 -34.2529 -34.2527 -34.0276
   -34.0275 -33.8696 -33.8694   6.6203   6.8366   6.9078   7.0614   7.1125
     7.1560   7.2227   7.4234   7.5005   7.5392   7.7845   7.8925   8.0169
     8.2462   8.3425   8.5362   8.6704   8.9955   9.2541   9.3553   9.5142
     9.7216   9.8192   9.8641  10.1698  10.2333  10.2956  10.6616  10.7619
    11.0922  11.1179  11.2149  11.4794  11.7627  11.9241  12.0316  12.1378
    12.2115  12.3528  12.4991  12.5609  12.6349  12.7884  12.9053  13.0002
    15.8330  16.1463  16.4997  16.8061  17.1231  17.5186  17.9298  18.2284
    18.3908  20.3483

          k = 0.1667-0.4811 0.0000 (  4476 PWs)   bands (ev):

   -34.7551 -34.7435 -34.7237 -34.7087 -34.7010 -34.6720 -34.6613 -34.5495
   -34.5249 -34.4736 -34.4611 -34.4587 -34.4306 -34.4094 -34.3867 -34.3850
   -34.3579 -34.3466 -34.3195 -34.2946 -34.2569 -34.2376 -34.2372 -34.0158
   -34.0157 -33.8710 -33.8709   6.7313   6.9219   6.9388   7.1428   7.1602
     7.1864   7.3373   7.4648   7.5262   7.6148   7.7990   7.9506   8.0622
     8.2543   8.4239   8.6442   8.7643   8.8733   9.1950   9.2713   9.5444
     9.6236   9.7415   9.9070   9.9872  10.0386  10.2931  10.5030  10.6722
    10.8551  10.8992  11.0579  11.3764  11.5886  11.6608  11.7224  11.8327
    11.8831  12.1635  12.5357  12.6556  12.7523  12.8501  12.9575  13.0940
    14.9592  15.1639  15.3732  15.6553  16.1523  16.8957  17.8124  18.7804
    19.6289  20.5882

          k = 0.1667-0.3528 0.0000 (  4458 PWs)   bands (ev):

   -34.6812 -34.6786 -34.6589 -34.6580 -34.6248 -34.6135 -34.5888 -34.5695
   -34.5237 -34.4665 -34.4084 -34.3984 -34.3884 -34.3582 -34.3426 -34.3344
   -34.3225 -34.3157 -34.2936 -34.2724 -34.2212 -34.1651 -34.1650 -33.9642
   -33.9640 -33.8780 -33.8779   7.0238   7.1162   7.1822   7.2544   7.3760
     7.4622   7.5615   7.6345   7.6933   7.8111   7.9765   8.1038   8.1925
     8.2887   8.4224   8.5900   8.6987   8.8104   8.9842   9.1622   9.2246
     9.2573   9.3362   9.5326   9.6847   9.7360   9.9882  10.0020  10.2019
    10.4770  10.5928  10.7030  10.8874  11.0913  11.1494  11.2915  11.5739
    11.6392  11.8854  12.3039  12.3633  12.4883  12.5324  12.5998  12.7721
    13.1067  13.1808  13.2414  13.4035  14.0380  15.0198  16.1370  17.3200
    18.4741  19.5158

          k = 0.1667-0.2245 0.0000 (  4433 PWs)   bands (ev):

   -34.7072 -34.6906 -34.6404 -34.5837 -34.5378 -34.5048 -34.4732 -34.4452
   -34.4317 -34.4157 -34.3713 -34.3334 -34.3288 -34.3153 -34.2972 -34.2801
   -34.2638 -34.2538 -34.2442 -34.2306 -34.1948 -34.0561 -34.0559 -33.9011
   -33.9010 -33.8867 -33.8866   6.2308   6.4307   6.7441   7.1295   7.4136
     7.4819   7.6238   7.7413   7.8589   7.9543   8.0782   8.1531   8.1929
     8.3145   8.4354   8.5795   8.6437   8.8800   9.1369   9.1904   9.2846
     9.4031   9.4644   9.5827   9.6652   9.6855   9.8931  10.0131  10.1887
    10.4179  10.4341  10.5359  10.6179  10.7209  10.8758  10.9044  11.0347
    11.1650  11.2035  11.4773  11.5284  11.5818  11.8566  11.8945  11.9013
    12.0629  12.2138  12.4012  12.5584  12.8785  13.7391  14.7326  15.8082
    16.8221  17.6602

          k = 0.1667-0.0962 0.0000 (  4427 PWs)   bands (ev):

   -34.7557 -34.7234 -34.6464 -34.5485 -34.4621 -34.4017 -34.3761 -34.3550
   -34.3404 -34.3242 -34.2965 -34.2959 -34.2950 -34.2725 -34.2699 -34.2471
   -34.2385 -34.2259 -34.1995 -34.1903 -34.1794 -33.9578 -33.9576 -33.8944
   -33.8941 -33.8623 -33.8621   5.4060   5.6882   6.1261   6.6401   6.9544
     6.9736   7.1149   7.3791   7.4196   8.2031   8.4456   8.5543   8.6132
     8.7020   8.7754   8.8460   8.9188   9.3392   9.3806   9.4853   9.5964
     9.6120   9.6432   9.7204   9.7740   9.8394   9.8554   9.9327   9.9884
    10.0254  10.0518  10.0686  10.2242  10.3492  10.4547  10.5459  10.7205
    10.7391  10.9053  11.0107  11.1480  11.2731  11.4968  11.5164  11.7039
    12.0112  12.0881  12.3666  12.6287  12.7772  12.8427  13.7253  14.6720
    15.5239  16.1254

          k = 0.2778 0.4811 0.0000 (  4485 PWs)   bands (ev):

   -34.7127 -34.7126 -34.6941 -34.6941 -34.6633 -34.6571 -34.6170 -34.5998
   -34.5720 -34.5351 -34.5052 -34.5027 -34.4725 -34.4572 -34.4298 -34.4233
   -34.3735 -34.3513 -34.3347 -34.3094 -34.2769 -34.2161 -34.2160 -34.0871
   -34.0868 -33.8684 -33.8682   7.1611   7.1701   7.3071   7.3424   7.4347
     7.6090   7.7929   7.8708   7.9375   7.9596   8.0761   8.0967   8.1994
     8.2334   8.3665   8.4100   8.6832   8.7766   8.9298   9.0524   9.2156
     9.3668   9.5595   9.6501   9.8944   9.8993  10.1194  10.1208  10.5746
    10.6548  10.7257  10.8449  11.0811  11.1146  11.2891  11.3138  11.6308
    11.8852  12.2114  12.4974  12.6741  12.6953  12.6960  12.8297  12.9905
    16.3235  16.4540  16.7235  17.1447  17.7263  18.4744  19.3479  20.2371
    20.6989  20.7833

          k = 0.2778 0.6094 0.0000 (  4491 PWs)   bands (ev):

   -34.7111 -34.7002 -34.6810 -34.6758 -34.6567 -34.6499 -34.6338 -34.5993
   -34.5791 -34.5646 -34.5437 -34.5258 -34.5165 -34.4799 -34.4362 -34.4299
   -34.3615 -34.3505 -34.3352 -34.3146 -34.2969 -34.2080 -34.2078 -34.1193
   -34.1191 -33.8670 -33.8667   7.1238   7.3130   7.3833   7.5238   7.5562
     7.6376   7.7484   7.8557   7.9112   7.9305   8.0395   8.1073   8.1784
     8.2191   8.3268   8.4797   8.5672   8.9022   8.9539   9.1778   9.2690
     9.3745   9.4423   9.6468   9.8223   9.8658  10.1685  10.1772  10.5467
    10.6578  10.8252  10.9524  11.0487  11.1652  11.3120  11.3636  11.9514
    12.1002  12.2819  12.3689  12.4837  12.5349  12.5842  12.6390  12.7674
    17.5236  17.7061  18.0112  18.3858  18.7292  19.0364  19.3967  19.8005
    20.2237  20.3409

          k = 0.2778-0.4170 0.0000 (  4462 PWs)   bands (ev):

   -34.7219 -34.7139 -34.7027 -34.6889 -34.6729 -34.6553 -34.6329 -34.5793
   -34.5443 -34.4956 -34.4710 -34.4690 -34.4402 -34.4169 -34.4066 -34.3897
   -34.3755 -34.3515 -34.3303 -34.2964 -34.2559 -34.2174 -34.2173 -34.0414
   -34.0411 -33.8705 -33.8703   7.0123   7.1478   7.1779   7.3145   7.3632
     7.4927   7.5994   7.6865   7.7674   7.8802   8.0854   8.0994   8.1932
     8.3220   8.5356   8.5400   8.5814   8.7324   8.9518   9.0085   9.2510
     9.3829   9.5351   9.7661   9.9162   9.9461  10.1357  10.1633  10.3336
    10.5123  10.7580  10.9045  11.0701  11.1800  11.3132  11.3647  11.5305
    11.6986  12.1223  12.5364  12.7487  12.7820  12.8461  12.9356  13.0961
    15.1567  15.2426  15.4250  15.7729  16.3429  17.1521  18.1365  19.2066
    20.2655  21.1608

          k = 0.2778-0.2887 0.0000 (  4463 PWs)   bands (ev):

   -34.7003 -34.6996 -34.6815 -34.6775 -34.6417 -34.6304 -34.5920 -34.5809
   -34.5261 -34.4602 -34.4044 -34.3936 -34.3858 -34.3587 -34.3429 -34.3366
   -34.3232 -34.2946 -34.2775 -34.2664 -34.2268 -34.1868 -34.1866 -33.9517
   -33.9516 -33.8775 -33.8773   6.7701   6.9006   6.9756   7.0105   7.1682
     7.1861   7.2673   7.3702   7.4800   7.6258   7.7832   7.9958   8.0378
     8.3404   8.5356   8.8544   8.9091   9.1519   9.1943   9.2951   9.3924
     9.5152   9.6362   9.7280   9.8412  10.0646  10.1746  10.3484  10.5205
    10.5419  10.7557  10.9836  11.1657  11.2395  11.2813  11.4572  11.7686
    11.7849  12.0731  12.2269  12.3648  12.4298  12.5372  12.6216  12.7991
    12.9485  13.1424  13.1711  13.3155  13.9419  14.9542  16.1157  17.3390
    18.5305  19.5906

          k = 0.2778-0.1604 0.0000 (  4458 PWs)   bands (ev):

   -34.6985 -34.6800 -34.6465 -34.6268 -34.5941 -34.5690 -34.5322 -34.5003
   -34.4862 -34.4369 -34.3798 -34.3452 -34.3427 -34.3277 -34.3175 -34.2898
   -34.2759 -34.2647 -34.2350 -34.2186 -34.2120 -34.1180 -34.1177 -33.9031
   -33.9029 -33.8842 -33.8840   6.3868   6.5792   6.7893   6.8993   6.9678
     7.1516   7.3403   7.4131   7.5691   7.7209   7.8769   7.9585   8.1944
     8.5053   8.7241   8.8568   9.0452   9.1862   9.3372   9.4762   9.5566
     9.6122   9.6599   9.7955   9.8998  10.0907  10.1597  10.3417  10.4478
    10.4577  10.6111  10.6981  10.8793  11.0673  11.1125  11.2155  11.2509
    11.2976  11.4023  11.4453  11.6084  11.7304  11.8394  11.9493  11.9559
    12.0915  12.3972  12.6760  12.8364  12.8474  13.9035  15.0618  16.2484
    17.3523  18.2777

          k = 0.3889 0.6736 0.0000 (  4511 PWs)   bands (ev):

   -34.7479 -34.7358 -34.7078 -34.6957 -34.6898 -34.6681 -34.6585 -34.5544
   -34.5483 -34.5215 -34.5172 -34.5071 -34.4837 -34.4495 -34.4269 -34.4094
   -34.3629 -34.3628 -34.3377 -34.3038 -34.2854 -34.2339 -34.2338 -34.0772
   -34.0772 -33.8680 -33.8679   6.8464   7.0577   7.2337   7.3763   7.3767
     7.4378   7.5671   7.6295   7.7158   7.8022   7.9983   8.0244   8.1812
     8.3212   8.3615   8.4031   8.5182   8.7485   9.0260   9.2049   9.4557
     9.5916   9.6950   9.8219   9.8960  10.1406  10.2379  10.3730  10.6142
    10.6591  10.6954  11.0180  11.2711  11.4614  11.6078  11.7100  12.1316
    12.1857  12.2686  12.3585  12.5120  12.5248  12.6988  12.7841  12.8114
    17.0437  17.2549  17.5040  17.7400  17.9806  18.2563  18.5772  18.8869
    19.1476  20.4807

          k = 0.3889-0.3528 0.0000 (  4485 PWs)   bands (ev):

   -34.7890 -34.7769 -34.7541 -34.7390 -34.7299 -34.7005 -34.6887 -34.5273
   -34.5150 -34.4559 -34.4403 -34.4344 -34.4135 -34.3907 -34.3867 -34.3667
   -34.3534 -34.3189 -34.3087 -34.2848 -34.2640 -34.2588 -34.2530 -33.9845
   -33.9844 -33.8719 -33.8717   6.4604   6.6453   6.6606   6.8067   6.8676
     6.9404   6.9903   7.1902   7.2701   7.2984   7.5983   7.6515   7.8136
     8.2163   8.4874   8.7480   8.9182   9.2270   9.3316   9.4567   9.5158
     9.6489   9.8891  10.0907  10.2131  10.4717  10.6669  10.7952  11.0580
    11.2833  11.5562  11.5924  11.7042  11.9852  12.1764  12.2281  12.2623
    12.2912  12.3722  12.5704  12.6330  12.7364  12.8321  12.9742  13.0970
    14.5608  14.9371  15.3203  15.5577  15.8439  16.4181  17.1902  17.9587
    18.5247  20.2821

          k = 0.3889-0.2245 0.0000 (  4444 PWs)   bands (ev):

   -34.7649 -34.7536 -34.7383 -34.7269 -34.7033 -34.6844 -34.6526 -34.5538
   -34.5235 -34.4566 -34.4027 -34.3871 -34.3836 -34.3650 -34.3577 -34.3267
   -34.3144 -34.2983 -34.2664 -34.2574 -34.2417 -34.2401 -34.2352 -33.9386
   -33.9383 -33.8758 -33.8751   6.4195   6.4591   6.5720   6.6794   6.7500
     6.8082   6.9325   6.9788   7.1150   7.2863   7.4577   7.5142   7.8052
     8.3109   8.6646   9.0119   9.1903   9.2670   9.3614   9.5660   9.5718
     9.7246   9.9253  10.1612  10.3357  10.4129  10.8218  10.9490  11.1215
    11.4820  11.6129  11.9344  11.9556  12.1768  12.2307  12.2820  12.3237
    12.3789  12.4102  12.4817  12.5203  12.5903  12.6570  12.7622  12.8568
    12.8846  12.9562  13.2451  13.2843  13.8363  14.9730  16.2342  17.5162
    18.7670  20.0103

          k =-0.5000-0.8660 0.0000 (  4492 PWs)   bands (ev):

   -34.8208 -34.8098 -34.7875 -34.7655 -34.7647 -34.7259 -34.7210 -34.5184
   -34.5152 -34.4295 -34.4073 -34.4052 -34.4048 -34.4002 -34.3736 -34.3411
   -34.3392 -34.3115 -34.2917 -34.2802 -34.2792 -34.2585 -34.2535 -33.9527
   -33.9526 -33.8731 -33.8727   6.1856   6.3674   6.3794   6.5393   6.5892
     6.6461   6.7410   6.8960   6.9326   7.0962   7.3014   7.3229   7.6538
     8.2064   8.6212   8.8730   9.0518   9.1368   9.2527   9.4724   9.8460
     9.9048   9.9480  10.3648  10.5829  10.6329  10.9472  11.4419  11.4807
    11.5512  12.1045  12.3146  12.3541  12.4821  12.6711  12.7600  12.7719
    12.8068  12.8590  12.9127  12.9348  12.9839  13.0835  13.2428  13.2469
    13.4617  14.3520  15.1702  15.6588  15.8357  16.0931  16.2778  16.4261
    16.4866  19.9626

 ------ SPIN DOWN ----------


          k = 0.0556 0.0962 0.0000 (  4451 PWs)   bands (ev):

   -34.7886 -34.7488 -34.6588 -34.5393 -34.4233 -34.3219 -34.3007 -34.2908
   -34.2786 -34.2754 -34.2664 -34.2590 -34.2396 -34.2378 -34.2312 -34.2174
   -34.2034 -34.2023 -34.1804 -34.1792 -34.1677 -33.9033 -33.9028 -33.8754
   -33.8752 -33.8435 -33.8435   4.8290   5.1407   5.6208   6.1753   6.5471
     6.5983   6.6305   6.9380   6.9575   8.7075   8.7334   8.9217   8.9719
     8.9883   9.0799   9.1734   9.2635   9.3447   9.4274   9.4365   9.4852
     9.4998   9.5417   9.5583   9.5810   9.6325   9.6666   9.7346   9.7794
     9.7986   9.8515  10.0647  10.0786  10.2500  10.8240  10.8746  10.8765
    11.0475  11.0955  11.2534  11.3100  11.3834  11.4490  11.5551  11.6298
    11.8167  11.9394  12.2413  12.3661  12.5470  12.6726  12.9304  13.6369
    14.3216  14.7163

          k = 0.0556 0.2245 0.0000 (  4420 PWs)   bands (ev):

   -34.7345 -34.7085 -34.6415 -34.5603 -34.4935 -34.4475 -34.4171 -34.3973
   -34.3743 -34.3687 -34.3359 -34.3092 -34.3080 -34.2964 -34.2796 -34.2590
   -34.2494 -34.2376 -34.2171 -34.2004 -34.1881 -34.0019 -34.0016 -33.8913
   -33.8910 -33.8765 -33.8764   5.7525   6.0068   6.4022   6.8700   7.1332
     7.1895   7.3581   7.5923   7.6594   8.0182   8.2544   8.3954   8.4070
     8.5254   8.6134   8.7135   8.7701   9.1363   9.3215   9.4085   9.4962
     9.5658   9.6682   9.6853   9.7157   9.8189   9.8438   9.9951  10.1240
    10.1610  10.2427  10.3825  10.4586  10.5367  10.5667  10.6256  10.7270
    10.8357  10.9269  11.0541  11.1501  11.4536  11.5638  11.5987  11.7789
    12.0070  12.1823  12.5205  12.5275  12.6902  13.2525  14.1697  15.1752
    16.1013  16.8092

          k = 0.0556 0.3528 0.0000 (  4467 PWs)   bands (ev):

   -34.6970 -34.6805 -34.6634 -34.6555 -34.6173 -34.6076 -34.5711 -34.5421
   -34.5132 -34.4511 -34.3902 -34.3634 -34.3606 -34.3360 -34.3331 -34.3082
   -34.2928 -34.2724 -34.2568 -34.2336 -34.2194 -34.1559 -34.1556 -33.9205
   -33.9204 -33.8813 -33.8811   6.5552   6.7571   6.8675   6.9231   6.9714
     7.1392   7.2010   7.3647   7.4455   7.6657   7.7707   7.9425   8.0742
     8.4397   8.7027   8.8706   9.0562   9.2022   9.3516   9.4616   9.5330
     9.5589   9.5801   9.7987   9.8514  10.1462  10.1785  10.4169  10.5614
    10.6002  10.7147  10.8889  11.0951  11.2542  11.3527  11.4100  11.5147
    11.6883  11.7386  11.7977  11.9553  12.0979  12.1541  12.2882  12.3355
    12.3865  12.4255  12.6062  12.7838  13.2254  14.2952  15.4814  16.7057
    17.8656  18.8645

          k = 0.0556 0.4811 0.0000 (  4463 PWs)   bands (ev):

   -34.7849 -34.7730 -34.7529 -34.7411 -34.7232 -34.7003 -34.6778 -34.5387
   -34.5194 -34.4541 -34.4116 -34.4041 -34.3933 -34.3800 -34.3661 -34.3431
   -34.3314 -34.3014 -34.2885 -34.2622 -34.2605 -34.2530 -34.2444 -33.9536
   -33.9534 -33.8741 -33.8736   6.3813   6.4885   6.5549   6.6984   6.7224
     6.8098   6.8962   7.0192   7.1135   7.2371   7.4671   7.5018   7.7635
     8.2543   8.5988   8.9211   9.0915   9.2589   9.3212   9.5431   9.5553
     9.7300   9.9444  10.2445  10.2899  10.4739  10.8902  10.9782  11.1101
    11.5384  11.6291  11.9095  11.9697  12.0844  12.3114  12.3882  12.4264
    12.4641  12.5068  12.5374  12.6205  12.6672  12.8027  12.8937  13.0187
    13.3727  13.7998  14.1848  14.3118  14.6184  15.4714  16.5744  17.7140
    18.7542  20.2363

          k = 0.0556-0.5453 0.0000 (  4486 PWs)   bands (ev):

   -34.8131 -34.8006 -34.7780 -34.7599 -34.7535 -34.7206 -34.7115 -34.5196
   -34.5143 -34.4398 -34.4177 -34.4128 -34.4030 -34.3963 -34.3771 -34.3497
   -34.3432 -34.3089 -34.2988 -34.2783 -34.2757 -34.2605 -34.2563 -33.9612
   -33.9610 -33.8726 -33.8722   6.2604   6.4381   6.4560   6.6037   6.6635
     6.7275   6.7982   6.9735   7.0231   7.1459   7.3855   7.4073   7.6907
     8.2149   8.5848   8.8381   9.0223   9.1887   9.2733   9.5023   9.7037
     9.8030   9.9292  10.4247  10.4547  10.4623  11.0429  11.1795  11.2590
    11.6699  11.8850  12.1279  12.2141  12.3536  12.4326  12.5756  12.6515
    12.6909  12.7278  12.7703  12.8162  12.8471  12.9507  13.0482  13.1253
    13.9731  14.5829  15.2359  15.6900  15.7427  15.9066  16.4353  17.0092
    17.4077  20.0487

          k = 0.0556-0.4170 0.0000 (  4465 PWs)   bands (ev):

   -34.7336 -34.7267 -34.7137 -34.7028 -34.6745 -34.6567 -34.6203 -34.5706
   -34.5264 -34.4582 -34.4016 -34.3871 -34.3812 -34.3593 -34.3502 -34.3288
   -34.3135 -34.2882 -34.2743 -34.2488 -34.2381 -34.2156 -34.2143 -33.9397
   -33.9395 -33.8771 -33.8767   6.5591   6.6010   6.7333   6.7793   6.9034
     6.9517   7.0548   7.1087   7.2594   7.4181   7.5907   7.6991   7.8931
     8.3408   8.6356   8.9922   9.2427   9.2908   9.3750   9.4131   9.5449
     9.6487   9.7845  10.0435  10.0650  10.3018  10.5196  10.6300  10.9773
    11.0794  11.2735  11.4020  11.4954  11.7694  11.8597  11.9433  12.0137
    12.0785  12.1558  12.2488  12.3237  12.4785  12.5111  12.6516  12.7364
    12.8763  12.9832  13.0965  13.1679  13.7942  14.8839  16.1184  17.3954
    18.6415  19.7577

          k = 0.0556-0.2887 0.0000 (  4439 PWs)   bands (ev):

   -34.7032 -34.6866 -34.6418 -34.5994 -34.5614 -34.5301 -34.4960 -34.4688
   -34.4515 -34.4223 -34.3716 -34.3358 -34.3350 -34.3175 -34.3070 -34.2828
   -34.2708 -34.2557 -34.2370 -34.2164 -34.2023 -34.0808 -34.0807 -33.8984
   -33.8983 -33.8859 -33.8858   6.2796   6.4729   6.7417   7.0161   7.1222
     7.2727   7.5040   7.5611   7.7860   7.8245   8.0432   8.0815   8.2790
     8.4601   8.4904   8.7005   8.8930   8.9262   9.2170   9.4469   9.5514
     9.6097   9.6525   9.7018   9.8144   9.8656   9.9867  10.0513  10.1728
    10.3313  10.5762  10.5866  10.6503  10.7752  10.9157  10.9504  11.1133
    11.1656  11.2106  11.4371  11.5297  11.6272  11.8173  11.8480  11.9251
    12.1411  12.2572  12.5477  12.7266  12.8371  13.7545  14.8247  15.9513
    17.0000  17.8679

          k = 0.0556-0.1604 0.0000 (  4443 PWs)   bands (ev):

   -34.7657 -34.7311 -34.6499 -34.5443 -34.4470 -34.3746 -34.3498 -34.3326
   -34.3199 -34.3104 -34.2892 -34.2824 -34.2772 -34.2689 -34.2549 -34.2383
   -34.2297 -34.2174 -34.1974 -34.1875 -34.1772 -33.9321 -33.9319 -33.8958
   -33.8956 -33.8577 -33.8575   5.2257   5.5201   5.9771   6.5149   6.8605
     6.9000   6.9581   7.2556   7.2816   8.3923   8.5169   8.6525   8.7189
     8.7948   8.8377   8.9049   9.0314   9.2775   9.3372   9.4994   9.5690
     9.5861   9.6158   9.7047   9.7183   9.7537   9.7971   9.8251   9.8561
     9.9502  10.0176  10.0972  10.2268  10.3448  10.3597  10.7095  10.7730
    10.8631  10.9595  10.9665  11.1423  11.3527  11.4266  11.5346  11.7380
    11.8191  12.2051  12.2280  12.5212  12.6575  12.7962  13.5256  14.3906
    15.1904  15.7314

          k = 0.0556-0.0321 0.0000 (  4465 PWs)   bands (ev):

   -34.8007 -34.7583 -34.6645 -34.5388 -34.4156 -34.2985 -34.2741 -34.2712
   -34.2647 -34.2637 -34.2480 -34.2383 -34.2288 -34.2193 -34.2105 -34.2011
   -34.1976 -34.1775 -34.1770 -34.1715 -34.1602 -33.9051 -33.9048 -33.8474
   -33.8473 -33.8362 -33.8360   4.6192   4.9372   5.4244   5.9824   6.3674
     6.4188   6.4564   6.7561   6.7728   8.8774   8.9146   9.0923   9.1170
     9.1283   9.2101   9.2741   9.2894   9.3314   9.3402   9.3515   9.3556
     9.4461   9.4774   9.5048   9.5505   9.5824   9.5974   9.6237   9.7552
     9.8375   9.9282   9.9327   9.9536  10.6133  11.0071  11.0081  11.1579
    11.1655  11.2728  11.2934  11.3525  11.3952  11.4785  11.6315  11.7670
    11.9663  11.9767  12.0807  12.3368  12.4225  12.5879  12.7231  13.0338
    13.6512  13.9441

          k = 0.1667 0.2887 0.0000 (  4425 PWs)   bands (ev):

   -34.6776 -34.6759 -34.6480 -34.6172 -34.5865 -34.5642 -34.5375 -34.5033
   -34.4898 -34.4498 -34.3919 -34.3636 -34.3575 -34.3328 -34.3174 -34.3089
   -34.2916 -34.2749 -34.2735 -34.2587 -34.2055 -34.1127 -34.1125 -33.9314
   -33.9312 -33.8819 -33.8819   6.7690   6.8566   7.0186   7.2481   7.5178
     7.7304   7.7374   7.7698   7.8515   7.8729   7.9740   7.9932   8.0983
     8.2338   8.3340   8.4112   8.8420   8.8899   8.9294   9.0244   9.1966
     9.3322   9.3814   9.3958   9.4527   9.5100  10.0677  10.0752  10.2336
    10.3155  10.4656  10.5220  10.9164  10.9409  11.0001  11.1963  11.4183
    11.5124  11.6527  11.8034  12.0199  12.1128  12.2053  12.3518  12.3543
    12.4016  12.4716  12.5613  12.5842  13.3293  14.3031  15.3807  16.5251
    17.6219  18.5812

          k = 0.1667 0.4170 0.0000 (  4459 PWs)   bands (ev):

   -34.7175 -34.7088 -34.6980 -34.6848 -34.6647 -34.6456 -34.6234 -34.5782
   -34.5317 -34.4706 -34.4355 -34.4321 -34.4088 -34.3828 -34.3729 -34.3662
   -34.3420 -34.3376 -34.3080 -34.2854 -34.2388 -34.2077 -34.2074 -33.9938
   -33.9935 -33.8740 -33.8737   6.9322   6.9918   7.0875   7.1889   7.2780
     7.3417   7.4922   7.5109   7.5849   7.7397   7.8039   8.0480   8.1348
     8.3491   8.4573   8.6585   8.8531   8.8948   9.0383   9.1552   9.2484
     9.4567   9.5847   9.7989   9.8761  10.0073  10.0689  10.2322  10.3733
    10.5002  10.7849  11.0056  11.1071  11.1599  11.3299  11.3898  11.6767
    11.7511  12.0355  12.5068  12.5962  12.7236  12.7914  12.8425  12.9981
    14.0018  14.1360  14.2269  14.4735  15.0365  15.9264  17.0055  18.1726
    19.3379  20.4041

          k = 0.1667 0.5453 0.0000 (  4490 PWs)   bands (ev):

   -34.7758 -34.7642 -34.7385 -34.7216 -34.7192 -34.6878 -34.6806 -34.5271
   -34.5182 -34.4844 -34.4742 -34.4696 -34.4494 -34.4244 -34.3944 -34.3833
   -34.3712 -34.3468 -34.3304 -34.2962 -34.2699 -34.2529 -34.2527 -34.0276
   -34.0275 -33.8696 -33.8695   6.6203   6.8366   6.9078   7.0614   7.1125
     7.1560   7.2227   7.4234   7.5005   7.5391   7.7845   7.8925   8.0169
     8.2462   8.3425   8.5362   8.6704   8.9955   9.2541   9.3553   9.5142
     9.7216   9.8192   9.8641  10.1698  10.2333  10.2956  10.6616  10.7619
    11.0922  11.1178  11.2149  11.4794  11.7626  11.9241  12.0316  12.1378
    12.2115  12.3527  12.4991  12.5609  12.6349  12.7884  12.9053  13.0002
    15.8330  16.1463  16.4997  16.8061  17.1231  17.5186  17.9298  18.2284
    18.3908  20.3401

          k = 0.1667-0.4811 0.0000 (  4476 PWs)   bands (ev):

   -34.7551 -34.7435 -34.7238 -34.7087 -34.7010 -34.6720 -34.6613 -34.5495
   -34.5249 -34.4736 -34.4611 -34.4587 -34.4306 -34.4094 -34.3867 -34.3850
   -34.3579 -34.3466 -34.3195 -34.2946 -34.2569 -34.2376 -34.2372 -34.0158
   -34.0157 -33.8710 -33.8709   6.7313   6.9219   6.9388   7.1428   7.1602
     7.1864   7.3373   7.4648   7.5262   7.6148   7.7990   7.9506   8.0622
     8.2543   8.4239   8.6442   8.7643   8.8733   9.1950   9.2712   9.5444
     9.6236   9.7415   9.9070   9.9872  10.0386  10.2931  10.5029  10.6722
    10.8551  10.8992  11.0579  11.3764  11.5886  11.6608  11.7224  11.8327
    11.8831  12.1635  12.5357  12.6555  12.7523  12.8501  12.9575  13.0940
    14.9592  15.1639  15.3732  15.6553  16.1523  16.8957  17.8124  18.7804
    19.6289  20.5875

          k = 0.1667-0.3528 0.0000 (  4458 PWs)   bands (ev):

   -34.6812 -34.6787 -34.6589 -34.6580 -34.6248 -34.6135 -34.5888 -34.5695
   -34.5237 -34.4665 -34.4084 -34.3984 -34.3884 -34.3583 -34.3426 -34.3344
   -34.3225 -34.3157 -34.2936 -34.2724 -34.2212 -34.1651 -34.1650 -33.9642
   -33.9640 -33.8780 -33.8779   7.0238   7.1162   7.1822   7.2544   7.3760
     7.4622   7.5615   7.6345   7.6933   7.8111   7.9765   8.1038   8.1925
     8.2887   8.4224   8.5900   8.6987   8.8104   8.9842   9.1622   9.2245
     9.2573   9.3362   9.5326   9.6847   9.7360   9.9882  10.0020  10.2019
    10.4770  10.5928  10.7030  10.8874  11.0913  11.1494  11.2915  11.5739
    11.6392  11.8854  12.3039  12.3633  12.4883  12.5324  12.5998  12.7721
    13.1067  13.1808  13.2413  13.4035  14.0380  15.0198  16.1370  17.3200
    18.4741  19.5158

          k = 0.1667-0.2245 0.0000 (  4433 PWs)   bands (ev):

   -34.7072 -34.6906 -34.6404 -34.5837 -34.5378 -34.5048 -34.4732 -34.4452
   -34.4317 -34.4157 -34.3713 -34.3334 -34.3288 -34.3153 -34.2972 -34.2801
   -34.2638 -34.2538 -34.2442 -34.2306 -34.1948 -34.0561 -34.0559 -33.9011
   -33.9010 -33.8867 -33.8866   6.2308   6.4307   6.7441   7.1295   7.4136
     7.4819   7.6238   7.7413   7.8589   7.9543   8.0782   8.1531   8.1929
     8.3145   8.4354   8.5795   8.6436   8.8800   9.1369   9.1904   9.2846
     9.4031   9.4644   9.5827   9.6652   9.6855   9.8931  10.0131  10.1887
    10.4179  10.4341  10.5359  10.6179  10.7209  10.8758  10.9044  11.0347
    11.1650  11.2035  11.4773  11.5284  11.5818  11.8566  11.8945  11.9013
    12.0629  12.2138  12.4012  12.5584  12.8785  13.7391  14.7326  15.8082
    16.8221  17.6602

          k = 0.1667-0.0962 0.0000 (  4427 PWs)   bands (ev):

   -34.7557 -34.7234 -34.6464 -34.5485 -34.4621 -34.4017 -34.3761 -34.3550
   -34.3404 -34.3242 -34.2965 -34.2960 -34.2950 -34.2725 -34.2700 -34.2471
   -34.2385 -34.2259 -34.1995 -34.1903 -34.1794 -33.9578 -33.9576 -33.8945
   -33.8941 -33.8623 -33.8622   5.4060   5.6882   6.1261   6.6401   6.9544
     6.9736   7.1149   7.3791   7.4196   8.2031   8.4455   8.5543   8.6132
     8.7020   8.7754   8.8460   8.9188   9.3392   9.3806   9.4852   9.5964
     9.6120   9.6432   9.7204   9.7740   9.8394   9.8554   9.9327   9.9884
    10.0254  10.0517  10.0686  10.2242  10.3492  10.4547  10.5459  10.7205
    10.7391  10.9053  11.0107  11.1480  11.2731  11.4968  11.5164  11.7038
    12.0112  12.0881  12.3665  12.6287  12.7772  12.8427  13.7253  14.6720
    15.5239  16.1254

          k = 0.2778 0.4811 0.0000 (  4485 PWs)   bands (ev):

   -34.7127 -34.7126 -34.6941 -34.6941 -34.6633 -34.6571 -34.6170 -34.5999
   -34.5720 -34.5351 -34.5052 -34.5027 -34.4725 -34.4572 -34.4298 -34.4233
   -34.3735 -34.3513 -34.3347 -34.3094 -34.2769 -34.2161 -34.2160 -34.0871
   -34.0869 -33.8684 -33.8682   7.1611   7.1701   7.3071   7.3424   7.4347
     7.6089   7.7929   7.8708   7.9375   7.9596   8.0761   8.0967   8.1994
     8.2334   8.3665   8.4100   8.6831   8.7766   8.9298   9.0524   9.2155
     9.3668   9.5595   9.6501   9.8944   9.8993  10.1193  10.1207  10.5746
    10.6548  10.7257  10.8449  11.0811  11.1146  11.2891  11.3138  11.6308
    11.8852  12.2114  12.4974  12.6741  12.6953  12.6959  12.8297  12.9905
    16.3235  16.4540  16.7235  17.1447  17.7263  18.4744  19.3479  20.2371
    20.6989  20.7828

          k = 0.2778 0.6094 0.0000 (  4491 PWs)   bands (ev):

   -34.7111 -34.7002 -34.6810 -34.6758 -34.6567 -34.6499 -34.6338 -34.5993
   -34.5791 -34.5646 -34.5437 -34.5258 -34.5165 -34.4799 -34.4362 -34.4299
   -34.3615 -34.3505 -34.3352 -34.3146 -34.2969 -34.2080 -34.2078 -34.1193
   -34.1191 -33.8670 -33.8667   7.1238   7.3130   7.3832   7.5238   7.5562
     7.6375   7.7484   7.8556   7.9112   7.9305   8.0394   8.1073   8.1784
     8.2191   8.3268   8.4797   8.5672   8.9022   8.9539   9.1778   9.2690
     9.3745   9.4423   9.6467   9.8223   9.8658  10.1685  10.1772  10.5467
    10.6578  10.8252  10.9524  11.0487  11.1652  11.3120  11.3636  11.9514
    12.1002  12.2819  12.3689  12.4837  12.5349  12.5842  12.6390  12.7674
    17.5236  17.7061  18.0112  18.3858  18.7292  19.0364  19.3967  19.8005
    20.2237  20.3409

          k = 0.2778-0.4170 0.0000 (  4462 PWs)   bands (ev):

   -34.7219 -34.7139 -34.7027 -34.6889 -34.6729 -34.6553 -34.6329 -34.5793
   -34.5443 -34.4956 -34.4710 -34.4690 -34.4402 -34.4169 -34.4066 -34.3897
   -34.3755 -34.3515 -34.3303 -34.2964 -34.2559 -34.2174 -34.2173 -34.0414
   -34.0411 -33.8706 -33.8703   7.0123   7.1478   7.1779   7.3145   7.3632
     7.4927   7.5994   7.6865   7.7674   7.8802   8.0854   8.0993   8.1932
     8.3220   8.5356   8.5400   8.5813   8.7324   8.9518   9.0085   9.2510
     9.3828   9.5351   9.7661   9.9162   9.9460  10.1357  10.1633  10.3336
    10.5123  10.7580  10.9045  11.0701  11.1800  11.3132  11.3647  11.5305
    11.6986  12.1223  12.5364  12.7487  12.7820  12.8461  12.9356  13.0961
    15.1567  15.2426  15.4249  15.7729  16.3429  17.1521  18.1365  19.2066
    20.2655  21.1607

          k = 0.2778-0.2887 0.0000 (  4463 PWs)   bands (ev):

   -34.7003 -34.6996 -34.6815 -34.6775 -34.6417 -34.6304 -34.5920 -34.5809
   -34.5261 -34.4602 -34.4044 -34.3936 -34.3858 -34.3587 -34.3429 -34.3366
   -34.3232 -34.2946 -34.2775 -34.2664 -34.2268 -34.1868 -34.1867 -33.9517
   -33.9516 -33.8775 -33.8773   6.7701   6.9006   6.9756   7.0105   7.1682
     7.1861   7.2673   7.3702   7.4800   7.6258   7.7832   7.9958   8.0378
     8.3404   8.5356   8.8544   8.9091   9.1519   9.1942   9.2951   9.3924
     9.5152   9.6362   9.7280   9.8412  10.0646  10.1746  10.3484  10.5205
    10.5419  10.7557  10.9836  11.1657  11.2395  11.2813  11.4571  11.7685
    11.7849  12.0731  12.2269  12.3647  12.4298  12.5372  12.6215  12.7991
    12.9485  13.1424  13.1711  13.3155  13.9419  14.9542  16.1156  17.3390
    18.5305  19.5906

          k = 0.2778-0.1604 0.0000 (  4458 PWs)   bands (ev):

   -34.6985 -34.6800 -34.6465 -34.6268 -34.5942 -34.5690 -34.5322 -34.5003
   -34.4862 -34.4369 -34.3798 -34.3452 -34.3427 -34.3277 -34.3175 -34.2898
   -34.2760 -34.2647 -34.2350 -34.2186 -34.2120 -34.1180 -34.1177 -33.9031
   -33.9030 -33.8842 -33.8840   6.3868   6.5792   6.7893   6.8993   6.9678
     7.1516   7.3403   7.4131   7.5691   7.7209   7.8769   7.9585   8.1944
     8.5053   8.7241   8.8568   9.0452   9.1862   9.3372   9.4762   9.5566
     9.6122   9.6599   9.7955   9.8997  10.0907  10.1597  10.3417  10.4477
    10.4577  10.6111  10.6981  10.8793  11.0673  11.1125  11.2155  11.2509
    11.2975  11.4023  11.4453  11.6084  11.7304  11.8394  11.9493  11.9559
    12.0915  12.3971  12.6760  12.8364  12.8474  13.9035  15.0618  16.2484
    17.3523  18.2777

          k = 0.3889 0.6736 0.0000 (  4511 PWs)   bands (ev):

   -34.7479 -34.7358 -34.7078 -34.6957 -34.6898 -34.6681 -34.6585 -34.5544
   -34.5483 -34.5215 -34.5172 -34.5071 -34.4838 -34.4495 -34.4269 -34.4094
   -34.3629 -34.3628 -34.3377 -34.3038 -34.2854 -34.2339 -34.2338 -34.0772
   -34.0772 -33.8680 -33.8679   6.8464   7.0577   7.2337   7.3763   7.3767
     7.4378   7.5671   7.6295   7.7158   7.8022   7.9983   8.0244   8.1812
     8.3212   8.3615   8.4031   8.5182   8.7485   9.0260   9.2049   9.4557
     9.5916   9.6950   9.8219   9.8960  10.1406  10.2379  10.3730  10.6142
    10.6591  10.6954  11.0180  11.2711  11.4613  11.6078  11.7099  12.1316
    12.1856  12.2686  12.3585  12.5120  12.5248  12.6988  12.7841  12.8114
    17.0437  17.2549  17.5040  17.7400  17.9806  18.2563  18.5772  18.8869
    19.1476  20.4800

          k = 0.3889-0.3528 0.0000 (  4485 PWs)   bands (ev):

   -34.7890 -34.7769 -34.7541 -34.7390 -34.7299 -34.7005 -34.6887 -34.5273
   -34.5150 -34.4559 -34.4403 -34.4344 -34.4135 -34.3907 -34.3867 -34.3667
   -34.3534 -34.3189 -34.3087 -34.2848 -34.2641 -34.2588 -34.2531 -33.9846
   -33.9844 -33.8719 -33.8717   6.4603   6.6453   6.6606   6.8067   6.8676
     6.9404   6.9903   7.1902   7.2701   7.2983   7.5983   7.6515   7.8136
     8.2163   8.4874   8.7480   8.9182   9.2270   9.3316   9.4567   9.5158
     9.6489   9.8891  10.0907  10.2131  10.4717  10.6669  10.7952  11.0580
    11.2833  11.5562  11.5923  11.7042  11.9852  12.1764  12.2281  12.2623
    12.2912  12.3722  12.5704  12.6330  12.7363  12.8321  12.9742  13.0970
    14.5608  14.9371  15.3203  15.5577  15.8439  16.4181  17.1902  17.9587
    18.5247  20.2820

          k = 0.3889-0.2245 0.0000 (  4444 PWs)   bands (ev):

   -34.7649 -34.7536 -34.7383 -34.7269 -34.7033 -34.6844 -34.6526 -34.5538
   -34.5235 -34.4566 -34.4027 -34.3871 -34.3836 -34.3650 -34.3577 -34.3267
   -34.3144 -34.2983 -34.2664 -34.2574 -34.2417 -34.2402 -34.2352 -33.9386
   -33.9383 -33.8758 -33.8752   6.4195   6.4591   6.5720   6.6794   6.7500
     6.8082   6.9325   6.9787   7.1150   7.2863   7.4577   7.5142   7.8052
     8.3109   8.6646   9.0119   9.1903   9.2669   9.3614   9.5660   9.5718
     9.7246   9.9253  10.1612  10.3357  10.4129  10.8217  10.9490  11.1215
    11.4820  11.6129  11.9344  11.9556  12.1768  12.2307  12.2820  12.3237
    12.3789  12.4102  12.4817  12.5203  12.5903  12.6570  12.7622  12.8568
    12.8846  12.9562  13.2451  13.2843  13.8363  14.9730  16.2342  17.5162
    18.7670  20.0103

          k =-0.5000-0.8660 0.0000 (  4492 PWs)   bands (ev):

   -34.8208 -34.8098 -34.7875 -34.7655 -34.7647 -34.7259 -34.7210 -34.5184
   -34.5152 -34.4295 -34.4073 -34.4052 -34.4048 -34.4002 -34.3736 -34.3411
   -34.3392 -34.3115 -34.2918 -34.2802 -34.2792 -34.2586 -34.2535 -33.9527
   -33.9526 -33.8731 -33.8727   6.1856   6.3674   6.3793   6.5393   6.5892
     6.6461   6.7410   6.8960   6.9326   7.0962   7.3014   7.3229   7.6538
     8.2064   8.6212   8.8730   9.0518   9.1368   9.2527   9.4724   9.8460
     9.9048   9.9480  10.3648  10.5829  10.6329  10.9471  11.4419  11.4807
    11.5512  12.1045  12.3146  12.3541  12.4821  12.6711  12.7600  12.7719
    12.8068  12.8590  12.9127  12.9348  12.9839  13.0835  13.2428  13.2469
    13.4617  14.3520  15.1702  15.6588  15.8357  16.0931  16.2778  16.4261
    16.4866  19.9620

     the Fermi energy is    12.2063 ev

!    total energy              =   -1540.61859051 Ry
     estimated scf accuracy    <       0.00000009 Ry
     smearing contrib. (-TS)   =      -0.03853808 Ry
     internal energy E=F+TS    =   -1540.58005243 Ry

     The total energy is F=E-TS. E is the sum of the following terms:
     one-electron contribution =  -10643.71563487 Ry
     hartree contribution      =    5399.76653340 Ry
     xc contribution           =    -269.22263430 Ry
     ewald contribution        =    3972.59168333 Ry

     total magnetization       =    -0.00 Bohr mag/cell
     absolute magnetization    =     0.00 Bohr mag/cell

     convergence has been achieved in   7 iterations

     negative rho (up, down):  2.564E-01 2.564E-01

     Forces acting on atoms (cartesian axes, Ry/au):

     atom    1 type  1   force =     0.00000000    0.00000000    0.00652384
     atom    2 type  1   force =     0.00000000    0.00000000   -0.00206957
     atom    3 type  1   force =     0.00000000    0.00000000   -0.00408164
     atom    4 type  1   force =     0.00000000    0.00000000   -0.00093016
     atom    5 type  1   force =     0.00000000    0.00000000    0.00000141
     atom    6 type  1   force =     0.00000000    0.00000000    0.00092602
     atom    7 type  1   force =     0.00000000    0.00000000    0.00407261
     atom    8 type  1   force =     0.00000000    0.00000000    0.00206508
     atom    9 type  1   force =     0.00000000    0.00000000   -0.00650760

     Total force =     0.011333     Total SCF correction =     0.001982
     SCF correction compared to forces is large: reduce conv_thr to get better values
     Energy error            =      3.2E-04
     Gradient error          =      6.5E-03

     number of scf cycles    =   3
     number of bfgs steps    =   2

     energy   old            =   -1540.6182708624 Ry
     energy   new            =   -1540.6185905127 Ry

     CASE: energy  _new < energy  _old

     new trust radius        =       0.0197344937 bohr
     new conv_thr            =       0.0000003197 Ry


ATOMIC_POSITIONS (angstrom)
Rh            0.0000000000        0.0000000000        0.0237341917
Rh            2.7108568000        1.5651139000        2.2022125950
Rh            1.3554284000        0.7825569000        4.4130801582
Rh            0.0000000000        0.0000000000        6.6396765202
Rh            2.7108568000        1.5651139000        8.8536134845
Rh            1.3554284000        0.7825569000       11.0675521677
Rh            0.0000000000        0.0000000000       13.2941555881
Rh            2.7108568000        1.5651139000       15.5050305649
Rh            1.3554284000        0.7825569000       17.6835351296



     Writing output data file /home/STUDENTI/leonardo.razzai/WORK/relax_surf/9-L.save/
     NEW-OLD atomic charge density approx. for the potential

     negative rho (up, down):  2.538E-01 2.538E-01
     Generating pointlists ...
     new r_m :   0.4082 (alat units)  2.0910 (a.u.) for type    1

     total cpu time spent up to now is      728.1 secs

     Self-consistent Calculation

     iteration #  1     ecut=    35.00 Ry     beta= 0.40
     Davidson diagonalization with overlap
     ethr =  1.00E-06,  avg # of iterations =  6.2

     negative rho (up, down):  2.539E-01 2.539E-01

     total cpu time spent up to now is      775.9 secs

     total energy              =   -1540.61663213 Ry
     estimated scf accuracy    <       0.16578722 Ry

     total magnetization       =    -0.00 Bohr mag/cell
     absolute magnetization    =     0.00 Bohr mag/cell

     iteration #  2     ecut=    35.00 Ry     beta= 0.40
     Davidson diagonalization with overlap
     ethr =  1.23E-04,  avg # of iterations =  1.0

     negative rho (up, down):  2.539E-01 2.539E-01

     total cpu time spent up to now is      795.1 secs

     total energy              =   -1540.61822385 Ry
     estimated scf accuracy    <       0.09191100 Ry

     total magnetization       =    -0.00 Bohr mag/cell
     absolute magnetization    =     0.00 Bohr mag/cell

     iteration #  3     ecut=    35.00 Ry     beta= 0.40
     Davidson diagonalization with overlap
     ethr =  6.81E-05,  avg # of iterations =  1.0

     negative rho (up, down):  2.539E-01 2.539E-01

     total cpu time spent up to now is      814.4 secs

     total energy              =   -1540.61886155 Ry
     estimated scf accuracy    <       0.00356894 Ry

     total magnetization       =    -0.00 Bohr mag/cell
     absolute magnetization    =     0.00 Bohr mag/cell

     iteration #  4     ecut=    35.00 Ry     beta= 0.40
     Davidson diagonalization with overlap
     ethr =  2.64E-06,  avg # of iterations =  1.0

     negative rho (up, down):  2.539E-01 2.539E-01

     total cpu time spent up to now is      834.1 secs

     total energy              =   -1540.61881890 Ry
     estimated scf accuracy    <       0.00167808 Ry

     total magnetization       =    -0.00 Bohr mag/cell
     absolute magnetization    =     0.00 Bohr mag/cell

     iteration #  5     ecut=    35.00 Ry     beta= 0.40
     Davidson diagonalization with overlap
     ethr =  1.24E-06,  avg # of iterations =  1.0

     negative rho (up, down):  2.539E-01 2.539E-01

     total cpu time spent up to now is      853.4 secs

     total energy              =   -1540.61884069 Ry
     estimated scf accuracy    <       0.00002542 Ry

     total magnetization       =    -0.00 Bohr mag/cell
     absolute magnetization    =     0.00 Bohr mag/cell

     iteration #  6     ecut=    35.00 Ry     beta= 0.40
     Davidson diagonalization with overlap
     ethr =  1.88E-08,  avg # of iterations =  1.5

     negative rho (up, down):  2.539E-01 2.539E-01

     total cpu time spent up to now is      873.7 secs

     total energy              =   -1540.61884183 Ry
     estimated scf accuracy    <       0.00000449 Ry

     total magnetization       =    -0.00 Bohr mag/cell
     absolute magnetization    =     0.00 Bohr mag/cell

     iteration #  7     ecut=    35.00 Ry     beta= 0.40
     Davidson diagonalization with overlap
     ethr =  3.33E-09,  avg # of iterations =  1.5

     negative rho (up, down):  2.539E-01 2.539E-01

     total cpu time spent up to now is      894.0 secs

     total energy              =   -1540.61884189 Ry
     estimated scf accuracy    <       0.00000473 Ry

     total magnetization       =    -0.00 Bohr mag/cell
     absolute magnetization    =     0.00 Bohr mag/cell

     iteration #  8     ecut=    35.00 Ry     beta= 0.40
     Davidson diagonalization with overlap
     ethr =  3.33E-09,  avg # of iterations =  1.0

     negative rho (up, down):  2.539E-01 2.539E-01

     total cpu time spent up to now is      913.2 secs

     total energy              =   -1540.61884204 Ry
     estimated scf accuracy    <       0.00000476 Ry

     total magnetization       =    -0.00 Bohr mag/cell
     absolute magnetization    =     0.00 Bohr mag/cell

     iteration #  9     ecut=    35.00 Ry     beta= 0.40
     Davidson diagonalization with overlap
     ethr =  3.33E-09,  avg # of iterations =  1.0

     negative rho (up, down):  2.539E-01 2.539E-01

     total cpu time spent up to now is      932.6 secs

     total energy              =   -1540.61884223 Ry
     estimated scf accuracy    <       0.00000356 Ry

     total magnetization       =    -0.00 Bohr mag/cell
     absolute magnetization    =     0.00 Bohr mag/cell

     iteration # 10     ecut=    35.00 Ry     beta= 0.40
     Davidson diagonalization with overlap
     ethr =  2.64E-09,  avg # of iterations =  1.0

     negative rho (up, down):  2.539E-01 2.539E-01
 
     Magnetic moment per site:
     atom:    1    charge:   13.1059    magn:   -0.0000    constr:    0.0000
     atom:    2    charge:   13.1604    magn:   -0.0000    constr:    0.0000
     atom:    3    charge:   13.1582    magn:    0.0000    constr:    0.0000
     atom:    4    charge:   13.1577    magn:    0.0000    constr:    0.0000
     atom:    5    charge:   13.1610    magn:    0.0000    constr:    0.0000
     atom:    6    charge:   13.1579    magn:    0.0000    constr:    0.0000
     atom:    7    charge:   13.1577    magn:    0.0000    constr:    0.0000
     atom:    8    charge:   13.1610    magn:   -0.0000    constr:    0.0000
     atom:    9    charge:   13.1063    magn:   -0.0000    constr:    0.0000

     total cpu time spent up to now is      951.7 secs

     End of self-consistent calculation

 ------ SPIN UP ------------


          k = 0.0556 0.0962 0.0000 (  4451 PWs)   bands (ev):

   -34.7848 -34.7518 -34.6643 -34.5405 -34.4241 -34.3248 -34.3061 -34.2885
   -34.2802 -34.2795 -34.2667 -34.2544 -34.2355 -34.2327 -34.2253 -34.2129
   -34.1975 -34.1975 -34.1741 -34.1736 -34.1618 -33.9146 -33.9142 -33.8844
   -33.8842 -33.8527 -33.8526   4.8348   5.1366   5.6107   6.1710   6.5484
     6.6047   6.6341   6.9165   6.9385   8.7065   8.7409   8.9119   8.9771
     8.9987   9.0781   9.1624   9.2547   9.3470   9.4298   9.4429   9.4869
     9.4927   9.5363   9.5569   9.5823   9.6258   9.6716   9.7310   9.7814
     9.7937   9.8481  10.0486  10.0610  10.2501  10.8204  10.8793  10.8825
    11.0493  11.0932  11.2490  11.3080  11.3816  11.4497  11.5547  11.6335
    11.8104  11.9422  12.2424  12.3659  12.5557  12.6770  12.9313  13.6429
    14.3357  14.7241

          k = 0.0556 0.2245 0.0000 (  4420 PWs)   bands (ev):

   -34.7313 -34.7111 -34.6448 -34.5608 -34.4964 -34.4530 -34.4190 -34.3915
   -34.3715 -34.3653 -34.3316 -34.3131 -34.3118 -34.2937 -34.2753 -34.2542
   -34.2446 -34.2335 -34.2108 -34.1946 -34.1824 -34.0107 -34.0104 -33.9029
   -33.9026 -33.8856 -33.8855   5.7584   6.0035   6.3932   6.8650   7.1391
     7.1867   7.3534   7.5739   7.6472   8.0211   8.2499   8.3942   8.4087
     8.5228   8.5961   8.7126   8.7639   9.1343   9.3178   9.4051   9.4940
     9.5685   9.6692   9.6891   9.7178   9.8150   9.8429   9.9915  10.1199
    10.1611  10.2373  10.3737  10.4513  10.5332  10.5673  10.6261  10.7251
    10.8353  10.9238  11.0536  11.1482  11.4548  11.5666  11.5997  11.7778
    12.0096  12.1855  12.5234  12.5382  12.6954  13.2572  14.1745  15.1846
    16.1150  16.8160

          k = 0.0556 0.3528 0.0000 (  4467 PWs)   bands (ev):

   -34.6947 -34.6824 -34.6603 -34.6565 -34.6198 -34.6121 -34.5699 -34.5371
   -34.5127 -34.4516 -34.3889 -34.3668 -34.3647 -34.3323 -34.3304 -34.3034
   -34.2883 -34.2681 -34.2508 -34.2279 -34.2138 -34.1635 -34.1632 -33.9295
   -33.9294 -33.8939 -33.8938   6.5611   6.7524   6.8739   6.9266   6.9600
     7.1292   7.2028   7.3543   7.4375   7.6544   7.7586   7.9363   8.0657
     8.4338   8.7027   8.8622   9.0565   9.1982   9.3507   9.4632   9.5365
     9.5600   9.5836   9.7878   9.8516  10.1292  10.1764  10.4108  10.5534
    10.5940  10.7140  10.8823  11.0918  11.2602  11.3539  11.4153  11.5111
    11.6919  11.7405  11.7959  11.9533  12.0964  12.1584  12.2904  12.3362
    12.3921  12.4267  12.6167  12.7887  13.2315  14.3032  15.4914  16.7155
    17.8751  18.8719

          k = 0.0556 0.4811 0.0000 (  4463 PWs)   bands (ev):

   -34.7845 -34.7773 -34.7512 -34.7399 -34.7200 -34.6975 -34.6723 -34.5451
   -34.5296 -34.4531 -34.4118 -34.4064 -34.3931 -34.3745 -34.3635 -34.3387
   -34.3273 -34.2973 -34.2843 -34.2656 -34.2611 -34.2516 -34.2408 -33.9625
   -33.9623 -33.8875 -33.8871   6.3873   6.4942   6.5487   6.6954   6.7245
     6.7980   6.8886   7.0160   7.1081   7.2233   7.4509   7.4913   7.7542
     8.2495   8.5949   8.9216   9.0989   9.2618   9.3224   9.5353   9.5502
     9.7337   9.9255  10.2433  10.2878  10.4635  10.8870  10.9758  11.1066
    11.5377  11.6236  11.9075  11.9736  12.0885  12.3157  12.3884  12.4309
    12.4651  12.5083  12.5439  12.6225  12.6720  12.8013  12.8951  13.0223
    13.3748  13.7984  14.1849  14.3151  14.6219  15.4781  16.5856  17.7224
    18.7569  20.2402

          k = 0.0556-0.5453 0.0000 (  4486 PWs)   bands (ev):

   -34.8128 -34.8051 -34.7778 -34.7572 -34.7499 -34.7174 -34.7054 -34.5313
   -34.5272 -34.4344 -34.4187 -34.4138 -34.3984 -34.3923 -34.3748 -34.3453
   -34.3396 -34.3050 -34.2979 -34.2828 -34.2761 -34.2557 -34.2515 -33.9701
   -33.9698 -33.8862 -33.8859   6.2663   6.4435   6.4491   6.6088   6.6575
     6.7141   6.7931   6.9671   7.0208   7.1334   7.3722   7.3923   7.6807
     8.2090   8.5807   8.8404   9.0298   9.1919   9.2761   9.4890   9.7009
     9.8047   9.9148  10.4187  10.4458  10.4639  11.0366  11.1745  11.2612
    11.6692  11.8859  12.1291  12.2164  12.3576  12.4394  12.5785  12.6504
    12.6910  12.7321  12.7739  12.8196  12.8503  12.9496  13.0464  13.1270
    13.9757  14.5809  15.2355  15.6940  15.7453  15.9124  16.4452  17.0168
    17.4110  20.0433

          k = 0.0556-0.4170 0.0000 (  4465 PWs)   bands (ev):

   -34.7330 -34.7289 -34.7109 -34.7037 -34.6737 -34.6555 -34.6154 -34.5718
   -34.5319 -34.4599 -34.4008 -34.3900 -34.3841 -34.3547 -34.3478 -34.3241
   -34.3091 -34.2838 -34.2687 -34.2431 -34.2347 -34.2222 -34.2187 -33.9486
   -33.9485 -33.8901 -33.8898   6.5649   6.6069   6.7288   6.7735   6.9056
     6.9452   7.0453   7.1053   7.2510   7.4044   7.5759   7.6901   7.8847
     8.3372   8.6326   8.9900   9.2464   9.2893   9.3755   9.4153   9.5512
     9.6370   9.7794  10.0289  10.0611  10.3030  10.5096  10.6279  10.9712
    11.0729  11.2688  11.3990  11.4944  11.7730  11.8657  11.9453  12.0151
    12.0804  12.1570  12.2499  12.3285  12.4767  12.5174  12.6573  12.7396
    12.8807  12.9832  13.0998  13.1669  13.7988  14.8921  16.1299  17.4048
    18.6478  19.7651

          k = 0.0556-0.2887 0.0000 (  4439 PWs)   bands (ev):

   -34.7008 -34.6887 -34.6418 -34.5994 -34.5660 -34.5353 -34.4960 -34.4635
   -34.4479 -34.4199 -34.3693 -34.3396 -34.3393 -34.3156 -34.3028 -34.2780
   -34.2660 -34.2517 -34.2309 -34.2106 -34.1966 -34.0892 -34.0890 -33.9075
   -33.9075 -33.8980 -33.8978   6.2857   6.4704   6.7352   7.0128   7.1245
     7.2643   7.4949   7.5577   7.7800   7.8173   8.0396   8.0751   8.2738
     8.4429   8.4882   8.6920   8.8987   8.9223   9.2170   9.4492   9.5521
     9.6080   9.6553   9.7004   9.8109   9.8541   9.9848  10.0457  10.1739
    10.3186  10.5748  10.5809  10.6458  10.7757  10.9172  10.9472  11.1154
    11.1673  11.2152  11.4316  11.5237  11.6259  11.8191  11.8512  11.9275
    12.1436  12.2632  12.5590  12.7311  12.8431  13.7610  14.8323  15.9612
    17.0119  17.8747

          k = 0.0556-0.1604 0.0000 (  4443 PWs)   bands (ev):

   -34.7622 -34.7341 -34.6547 -34.5453 -34.4484 -34.3797 -34.3540 -34.3271
   -34.3176 -34.3083 -34.2928 -34.2854 -34.2721 -34.2639 -34.2507 -34.2329
   -34.2255 -34.2129 -34.1910 -34.1818 -34.1714 -33.9415 -33.9413 -33.9068
   -33.9067 -33.8668 -33.8666   5.2315   5.5163   5.9673   6.5103   6.8633
     6.9041   6.9602   7.2340   7.2631   8.3951   8.5154   8.6513   8.7253
     8.7940   8.8353   8.8953   9.0212   9.2695   9.3342   9.5011   9.5689
     9.5919   9.6176   9.6973   9.7237   9.7552   9.7937   9.8217   9.8537
     9.9430  10.0157  10.1003  10.2266  10.3310  10.3447  10.7120  10.7776
    10.8593  10.9597  10.9644  11.1420  11.3535  11.4285  11.5353  11.7351
    11.8195  12.2072  12.2295  12.5299  12.6609  12.8004  13.5279  14.3987
    15.2048  15.7386

          k = 0.0556-0.0321 0.0000 (  4465 PWs)   bands (ev):

   -34.7968 -34.7614 -34.6703 -34.5402 -34.4162 -34.2977 -34.2794 -34.2735
   -34.2697 -34.2692 -34.2436 -34.2337 -34.2238 -34.2140 -34.2060 -34.1970
   -34.1918 -34.1712 -34.1711 -34.1656 -34.1543 -33.9163 -33.9161 -33.8565
   -33.8564 -33.8454 -33.8451   4.6250   4.9330   5.4142   5.9783   6.3677
     6.4265   6.4605   6.7348   6.7537   8.8774   8.9218   9.0859   9.1208
     9.1370   9.2074   9.2781   9.2856   9.3337   9.3436   9.3473   9.3536
     9.4415   9.4728   9.5096   9.5510   9.5809   9.5955   9.6272   9.7484
     9.8237   9.9102   9.9150   9.9535  10.6115  11.0125  11.0132  11.1584
    11.1652  11.2716  11.2930  11.3479  11.3928  11.4771  11.6255  11.7629
    11.9700  11.9717  12.0873  12.3403  12.4217  12.5955  12.7275  13.0376
    13.6644  13.9525

          k = 0.1667 0.2887 0.0000 (  4425 PWs)   bands (ev):

   -34.6772 -34.6769 -34.6445 -34.6172 -34.5918 -34.5699 -34.5369 -34.4983
   -34.4859 -34.4483 -34.3901 -34.3690 -34.3641 -34.3294 -34.3145 -34.3033
   -34.2860 -34.2682 -34.2678 -34.2538 -34.1999 -34.1207 -34.1205 -33.9405
   -33.9403 -33.8942 -33.8942   6.7760   6.8568   7.0144   7.2424   7.5090
     7.7289   7.7402   7.7640   7.8545   7.8634   7.9772   7.9778   8.0791
     8.2185   8.3270   8.4156   8.8374   8.8825   8.9296   9.0186   9.1935
     9.3271   9.3624   9.3813   9.4614   9.5203  10.0701  10.0773  10.2306
    10.3131  10.4644  10.5201  10.9175  10.9358  11.0023  11.2010  11.4113
    11.5083  11.6565  11.8044  12.0218  12.1160  12.2060  12.3557  12.3584
    12.4073  12.4736  12.5603  12.5877  13.3352  14.3110  15.3902  16.5348
    17.6319  18.5881

          k = 0.1667 0.4170 0.0000 (  4459 PWs)   bands (ev):

   -34.7177 -34.7127 -34.6947 -34.6842 -34.6619 -34.6460 -34.6176 -34.5792
   -34.5353 -34.4719 -34.4414 -34.4393 -34.4071 -34.3768 -34.3684 -34.3616
   -34.3385 -34.3315 -34.3026 -34.2798 -34.2334 -34.2148 -34.2141 -34.0026
   -34.0023 -33.8872 -33.8868   6.9387   6.9983   7.0844   7.1846   7.2701
     7.3434   7.4841   7.4954   7.5746   7.7288   7.7992   8.0413   8.1290
     8.3402   8.4477   8.6488   8.8467   8.8933   9.0413   9.1513   9.2464
     9.4581   9.5763   9.7975   9.8776  10.0010  10.0656  10.2246  10.3701
    10.4919  10.7843  11.0085  11.1087  11.1636  11.3294  11.3962  11.6836
    11.7554  12.0417  12.5126  12.5999  12.7257  12.7931  12.8471  13.0013
    14.0055  14.1383  14.2265  14.4715  15.0386  15.9329  17.0157  18.1810
    19.3437  20.4110

          k = 0.1667 0.5453 0.0000 (  4490 PWs)   bands (ev):

   -34.7754 -34.7685 -34.7392 -34.7202 -34.7140 -34.6850 -34.6741 -34.5345
   -34.5273 -34.4877 -34.4805 -34.4655 -34.4465 -34.4208 -34.3911 -34.3790
   -34.3662 -34.3410 -34.3252 -34.2905 -34.2643 -34.2595 -34.2586 -34.0362
   -34.0362 -33.8832 -33.8831   6.6266   6.8296   6.9140   7.0667   7.1066
     7.1423   7.2156   7.4101   7.4896   7.5318   7.7809   7.8836   8.0017
     8.2370   8.3310   8.5362   8.6790   8.9882   9.2509   9.3448   9.5116
     9.7214   9.8154   9.8676  10.1614  10.2295  10.3002  10.6583  10.7581
    11.0875  11.1117  11.2140  11.4817  11.7677  11.9285  12.0361  12.1417
    12.2175  12.3597  12.5042  12.5655  12.6384  12.7926  12.9101  13.0038
    15.8364  16.1466  16.4995  16.8071  17.1246  17.5217  17.9368  18.2345
    18.3940  20.3459

          k = 0.1667-0.4811 0.0000 (  4476 PWs)   bands (ev):

   -34.7549 -34.7479 -34.7228 -34.7073 -34.6969 -34.6700 -34.6551 -34.5528
   -34.5318 -34.4751 -34.4659 -34.4652 -34.4267 -34.4036 -34.3827 -34.3812
   -34.3538 -34.3407 -34.3144 -34.2886 -34.2521 -34.2443 -34.2428 -34.0245
   -34.0244 -33.8845 -33.8844   6.7377   6.9165   6.9450   7.1374   7.1625
     7.1780   7.3265   7.4526   7.5141   7.6072   7.7935   7.9443   8.0501
     8.2453   8.4120   8.6424   8.7745   8.8629   9.1973   9.2564   9.5413
     9.6214   9.7431   9.9026   9.9889  10.0374  10.2858  10.5000  10.6678
    10.8479  10.8942  11.0588  11.3787  11.5921  11.6635  11.7292  11.8396
    11.8890  12.1700  12.5415  12.6597  12.7557  12.8525  12.9624  13.0974
    14.9629  15.1646  15.3729  15.6553  16.1542  16.9008  17.8209  18.7872
    19.6319  20.5920

          k = 0.1667-0.3528 0.0000 (  4458 PWs)   bands (ev):

   -34.6813 -34.6799 -34.6572 -34.6557 -34.6249 -34.6187 -34.5891 -34.5642
   -34.5227 -34.4671 -34.4104 -34.4050 -34.3917 -34.3536 -34.3369 -34.3315
   -34.3171 -34.3093 -34.2877 -34.2673 -34.2155 -34.1726 -34.1724 -33.9731
   -33.9729 -33.8908 -33.8907   7.0302   7.1214   7.1807   7.2530   7.3703
     7.4549   7.5544   7.6273   7.6859   7.8003   7.9687   8.0980   8.1862
     8.2754   8.4150   8.5859   8.6943   8.8067   8.9805   9.1517   9.2270
     9.2629   9.3286   9.5273   9.6750   9.7314   9.9890  10.0026  10.1981
    10.4733  10.5932  10.7066  10.8869  11.0922  11.1514  11.2939  11.5755
    11.6395  11.8908  12.3079  12.3653  12.4922  12.5353  12.6034  12.7752
    13.1104  13.1847  13.2413  13.3993  14.0416  15.0276  16.1475  17.3292
    18.4819  19.5231

          k = 0.1667-0.2245 0.0000 (  4433 PWs)   bands (ev):

   -34.7047 -34.6928 -34.6415 -34.5839 -34.5419 -34.5104 -34.4738 -34.4394
   -34.4284 -34.4123 -34.3682 -34.3371 -34.3344 -34.3137 -34.2930 -34.2750
   -34.2587 -34.2492 -34.2379 -34.2246 -34.1891 -34.0646 -34.0644 -33.9103
   -33.9102 -33.8985 -33.8984   6.2370   6.4283   6.7365   7.1239   7.4179
     7.4763   7.6190   7.7315   7.8513   7.9484   8.0763   8.1522   8.1870
     8.3008   8.4286   8.5814   8.6370   8.8742   9.1332   9.1872   9.2791
     9.4015   9.4617   9.5737   9.6654   9.6911   9.8939  10.0167  10.1851
    10.4137  10.4257  10.5293  10.6246  10.7187  10.8788  10.9005  11.0307
    11.1656  11.2065  11.4702  11.5240  11.5798  11.8590  11.8978  11.9040
    12.0674  12.2182  12.4089  12.5632  12.8847  13.7457  14.7400  15.8179
    16.8342  17.6668

          k = 0.1667-0.0962 0.0000 (  4427 PWs)   bands (ev):

   -34.7522 -34.7263 -34.6507 -34.5493 -34.4641 -34.4069 -34.3788 -34.3497
   -34.3379 -34.3206 -34.3005 -34.2999 -34.2902 -34.2678 -34.2659 -34.2421
   -34.2338 -34.2220 -34.1934 -34.1847 -34.1736 -33.9669 -33.9667 -33.9057
   -33.9055 -33.8714 -33.8712   5.4119   5.6846   6.1165   6.6354   6.9621
     6.9717   7.1136   7.3587   7.4038   8.2067   8.4387   8.5588   8.6193
     8.6986   8.7578   8.8506   8.9035   9.3353   9.3779   9.4873   9.5993
     9.6179   9.6423   9.7258   9.7648   9.8392   9.8607   9.9274   9.9907
    10.0128  10.0532  10.0607  10.2271  10.3355  10.4419  10.5470  10.7158
    10.7397  10.9065  11.0100  11.1541  11.2700  11.4968  11.5185  11.7029
    12.0095  12.0902  12.3728  12.6381  12.7818  12.8452  13.7278  14.6808
    15.5383  16.1323

          k = 0.2778 0.4811 0.0000 (  4485 PWs)   bands (ev):

   -34.7162 -34.7157 -34.6918 -34.6897 -34.6595 -34.6552 -34.6153 -34.5986
   -34.5726 -34.5373 -34.5087 -34.5079 -34.4712 -34.4537 -34.4300 -34.4217
   -34.3680 -34.3461 -34.3300 -34.3022 -34.2708 -34.2235 -34.2234 -34.0953
   -34.0951 -33.8820 -33.8818   7.1655   7.1780   7.2998   7.3439   7.4262
     7.5922   7.7763   7.8682   7.9379   7.9660   8.0691   8.0879   8.1785
     8.2181   8.3581   8.4034   8.6777   8.7750   8.9205   9.0490   9.2101
     9.3676   9.5599   9.6528   9.8870   9.8933  10.1073  10.1096  10.5760
    10.6559  10.7295  10.8486  11.0840  11.1185  11.2979  11.3228  11.6370
    11.8916  12.2167  12.5034  12.6799  12.6987  12.6993  12.8357  12.9936
    16.3279  16.4549  16.7224  17.1452  17.7284  18.4787  19.3544  20.2425
    20.7019  20.7874

          k = 0.2778 0.6094 0.0000 (  4491 PWs)   bands (ev):

   -34.7110 -34.7045 -34.6794 -34.6744 -34.6538 -34.6463 -34.6317 -34.6023
   -34.5822 -34.5634 -34.5400 -34.5275 -34.5120 -34.4787 -34.4418 -34.4330
   -34.3555 -34.3451 -34.3297 -34.3072 -34.2906 -34.2157 -34.2155 -34.1272
   -34.1270 -33.8807 -33.8804   7.1301   7.3061   7.3896   7.5225   7.5438
     7.6377   7.7380   7.8563   7.8983   7.9333   8.0115   8.0825   8.1795
     8.2211   8.3204   8.4686   8.5546   8.9002   8.9457   9.1739   9.2625
     9.3761   9.4467   9.6442   9.8139   9.8609  10.1573  10.1669  10.5476
    10.6587  10.8304  10.9557  11.0507  11.1703  11.3243  11.3744  11.9563
    12.1061  12.2877  12.3742  12.4894  12.5391  12.5884  12.6441  12.7707
    17.5279  17.7071  18.0111  18.3873  18.7312  19.0374  19.4003  19.8046
    20.2258  20.3437

          k = 0.2778-0.4170 0.0000 (  4462 PWs)   bands (ev):

   -34.7233 -34.7188 -34.6996 -34.6858 -34.6706 -34.6525 -34.6293 -34.5795
   -34.5468 -34.4966 -34.4791 -34.4777 -34.4377 -34.4120 -34.4016 -34.3859
   -34.3697 -34.3464 -34.3259 -34.2900 -34.2500 -34.2245 -34.2244 -34.0500
   -34.0497 -33.8840 -33.8837   7.0186   7.1520   7.1762   7.3072   7.3618
     7.4845   7.5911   7.6772   7.7541   7.8715   8.0840   8.0907   8.1837
     8.3122   8.5265   8.5307   8.5776   8.7301   8.9435   9.0071   9.2477
     9.3811   9.5368   9.7618   9.9116   9.9424  10.1257  10.1571  10.3327
    10.5103  10.7617  10.9068  11.0731  11.1822  11.3172  11.3694  11.5384
    11.7066  12.1280  12.5424  12.7529  12.7856  12.8494  12.9404  13.0993
    15.1610  15.2443  15.4234  15.7722  16.3448  17.1573  18.1449  19.2137
    20.2703  21.1659

          k = 0.2778-0.2887 0.0000 (  4463 PWs)   bands (ev):

   -34.7002 -34.6995 -34.6808 -34.6775 -34.6423 -34.6311 -34.5896 -34.5783
   -34.5282 -34.4617 -34.4058 -34.3988 -34.3877 -34.3542 -34.3389 -34.3316
   -34.3196 -34.2886 -34.2725 -34.2606 -34.2214 -34.1940 -34.1936 -33.9607
   -33.9606 -33.8904 -33.8902   6.7762   6.9071   6.9706   7.0091   7.1612
     7.1884   7.2567   7.3620   7.4686   7.6144   7.7718   7.9889   8.0306
     8.3369   8.5272   8.8449   8.9096   9.1466   9.1936   9.3001   9.3903
     9.5125   9.6371   9.7259   9.8359  10.0624  10.1632  10.3417  10.5194
    10.5346  10.7498  10.9818  11.1692  11.2436  11.2829  11.4604  11.7685
    11.7888  12.0735  12.2340  12.3664  12.4339  12.5383  12.6276  12.8026
    12.9516  13.1446  13.1728  13.3123  13.9458  14.9621  16.1265  17.3483
    18.5379  19.5980

          k = 0.2778-0.1604 0.0000 (  4458 PWs)   bands (ev):

   -34.6962 -34.6824 -34.6437 -34.6271 -34.5995 -34.5735 -34.5315 -34.4958
   -34.4832 -34.4359 -34.3782 -34.3481 -34.3470 -34.3247 -34.3143 -34.2854
   -34.2706 -34.2610 -34.2291 -34.2128 -34.2063 -34.1261 -34.1257 -33.9121
   -33.9120 -33.8965 -33.8963   6.3928   6.5761   6.7855   6.9021   6.9634
     7.1417   7.3425   7.4012   7.5636   7.7111   7.8669   7.9527   8.1857
     8.4956   8.7227   8.8529   9.0410   9.1874   9.3366   9.4804   9.5599
     9.6184   9.6626   9.7855   9.8996  10.0713  10.1564  10.3337  10.4393
    10.4511  10.6121  10.6925  10.8707  11.0613  11.1172  11.2214  11.2517
    11.3016  11.4098  11.4426  11.6023  11.7259  11.8393  11.9539  11.9580
    12.0932  12.4064  12.6871  12.8419  12.8521  13.9105  15.0703  16.2584
    17.3634  18.2848

          k = 0.3889 0.6736 0.0000 (  4511 PWs)   bands (ev):

   -34.7473 -34.7400 -34.7093 -34.6944 -34.6845 -34.6650 -34.6522 -34.5593
   -34.5548 -34.5202 -34.5200 -34.5024 -34.4857 -34.4519 -34.4270 -34.4055
   -34.3570 -34.3569 -34.3325 -34.2973 -34.2790 -34.2410 -34.2410 -34.0856
   -34.0855 -33.8817 -33.8816   6.8528   7.0505   7.2403   7.3603   7.3738
     7.4437   7.5611   7.6213   7.7093   7.7881   7.9810   8.0081   8.1741
     8.3145   8.3590   8.4073   8.5099   8.7424   9.0211   9.1943   9.4490
     9.5907   9.6897   9.8285   9.8943  10.1394  10.2377  10.3685  10.6039
    10.6519  10.6987  11.0213  11.2742  11.4669  11.6147  11.7158  12.1358
    12.1930  12.2740  12.3648  12.5177  12.5280  12.7052  12.7864  12.8159
    17.0473  17.2567  17.5055  17.7403  17.9800  18.2559  18.5827  18.8943
    19.1505  20.4819

          k = 0.3889-0.3528 0.0000 (  4485 PWs)   bands (ev):

   -34.7887 -34.7812 -34.7538 -34.7368 -34.7261 -34.6976 -34.6827 -34.5355
   -34.5260 -34.4551 -34.4436 -34.4359 -34.4088 -34.3857 -34.3824 -34.3627
   -34.3506 -34.3135 -34.3037 -34.2813 -34.2669 -34.2634 -34.2495 -33.9934
   -33.9932 -33.8854 -33.8853   6.4665   6.6508   6.6545   6.8110   6.8615
     6.9294   6.9823   7.1804   7.2665   7.2868   7.5863   7.6405   7.8020
     8.2108   8.4798   8.7488   8.9275   9.2186   9.3278   9.4591   9.5134
     9.6468   9.8786  10.0888  10.2089  10.4646  10.6673  10.7931  11.0539
    11.2780  11.5511  11.5932  11.7038  11.9923  12.1805  12.2298  12.2663
    12.2941  12.3786  12.5748  12.6375  12.7393  12.8337  12.9777  13.1008
    14.5640  14.9363  15.3198  15.5599  15.8464  16.4230  17.1991  17.9655
    18.5276  20.2816

          k = 0.3889-0.2245 0.0000 (  4444 PWs)   bands (ev):

   -34.7643 -34.7575 -34.7345 -34.7276 -34.7008 -34.6822 -34.6475 -34.5575
   -34.5318 -34.4573 -34.3997 -34.3891 -34.3874 -34.3607 -34.3552 -34.3226
   -34.3087 -34.2949 -34.2607 -34.2575 -34.2463 -34.2361 -34.2358 -33.9475
   -33.9473 -33.8891 -33.8885   6.4253   6.4648   6.5662   6.6731   6.7551
     6.7983   6.9229   6.9781   7.1083   7.2721   7.4417   7.5038   7.7964
     8.3065   8.6624   9.0122   9.1954   9.2701   9.3677   9.5614   9.5645
     9.7277   9.9041  10.1594  10.3330  10.4019  10.8193  10.9409  11.1227
    11.4769  11.6091  11.9359  11.9546  12.1808  12.2289  12.2897  12.3239
    12.3825  12.4084  12.4875  12.5231  12.5945  12.6579  12.7562  12.8589
    12.8850  12.9602  13.2479  13.2877  13.8419  14.9812  16.2461  17.5254
    18.7713  20.0168

          k =-0.5000-0.8660 0.0000 (  4492 PWs)   bands (ev):

   -34.8206 -34.8142 -34.7872 -34.7632 -34.7609 -34.7231 -34.7144 -34.5310
   -34.5286 -34.4214 -34.4063 -34.4038 -34.4022 -34.3997 -34.3716 -34.3371
   -34.3346 -34.3082 -34.2965 -34.2850 -34.2736 -34.2541 -34.2480 -33.9616
   -33.9615 -33.8867 -33.8864   6.1915   6.3719   6.3730   6.5447   6.5833
     6.6328   6.7360   6.8899   6.9316   7.0834   7.2880   7.3067   7.6440
     8.2004   8.6180   8.8758   9.0576   9.1409   9.2590   9.4617   9.8243
     9.9062   9.9497  10.3538  10.5838  10.6281  10.9395  11.4443  11.4778
    11.5477  12.1119  12.3170  12.3560  12.4894  12.6736  12.7637  12.7715
    12.8070  12.8619  12.9153  12.9379  12.9873  13.0856  13.2359  13.2407
    13.4644  14.3499  15.1698  15.6633  15.8424  16.0993  16.2862  16.4316
    16.4916  19.9546

 ------ SPIN DOWN ----------


          k = 0.0556 0.0962 0.0000 (  4451 PWs)   bands (ev):

   -34.7848 -34.7518 -34.6643 -34.5405 -34.4241 -34.3248 -34.3061 -34.2885
   -34.2802 -34.2795 -34.2667 -34.2544 -34.2355 -34.2327 -34.2253 -34.2129
   -34.1975 -34.1975 -34.1741 -34.1736 -34.1618 -33.9146 -33.9142 -33.8844
   -33.8842 -33.8527 -33.8526   4.8348   5.1366   5.6107   6.1710   6.5484
     6.6047   6.6341   6.9165   6.9385   8.7065   8.7409   8.9119   8.9771
     8.9987   9.0781   9.1624   9.2547   9.3470   9.4298   9.4429   9.4869
     9.4927   9.5363   9.5569   9.5823   9.6258   9.6716   9.7310   9.7814
     9.7937   9.8480  10.0486  10.0610  10.2501  10.8204  10.8793  10.8825
    11.0493  11.0932  11.2490  11.3080  11.3816  11.4497  11.5547  11.6335
    11.8104  11.9422  12.2424  12.3659  12.5557  12.6770  12.9313  13.6429
    14.3357  14.7241

          k = 0.0556 0.2245 0.0000 (  4420 PWs)   bands (ev):

   -34.7313 -34.7111 -34.6448 -34.5608 -34.4964 -34.4530 -34.4190 -34.3915
   -34.3715 -34.3653 -34.3316 -34.3131 -34.3118 -34.2937 -34.2753 -34.2542
   -34.2446 -34.2335 -34.2108 -34.1946 -34.1824 -34.0107 -34.0104 -33.9029
   -33.9026 -33.8856 -33.8855   5.7584   6.0035   6.3932   6.8650   7.1391
     7.1867   7.3534   7.5739   7.6472   8.0211   8.2499   8.3942   8.4087
     8.5228   8.5961   8.7126   8.7639   9.1343   9.3178   9.4051   9.4940
     9.5685   9.6692   9.6891   9.7178   9.8150   9.8429   9.9915  10.1199
    10.1611  10.2373  10.3737  10.4513  10.5332  10.5673  10.6261  10.7251
    10.8353  10.9238  11.0536  11.1482  11.4548  11.5666  11.5997  11.7778
    12.0096  12.1855  12.5234  12.5382  12.6954  13.2572  14.1745  15.1846
    16.1150  16.8160

          k = 0.0556 0.3528 0.0000 (  4467 PWs)   bands (ev):

   -34.6947 -34.6824 -34.6603 -34.6565 -34.6198 -34.6121 -34.5699 -34.5371
   -34.5127 -34.4516 -34.3889 -34.3668 -34.3647 -34.3323 -34.3304 -34.3034
   -34.2883 -34.2681 -34.2508 -34.2279 -34.2138 -34.1635 -34.1632 -33.9295
   -33.9294 -33.8939 -33.8938   6.5611   6.7524   6.8739   6.9266   6.9600
     7.1292   7.2028   7.3543   7.4375   7.6544   7.7586   7.9363   8.0657
     8.4338   8.7027   8.8622   9.0565   9.1982   9.3507   9.4632   9.5365
     9.5600   9.5836   9.7878   9.8516  10.1292  10.1764  10.4108  10.5534
    10.5940  10.7140  10.8823  11.0918  11.2602  11.3539  11.4153  11.5111
    11.6919  11.7405  11.7959  11.9533  12.0964  12.1584  12.2904  12.3362
    12.3921  12.4267  12.6167  12.7887  13.2315  14.3032  15.4914  16.7155
    17.8751  18.8719

          k = 0.0556 0.4811 0.0000 (  4463 PWs)   bands (ev):

   -34.7845 -34.7773 -34.7512 -34.7399 -34.7200 -34.6975 -34.6723 -34.5451
   -34.5296 -34.4531 -34.4118 -34.4064 -34.3931 -34.3745 -34.3635 -34.3387
   -34.3273 -34.2973 -34.2843 -34.2656 -34.2611 -34.2516 -34.2408 -33.9625
   -33.9623 -33.8875 -33.8871   6.3873   6.4942   6.5487   6.6954   6.7245
     6.7980   6.8886   7.0160   7.1081   7.2233   7.4509   7.4913   7.7542
     8.2495   8.5949   8.9216   9.0989   9.2618   9.3224   9.5353   9.5502
     9.7337   9.9255  10.2433  10.2878  10.4635  10.8870  10.9758  11.1066
    11.5377  11.6236  11.9075  11.9736  12.0885  12.3157  12.3884  12.4309
    12.4651  12.5083  12.5439  12.6225  12.6720  12.8013  12.8951  13.0223
    13.3748  13.7984  14.1849  14.3151  14.6219  15.4781  16.5856  17.7224
    18.7569  20.2402

          k = 0.0556-0.5453 0.0000 (  4486 PWs)   bands (ev):

   -34.8128 -34.8051 -34.7778 -34.7572 -34.7499 -34.7174 -34.7054 -34.5313
   -34.5272 -34.4344 -34.4187 -34.4138 -34.3984 -34.3923 -34.3748 -34.3453
   -34.3396 -34.3050 -34.2979 -34.2828 -34.2761 -34.2557 -34.2515 -33.9701
   -33.9698 -33.8862 -33.8859   6.2663   6.4435   6.4491   6.6088   6.6575
     6.7141   6.7931   6.9671   7.0208   7.1334   7.3722   7.3923   7.6807
     8.2090   8.5807   8.8404   9.0298   9.1919   9.2761   9.4890   9.7009
     9.8047   9.9148  10.4187  10.4458  10.4639  11.0366  11.1745  11.2612
    11.6692  11.8859  12.1291  12.2164  12.3576  12.4394  12.5785  12.6504
    12.6910  12.7321  12.7739  12.8196  12.8503  12.9496  13.0464  13.1270
    13.9757  14.5809  15.2355  15.6940  15.7453  15.9124  16.4452  17.0168
    17.4110  20.0426

          k = 0.0556-0.4170 0.0000 (  4465 PWs)   bands (ev):

   -34.7330 -34.7289 -34.7109 -34.7037 -34.6737 -34.6555 -34.6154 -34.5718
   -34.5319 -34.4599 -34.4008 -34.3900 -34.3841 -34.3547 -34.3478 -34.3241
   -34.3091 -34.2838 -34.2687 -34.2431 -34.2347 -34.2222 -34.2187 -33.9486
   -33.9485 -33.8901 -33.8898   6.5649   6.6069   6.7288   6.7735   6.9056
     6.9452   7.0453   7.1053   7.2510   7.4044   7.5759   7.6901   7.8847
     8.3372   8.6326   8.9900   9.2464   9.2893   9.3755   9.4153   9.5512
     9.6370   9.7794  10.0289  10.0611  10.3030  10.5096  10.6279  10.9712
    11.0729  11.2688  11.3990  11.4944  11.7730  11.8657  11.9453  12.0151
    12.0804  12.1570  12.2499  12.3285  12.4767  12.5174  12.6573  12.7396
    12.8807  12.9832  13.0998  13.1669  13.7988  14.8921  16.1299  17.4048
    18.6478  19.7651

          k = 0.0556-0.2887 0.0000 (  4439 PWs)   bands (ev):

   -34.7008 -34.6887 -34.6418 -34.5994 -34.5660 -34.5353 -34.4960 -34.4635
   -34.4479 -34.4199 -34.3693 -34.3396 -34.3393 -34.3156 -34.3028 -34.2780
   -34.2660 -34.2517 -34.2309 -34.2106 -34.1966 -34.0892 -34.0891 -33.9075
   -33.9075 -33.8980 -33.8978   6.2857   6.4704   6.7352   7.0128   7.1245
     7.2643   7.4949   7.5577   7.7800   7.8173   8.0396   8.0751   8.2738
     8.4429   8.4882   8.6920   8.8987   8.9223   9.2170   9.4492   9.5521
     9.6080   9.6553   9.7004   9.8109   9.8541   9.9848  10.0457  10.1739
    10.3186  10.5748  10.5809  10.6458  10.7757  10.9172  10.9472  11.1154
    11.1673  11.2152  11.4316  11.5237  11.6259  11.8191  11.8512  11.9275
    12.1436  12.2632  12.5590  12.7311  12.8431  13.7610  14.8323  15.9612
    17.0119  17.8747

          k = 0.0556-0.1604 0.0000 (  4443 PWs)   bands (ev):

   -34.7622 -34.7341 -34.6547 -34.5453 -34.4484 -34.3797 -34.3540 -34.3271
   -34.3176 -34.3083 -34.2928 -34.2854 -34.2721 -34.2639 -34.2507 -34.2329
   -34.2255 -34.2129 -34.1910 -34.1818 -34.1714 -33.9415 -33.9413 -33.9068
   -33.9067 -33.8668 -33.8666   5.2315   5.5163   5.9673   6.5103   6.8633
     6.9041   6.9602   7.2340   7.2631   8.3951   8.5154   8.6513   8.7253
     8.7940   8.8353   8.8953   9.0212   9.2695   9.3342   9.5011   9.5689
     9.5919   9.6176   9.6973   9.7237   9.7552   9.7937   9.8217   9.8537
     9.9430  10.0157  10.1004  10.2266  10.3310  10.3447  10.7120  10.7776
    10.8593  10.9597  10.9644  11.1420  11.3535  11.4285  11.5353  11.7351
    11.8195  12.2072  12.2295  12.5299  12.6609  12.8004  13.5279  14.3987
    15.2048  15.7386

          k = 0.0556-0.0321 0.0000 (  4465 PWs)   bands (ev):

   -34.7968 -34.7614 -34.6703 -34.5402 -34.4162 -34.2977 -34.2794 -34.2735
   -34.2697 -34.2692 -34.2436 -34.2337 -34.2238 -34.2140 -34.2060 -34.1970
   -34.1918 -34.1712 -34.1711 -34.1656 -34.1543 -33.9163 -33.9161 -33.8565
   -33.8564 -33.8454 -33.8451   4.6250   4.9330   5.4142   5.9783   6.3677
     6.4265   6.4605   6.7348   6.7537   8.8774   8.9218   9.0859   9.1208
     9.1370   9.2074   9.2781   9.2856   9.3337   9.3436   9.3473   9.3536
     9.4415   9.4728   9.5096   9.5510   9.5809   9.5955   9.6272   9.7484
     9.8237   9.9102   9.9150   9.9535  10.6115  11.0125  11.0132  11.1584
    11.1652  11.2716  11.2930  11.3479  11.3928  11.4771  11.6255  11.7629
    11.9700  11.9717  12.0873  12.3403  12.4217  12.5955  12.7275  13.0376
    13.6644  13.9525

          k = 0.1667 0.2887 0.0000 (  4425 PWs)   bands (ev):

   -34.6772 -34.6769 -34.6445 -34.6172 -34.5918 -34.5699 -34.5369 -34.4983
   -34.4859 -34.4483 -34.3901 -34.3690 -34.3641 -34.3294 -34.3145 -34.3033
   -34.2860 -34.2682 -34.2678 -34.2538 -34.1999 -34.1207 -34.1205 -33.9405
   -33.9403 -33.8942 -33.8942   6.7760   6.8568   7.0144   7.2424   7.5090
     7.7289   7.7402   7.7640   7.8545   7.8634   7.9772   7.9778   8.0791
     8.2185   8.3270   8.4156   8.8374   8.8825   8.9296   9.0186   9.1935
     9.3271   9.3624   9.3813   9.4614   9.5203  10.0701  10.0773  10.2306
    10.3131  10.4644  10.5201  10.9175  10.9358  11.0023  11.2010  11.4113
    11.5083  11.6565  11.8044  12.0218  12.1160  12.2060  12.3557  12.3584
    12.4073  12.4736  12.5603  12.5877  13.3352  14.3109  15.3902  16.5348
    17.6319  18.5881

          k = 0.1667 0.4170 0.0000 (  4459 PWs)   bands (ev):

   -34.7177 -34.7127 -34.6947 -34.6842 -34.6619 -34.6460 -34.6176 -34.5792
   -34.5353 -34.4719 -34.4415 -34.4393 -34.4071 -34.3768 -34.3684 -34.3616
   -34.3385 -34.3315 -34.3026 -34.2798 -34.2334 -34.2148 -34.2141 -34.0026
   -34.0023 -33.8872 -33.8868   6.9387   6.9983   7.0844   7.1846   7.2701
     7.3434   7.4841   7.4954   7.5746   7.7288   7.7992   8.0413   8.1290
     8.3402   8.4477   8.6488   8.8467   8.8933   9.0413   9.1513   9.2464
     9.4581   9.5763   9.7975   9.8776  10.0010  10.0656  10.2246  10.3701
    10.4919  10.7843  11.0085  11.1087  11.1636  11.3294  11.3962  11.6836
    11.7554  12.0417  12.5126  12.5999  12.7257  12.7931  12.8471  13.0013
    14.0055  14.1383  14.2265  14.4715  15.0386  15.9329  17.0157  18.1810
    19.3437  20.4110

          k = 0.1667 0.5453 0.0000 (  4490 PWs)   bands (ev):

   -34.7754 -34.7685 -34.7392 -34.7202 -34.7140 -34.6850 -34.6741 -34.5345
   -34.5273 -34.4877 -34.4805 -34.4655 -34.4465 -34.4208 -34.3911 -34.3790
   -34.3662 -34.3410 -34.3252 -34.2905 -34.2643 -34.2595 -34.2586 -34.0362
   -34.0362 -33.8832 -33.8831   6.6266   6.8296   6.9140   7.0667   7.1066
     7.1422   7.2156   7.4101   7.4896   7.5318   7.7809   7.8836   8.0017
     8.2370   8.3310   8.5362   8.6790   8.9882   9.2509   9.3448   9.5116
     9.7214   9.8154   9.8676  10.1614  10.2295  10.3002  10.6583  10.7581
    11.0875  11.1117  11.2140  11.4817  11.7677  11.9285  12.0361  12.1417
    12.2175  12.3597  12.5042  12.5655  12.6384  12.7926  12.9101  13.0038
    15.8364  16.1466  16.4995  16.8071  17.1246  17.5217  17.9368  18.2345
    18.3940  20.3380

          k = 0.1667-0.4811 0.0000 (  4476 PWs)   bands (ev):

   -34.7549 -34.7479 -34.7228 -34.7073 -34.6969 -34.6700 -34.6551 -34.5528
   -34.5318 -34.4751 -34.4659 -34.4652 -34.4267 -34.4036 -34.3827 -34.3812
   -34.3538 -34.3407 -34.3144 -34.2886 -34.2521 -34.2443 -34.2428 -34.0245
   -34.0244 -33.8845 -33.8844   6.7377   6.9165   6.9450   7.1374   7.1625
     7.1780   7.3265   7.4526   7.5141   7.6072   7.7935   7.9443   8.0501
     8.2453   8.4120   8.6424   8.7745   8.8629   9.1973   9.2564   9.5413
     9.6214   9.7431   9.9026   9.9889  10.0374  10.2858  10.5000  10.6678
    10.8479  10.8942  11.0588  11.3787  11.5921  11.6635  11.7292  11.8396
    11.8890  12.1700  12.5415  12.6597  12.7557  12.8525  12.9624  13.0974
    14.9629  15.1646  15.3729  15.6553  16.1542  16.9008  17.8209  18.7872
    19.6319  20.5915

          k = 0.1667-0.3528 0.0000 (  4458 PWs)   bands (ev):

   -34.6813 -34.6799 -34.6572 -34.6557 -34.6249 -34.6187 -34.5891 -34.5642
   -34.5227 -34.4671 -34.4104 -34.4051 -34.3917 -34.3536 -34.3369 -34.3315
   -34.3171 -34.3093 -34.2877 -34.2673 -34.2155 -34.1726 -34.1724 -33.9731
   -33.9729 -33.8908 -33.8907   7.0302   7.1214   7.1807   7.2530   7.3703
     7.4549   7.5544   7.6273   7.6859   7.8003   7.9687   8.0980   8.1862
     8.2754   8.4150   8.5859   8.6943   8.8067   8.9805   9.1517   9.2270
     9.2629   9.3286   9.5273   9.6750   9.7314   9.9890  10.0026  10.1981
    10.4733  10.5932  10.7066  10.8869  11.0922  11.1514  11.2939  11.5755
    11.6395  11.8907  12.3079  12.3653  12.4922  12.5353  12.6034  12.7752
    13.1104  13.1847  13.2413  13.3993  14.0416  15.0276  16.1475  17.3292
    18.4819  19.5231

          k = 0.1667-0.2245 0.0000 (  4433 PWs)   bands (ev):

   -34.7047 -34.6928 -34.6415 -34.5839 -34.5419 -34.5104 -34.4738 -34.4394
   -34.4284 -34.4123 -34.3682 -34.3371 -34.3344 -34.3137 -34.2930 -34.2750
   -34.2587 -34.2492 -34.2379 -34.2246 -34.1891 -34.0646 -34.0644 -33.9103
   -33.9102 -33.8985 -33.8984   6.2370   6.4283   6.7365   7.1239   7.4179
     7.4763   7.6190   7.7315   7.8513   7.9484   8.0763   8.1522   8.1870
     8.3008   8.4286   8.5814   8.6370   8.8742   9.1332   9.1872   9.2791
     9.4015   9.4617   9.5737   9.6654   9.6911   9.8939  10.0167  10.1851
    10.4137  10.4257  10.5293  10.6246  10.7187  10.8788  10.9005  11.0307
    11.1656  11.2065  11.4702  11.5240  11.5798  11.8590  11.8978  11.9040
    12.0674  12.2182  12.4089  12.5632  12.8847  13.7457  14.7400  15.8179
    16.8342  17.6668

          k = 0.1667-0.0962 0.0000 (  4427 PWs)   bands (ev):

   -34.7522 -34.7263 -34.6507 -34.5493 -34.4641 -34.4069 -34.3788 -34.3497
   -34.3379 -34.3206 -34.3005 -34.2999 -34.2902 -34.2678 -34.2659 -34.2421
   -34.2338 -34.2220 -34.1934 -34.1847 -34.1736 -33.9669 -33.9667 -33.9057
   -33.9055 -33.8714 -33.8712   5.4119   5.6846   6.1165   6.6354   6.9621
     6.9717   7.1136   7.3587   7.4038   8.2067   8.4387   8.5588   8.6193
     8.6986   8.7578   8.8506   8.9035   9.3353   9.3779   9.4873   9.5993
     9.6179   9.6423   9.7258   9.7648   9.8392   9.8607   9.9274   9.9907
    10.0128  10.0532  10.0607  10.2271  10.3355  10.4419  10.5470  10.7158
    10.7397  10.9065  11.0100  11.1541  11.2700  11.4968  11.5185  11.7029
    12.0095  12.0902  12.3728  12.6381  12.7818  12.8452  13.7278  14.6808
    15.5383  16.1323

          k = 0.2778 0.4811 0.0000 (  4485 PWs)   bands (ev):

   -34.7162 -34.7157 -34.6918 -34.6897 -34.6595 -34.6552 -34.6153 -34.5986
   -34.5726 -34.5373 -34.5087 -34.5079 -34.4712 -34.4537 -34.4300 -34.4217
   -34.3680 -34.3461 -34.3300 -34.3022 -34.2708 -34.2235 -34.2234 -34.0953
   -34.0951 -33.8820 -33.8818   7.1655   7.1780   7.2998   7.3439   7.4262
     7.5922   7.7763   7.8682   7.9379   7.9660   8.0691   8.0879   8.1785
     8.2181   8.3581   8.4034   8.6777   8.7750   8.9205   9.0490   9.2101
     9.3676   9.5599   9.6528   9.8870   9.8933  10.1073  10.1095  10.5760
    10.6559  10.7295  10.8486  11.0840  11.1185  11.2979  11.3228  11.6370
    11.8916  12.2167  12.5034  12.6799  12.6987  12.6993  12.8357  12.9936
    16.3279  16.4549  16.7224  17.1452  17.7284  18.4787  19.3544  20.2424
    20.7019  20.7869

          k = 0.2778 0.6094 0.0000 (  4491 PWs)   bands (ev):

   -34.7110 -34.7045 -34.6794 -34.6744 -34.6538 -34.6463 -34.6317 -34.6023
   -34.5822 -34.5634 -34.5400 -34.5275 -34.5120 -34.4787 -34.4418 -34.4330
   -34.3555 -34.3451 -34.3297 -34.3072 -34.2906 -34.2157 -34.2155 -34.1272
   -34.1270 -33.8807 -33.8804   7.1301   7.3061   7.3896   7.5225   7.5438
     7.6377   7.7380   7.8563   7.8983   7.9333   8.0115   8.0825   8.1795
     8.2211   8.3204   8.4686   8.5546   8.9002   8.9457   9.1739   9.2625
     9.3761   9.4467   9.6442   9.8139   9.8609  10.1573  10.1669  10.5476
    10.6587  10.8304  10.9557  11.0507  11.1703  11.3243  11.3744  11.9563
    12.1061  12.2877  12.3742  12.4894  12.5391  12.5884  12.6441  12.7707
    17.5279  17.7071  18.0111  18.3873  18.7312  19.0374  19.4003  19.8046
    20.2258  20.3437

          k = 0.2778-0.4170 0.0000 (  4462 PWs)   bands (ev):

   -34.7233 -34.7188 -34.6996 -34.6858 -34.6706 -34.6525 -34.6293 -34.5795
   -34.5468 -34.4966 -34.4791 -34.4777 -34.4377 -34.4120 -34.4016 -34.3859
   -34.3697 -34.3464 -34.3259 -34.2900 -34.2500 -34.2245 -34.2244 -34.0500
   -34.0497 -33.8840 -33.8837   7.0186   7.1520   7.1762   7.3072   7.3618
     7.4845   7.5911   7.6772   7.7541   7.8715   8.0840   8.0907   8.1837
     8.3122   8.5265   8.5307   8.5776   8.7301   8.9435   9.0071   9.2477
     9.3811   9.5368   9.7618   9.9116   9.9424  10.1257  10.1571  10.3327
    10.5103  10.7617  10.9068  11.0731  11.1822  11.3172  11.3694  11.5384
    11.7066  12.1280  12.5424  12.7529  12.7856  12.8494  12.9404  13.0993
    15.1610  15.2443  15.4234  15.7722  16.3448  17.1573  18.1449  19.2137
    20.2703  21.1658

          k = 0.2778-0.2887 0.0000 (  4463 PWs)   bands (ev):

   -34.7002 -34.6995 -34.6808 -34.6775 -34.6423 -34.6311 -34.5896 -34.5783
   -34.5282 -34.4617 -34.4058 -34.3988 -34.3877 -34.3542 -34.3389 -34.3316
   -34.3196 -34.2886 -34.2725 -34.2606 -34.2214 -34.1940 -34.1936 -33.9607
   -33.9606 -33.8904 -33.8902   6.7762   6.9071   6.9706   7.0091   7.1612
     7.1884   7.2567   7.3620   7.4686   7.6144   7.7718   7.9889   8.0306
     8.3369   8.5272   8.8449   8.9096   9.1466   9.1936   9.3001   9.3903
     9.5125   9.6371   9.7259   9.8359  10.0624  10.1632  10.3417  10.5194
    10.5346  10.7498  10.9818  11.1692  11.2436  11.2829  11.4604  11.7685
    11.7888  12.0735  12.2340  12.3664  12.4339  12.5383  12.6276  12.8026
    12.9516  13.1446  13.1728  13.3123  13.9458  14.9621  16.1265  17.3483
    18.5379  19.5980

          k = 0.2778-0.1604 0.0000 (  4458 PWs)   bands (ev):

   -34.6962 -34.6824 -34.6437 -34.6272 -34.5995 -34.5735 -34.5315 -34.4958
   -34.4832 -34.4359 -34.3782 -34.3481 -34.3470 -34.3247 -34.3143 -34.2854
   -34.2706 -34.2610 -34.2291 -34.2128 -34.2063 -34.1261 -34.1258 -33.9121
   -33.9120 -33.8965 -33.8964   6.3928   6.5761   6.7855   6.9021   6.9634
     7.1417   7.3425   7.4012   7.5636   7.7111   7.8669   7.9527   8.1857
     8.4956   8.7227   8.8529   9.0410   9.1874   9.3366   9.4804   9.5599
     9.6184   9.6626   9.7855   9.8996  10.0713  10.1564  10.3337  10.4393
    10.4511  10.6121  10.6925  10.8707  11.0613  11.1172  11.2214  11.2517
    11.3016  11.4098  11.4426  11.6023  11.7259  11.8393  11.9539  11.9580
    12.0932  12.4064  12.6871  12.8419  12.8521  13.9105  15.0703  16.2584
    17.3634  18.2848

          k = 0.3889 0.6736 0.0000 (  4511 PWs)   bands (ev):

   -34.7473 -34.7400 -34.7093 -34.6944 -34.6845 -34.6650 -34.6522 -34.5593
   -34.5548 -34.5202 -34.5200 -34.5024 -34.4857 -34.4519 -34.4271 -34.4055
   -34.3570 -34.3569 -34.3325 -34.2973 -34.2790 -34.2410 -34.2410 -34.0856
   -34.0855 -33.8817 -33.8816   6.8528   7.0505   7.2403   7.3603   7.3738
     7.4437   7.5611   7.6213   7.7093   7.7881   7.9810   8.0081   8.1741
     8.3145   8.3590   8.4073   8.5099   8.7424   9.0211   9.1943   9.4490
     9.5907   9.6897   9.8285   9.8943  10.1394  10.2377  10.3685  10.6039
    10.6519  10.6987  11.0213  11.2742  11.4669  11.6147  11.7158  12.1358
    12.1930  12.2740  12.3648  12.5177  12.5280  12.7052  12.7864  12.8159
    17.0473  17.2567  17.5055  17.7403  17.9800  18.2559  18.5827  18.8943
    19.1505  20.4814

          k = 0.3889-0.3528 0.0000 (  4485 PWs)   bands (ev):

   -34.7887 -34.7812 -34.7538 -34.7368 -34.7261 -34.6976 -34.6827 -34.5355
   -34.5260 -34.4551 -34.4436 -34.4359 -34.4088 -34.3857 -34.3824 -34.3627
   -34.3506 -34.3135 -34.3037 -34.2813 -34.2669 -34.2634 -34.2495 -33.9934
   -33.9932 -33.8854 -33.8853   6.4665   6.6508   6.6545   6.8110   6.8615
     6.9294   6.9823   7.1804   7.2665   7.2868   7.5863   7.6405   7.8020
     8.2108   8.4798   8.7488   8.9275   9.2186   9.3278   9.4591   9.5134
     9.6468   9.8786  10.0888  10.2089  10.4646  10.6673  10.7931  11.0539
    11.2780  11.5511  11.5932  11.7038  11.9923  12.1805  12.2298  12.2663
    12.2941  12.3786  12.5748  12.6375  12.7393  12.8337  12.9777  13.1008
    14.5640  14.9363  15.3198  15.5599  15.8464  16.4230  17.1991  17.9655
    18.5276  20.2816

          k = 0.3889-0.2245 0.0000 (  4444 PWs)   bands (ev):

   -34.7643 -34.7575 -34.7345 -34.7276 -34.7008 -34.6822 -34.6475 -34.5575
   -34.5318 -34.4573 -34.3997 -34.3891 -34.3874 -34.3607 -34.3552 -34.3226
   -34.3087 -34.2949 -34.2607 -34.2575 -34.2463 -34.2361 -34.2358 -33.9475
   -33.9473 -33.8891 -33.8885   6.4253   6.4648   6.5662   6.6731   6.7551
     6.7983   6.9229   6.9781   7.1083   7.2721   7.4417   7.5038   7.7964
     8.3065   8.6624   9.0122   9.1954   9.2701   9.3677   9.5614   9.5645
     9.7277   9.9041  10.1594  10.3330  10.4019  10.8193  10.9409  11.1227
    11.4769  11.6091  11.9359  11.9546  12.1808  12.2289  12.2897  12.3239
    12.3825  12.4084  12.4875  12.5231  12.5945  12.6579  12.7562  12.8589
    12.8850  12.9602  13.2479  13.2877  13.8419  14.9812  16.2461  17.5254
    18.7713  20.0168

          k =-0.5000-0.8660 0.0000 (  4492 PWs)   bands (ev):

   -34.8206 -34.8142 -34.7872 -34.7632 -34.7609 -34.7231 -34.7144 -34.5310
   -34.5286 -34.4214 -34.4063 -34.4038 -34.4022 -34.3997 -34.3716 -34.3371
   -34.3346 -34.3082 -34.2965 -34.2850 -34.2736 -34.2541 -34.2480 -33.9616
   -33.9615 -33.8867 -33.8864   6.1915   6.3719   6.3730   6.5447   6.5833
     6.6328   6.7360   6.8899   6.9316   7.0834   7.2880   7.3067   7.6440
     8.2004   8.6180   8.8758   9.0576   9.1409   9.2590   9.4617   9.8243
     9.9062   9.9497  10.3538  10.5838  10.6281  10.9395  11.4443  11.4778
    11.5477  12.1119  12.3170  12.3560  12.4894  12.6736  12.7637  12.7715
    12.8070  12.8619  12.9153  12.9379  12.9873  13.0856  13.2359  13.2406
    13.4644  14.3499  15.1698  15.6633  15.8424  16.0993  16.2862  16.4316
    16.4916  19.9541

     the Fermi energy is    12.2099 ev

!    total energy              =   -1540.61884224 Ry
     estimated scf accuracy    <       0.00000024 Ry
     smearing contrib. (-TS)   =      -0.03842359 Ry
     internal energy E=F+TS    =   -1540.58041866 Ry

     The total energy is F=E-TS. E is the sum of the following terms:
     one-electron contribution =  -10653.87335170 Ry
     hartree contribution      =    5404.85279333 Ry
     xc contribution           =    -269.23222741 Ry
     ewald contribution        =    3977.67236712 Ry

     total magnetization       =    -0.00 Bohr mag/cell
     absolute magnetization    =     0.00 Bohr mag/cell

     convergence has been achieved in  10 iterations

     negative rho (up, down):  2.539E-01 2.539E-01

     Forces acting on atoms (cartesian axes, Ry/au):

     atom    1 type  1   force =     0.00000000    0.00000000    0.00215487
     atom    2 type  1   force =     0.00000000    0.00000000    0.00139725
     atom    3 type  1   force =     0.00000000    0.00000000   -0.00181420
     atom    4 type  1   force =     0.00000000    0.00000000   -0.00170921
     atom    5 type  1   force =     0.00000000    0.00000000    0.00000241
     atom    6 type  1   force =     0.00000000    0.00000000    0.00171575
     atom    7 type  1   force =     0.00000000    0.00000000    0.00182165
     atom    8 type  1   force =     0.00000000    0.00000000   -0.00139227
     atom    9 type  1   force =     0.00000000    0.00000000   -0.00217626

     Total force =     0.005074     Total SCF correction =     0.004509
     SCF correction compared to forces is large: reduce conv_thr to get better values
     Energy error            =      2.5E-04
     Gradient error          =      2.2E-03

     number of scf cycles    =   4
     number of bfgs steps    =   3

     energy   old            =   -1540.6185905127 Ry
     energy   new            =   -1540.6188422423 Ry

     CASE: energy  _new < energy  _old

     new trust radius        =       0.0096089788 bohr
     new conv_thr            =       0.0000002176 Ry


ATOMIC_POSITIONS (angstrom)
Rh            0.0000000000        0.0000000000        0.0288079931
Rh            2.7108568000        1.5651139000        2.2017513070
Rh            1.3554284000        0.7825569000        4.4096826961
Rh            0.0000000000        0.0000000000        6.6382225316
Rh            2.7108568000        1.5651139000        8.8536146557
Rh            1.3554284000        0.7825569000       11.0690090982
Rh            0.0000000000        0.0000000000       13.2975567680
Rh            2.7108568000        1.5651139000       15.5054950733
Rh            1.3554284000        0.7825569000       17.6784502770



     Writing output data file /home/STUDENTI/leonardo.razzai/WORK/relax_surf/9-L.save/
     NEW-OLD atomic charge density approx. for the potential

     negative rho (up, down):  2.533E-01 2.533E-01
     Generating pointlists ...

     total cpu time spent up to now is      957.3 secs

     Self-consistent Calculation

     iteration #  1     ecut=    35.00 Ry     beta= 0.40
     Davidson diagonalization with overlap
     ethr =  1.00E-06,  avg # of iterations =  5.6

     negative rho (up, down):  2.533E-01 2.533E-01

     total cpu time spent up to now is      998.4 secs

     total energy              =   -1540.61801374 Ry
     estimated scf accuracy    <       0.06465052 Ry

     total magnetization       =    -0.00 Bohr mag/cell
     absolute magnetization    =     0.00 Bohr mag/cell

     iteration #  2     ecut=    35.00 Ry     beta= 0.40
     Davidson diagonalization with overlap
     ethr =  4.79E-05,  avg # of iterations =  1.0

     negative rho (up, down):  2.533E-01 2.533E-01

     total cpu time spent up to now is     1017.9 secs

     total energy              =   -1540.61864706 Ry
     estimated scf accuracy    <       0.03411790 Ry

     total magnetization       =    -0.00 Bohr mag/cell
     absolute magnetization    =     0.00 Bohr mag/cell

     iteration #  3     ecut=    35.00 Ry     beta= 0.40
     Davidson diagonalization with overlap
     ethr =  2.53E-05,  avg # of iterations =  1.0

     negative rho (up, down):  2.533E-01 2.533E-01

     total cpu time spent up to now is     1037.2 secs

     total energy              =   -1540.61889680 Ry
     estimated scf accuracy    <       0.00139979 Ry

     total magnetization       =    -0.00 Bohr mag/cell
     absolute magnetization    =     0.00 Bohr mag/cell

     iteration #  4     ecut=    35.00 Ry     beta= 0.40
     Davidson diagonalization with overlap
     ethr =  1.04E-06,  avg # of iterations =  1.0

     negative rho (up, down):  2.533E-01 2.533E-01

     total cpu time spent up to now is     1056.4 secs

     total energy              =   -1540.61888137 Ry
     estimated scf accuracy    <       0.00067420 Ry

     total magnetization       =    -0.00 Bohr mag/cell
     absolute magnetization    =     0.00 Bohr mag/cell

     iteration #  5     ecut=    35.00 Ry     beta= 0.40
     Davidson diagonalization with overlap
     ethr =  4.99E-07,  avg # of iterations =  1.0

     negative rho (up, down):  2.533E-01 2.533E-01

     total cpu time spent up to now is     1075.7 secs

     total energy              =   -1540.61888946 Ry
     estimated scf accuracy    <       0.00000895 Ry

     total magnetization       =    -0.00 Bohr mag/cell
     absolute magnetization    =     0.00 Bohr mag/cell

     iteration #  6     ecut=    35.00 Ry     beta= 0.40
     Davidson diagonalization with overlap
     ethr =  6.63E-09,  avg # of iterations =  1.7

     negative rho (up, down):  2.533E-01 2.533E-01

     total cpu time spent up to now is     1096.4 secs

     total energy              =   -1540.61888985 Ry
     estimated scf accuracy    <       0.00000110 Ry

     total magnetization       =    -0.00 Bohr mag/cell
     absolute magnetization    =     0.00 Bohr mag/cell

     iteration #  7     ecut=    35.00 Ry     beta= 0.40
     Davidson diagonalization with overlap
     ethr =  8.18E-10,  avg # of iterations =  1.9

     negative rho (up, down):  2.533E-01 2.533E-01

     total cpu time spent up to now is     1117.6 secs

     total energy              =   -1540.61888988 Ry
     estimated scf accuracy    <       0.00000116 Ry

     total magnetization       =    -0.00 Bohr mag/cell
     absolute magnetization    =     0.00 Bohr mag/cell

     iteration #  8     ecut=    35.00 Ry     beta= 0.40
     Davidson diagonalization with overlap
     ethr =  8.18E-10,  avg # of iterations =  1.0

     negative rho (up, down):  2.533E-01 2.533E-01

     total cpu time spent up to now is     1136.9 secs

     total energy              =   -1540.61888992 Ry
     estimated scf accuracy    <       0.00000110 Ry

     total magnetization       =    -0.00 Bohr mag/cell
     absolute magnetization    =     0.00 Bohr mag/cell

     iteration #  9     ecut=    35.00 Ry     beta= 0.40
     Davidson diagonalization with overlap
     ethr =  8.15E-10,  avg # of iterations =  1.0

     negative rho (up, down):  2.533E-01 2.533E-01

     total cpu time spent up to now is     1156.2 secs

     total energy              =   -1540.61888998 Ry
     estimated scf accuracy    <       0.00000072 Ry

     total magnetization       =    -0.00 Bohr mag/cell
     absolute magnetization    =     0.00 Bohr mag/cell

     iteration # 10     ecut=    35.00 Ry     beta= 0.40
     Davidson diagonalization with overlap
     ethr =  5.35E-10,  avg # of iterations =  1.0

     negative rho (up, down):  2.533E-01 2.533E-01
 
     Magnetic moment per site:
     atom:    1    charge:   13.1080    magn:   -0.0000    constr:    0.0000
     atom:    2    charge:   13.1630    magn:    0.0000    constr:    0.0000
     atom:    3    charge:   13.1587    magn:    0.0000    constr:    0.0000
     atom:    4    charge:   13.1567    magn:    0.0000    constr:    0.0000
     atom:    5    charge:   13.1599    magn:    0.0000    constr:    0.0000
     atom:    6    charge:   13.1569    magn:    0.0000    constr:    0.0000
     atom:    7    charge:   13.1581    magn:    0.0000    constr:    0.0000
     atom:    8    charge:   13.1636    magn:   -0.0000    constr:    0.0000
     atom:    9    charge:   13.1083    magn:   -0.0000    constr:    0.0000

     total cpu time spent up to now is     1175.4 secs

     End of self-consistent calculation

 ------ SPIN UP ------------


          k = 0.0556 0.0962 0.0000 (  4451 PWs)   bands (ev):

   -34.7840 -34.7554 -34.6654 -34.5401 -34.4242 -34.3265 -34.3089 -34.2880
   -34.2822 -34.2820 -34.2643 -34.2519 -34.2326 -34.2306 -34.2223 -34.2110
   -34.1953 -34.1939 -34.1709 -34.1704 -34.1581 -33.9181 -33.9177 -33.8869
   -33.8867 -33.8552 -33.8552   4.8377   5.1331   5.6070   6.1700   6.5467
     6.6106   6.6338   6.9083   6.9316   8.7062   8.7449   8.9059   8.9796
     9.0032   9.0754   9.1589   9.2520   9.3489   9.4302   9.4456   9.4873
     9.4886   9.5340   9.5538   9.5838   9.6242   9.6743   9.7301   9.7834
     9.7930   9.8480  10.0433  10.0551  10.2515  10.8192  10.8818  10.8854
    11.0500  11.0917  11.2479  11.3082  11.3820  11.4510  11.5552  11.6354
    11.8087  11.9443  12.2431  12.3670  12.5604  12.6796  12.9327  13.6454
    14.3433  14.7286

          k = 0.0556 0.2245 0.0000 (  4420 PWs)   bands (ev):

   -34.7312 -34.7146 -34.6448 -34.5604 -34.4978 -34.4551 -34.4192 -34.3884
   -34.3699 -34.3637 -34.3299 -34.3156 -34.3139 -34.2916 -34.2720 -34.2519
   -34.2421 -34.2317 -34.2076 -34.1912 -34.1790 -34.0132 -34.0129 -33.9064
   -33.9062 -33.8882 -33.8880   5.7614   6.0004   6.3898   6.8634   7.1417
     7.1842   7.3514   7.5664   7.6429   8.0228   8.2466   8.3936   8.4107
     8.5205   8.5890   8.7110   8.7640   9.1341   9.3172   9.4044   9.4935
     9.5704   9.6694   9.6914   9.7185   9.8122   9.8421   9.9914  10.1183
    10.1617  10.2333  10.3715  10.4490  10.5331  10.5683  10.6269  10.7250
    10.8366  10.9235  11.0538  11.1475  11.4559  11.5679  11.6013  11.7782
    12.0113  12.1869  12.5258  12.5433  12.6986  13.2604  14.1776  15.1891
    16.1227  16.8201

          k = 0.0556 0.3528 0.0000 (  4467 PWs)   bands (ev):

   -34.6953 -34.6853 -34.6599 -34.6580 -34.6196 -34.6124 -34.5686 -34.5340
   -34.5121 -34.4512 -34.3880 -34.3693 -34.3673 -34.3309 -34.3271 -34.3009
   -34.2860 -34.2660 -34.2479 -34.2245 -34.2104 -34.1656 -34.1652 -33.9320
   -33.9319 -33.8978 -33.8976   6.5640   6.7482   6.8764   6.9269   6.9558
     7.1244   7.2038   7.3485   7.4346   7.6507   7.7547   7.9347   8.0632
     8.4319   8.7032   8.8586   9.0564   9.1960   9.3507   9.4636   9.5389
     9.5602   9.5858   9.7814   9.8523  10.1233  10.1764  10.4094  10.5511
    10.5923  10.7144  10.8799  11.0906  11.2633  11.3549  11.4172  11.5103
    11.6944  11.7422  11.7953  11.9533  12.0965  12.1602  12.2920  12.3372
    12.3944  12.4284  12.6226  12.7918  13.2349  14.3075  15.4968  16.7211
    17.8806  18.8765

          k = 0.0556 0.4811 0.0000 (  4463 PWs)   bands (ev):

   -34.7856 -34.7803 -34.7504 -34.7394 -34.7185 -34.6951 -34.6690 -34.5483
   -34.5341 -34.4512 -34.4131 -34.4084 -34.3928 -34.3709 -34.3611 -34.3365
   -34.3251 -34.2954 -34.2824 -34.2667 -34.2615 -34.2486 -34.2378 -33.9649
   -33.9647 -33.8916 -33.8912   6.3899   6.4968   6.5435   6.6921   6.7250
     6.7938   6.8830   7.0154   7.1074   7.2184   7.4454   7.4881   7.7519
     8.2485   8.5938   8.9213   9.1033   9.2638   9.3221   9.5275   9.5506
     9.7356   9.9189  10.2413  10.2875  10.4609  10.8866  10.9756  11.1060
    11.5381  11.6219  11.9073  11.9751  12.0906  12.3178  12.3890  12.4334
    12.4657  12.5097  12.5474  12.6243  12.6739  12.8019  12.8966  13.0246
    13.3763  13.7979  14.1861  14.3173  14.6243  15.4815  16.5911  17.7278
    18.7588  20.2431

          k = 0.0556-0.5453 0.0000 (  4486 PWs)   bands (ev):

   -34.8140 -34.8081 -34.7769 -34.7570 -34.7477 -34.7150 -34.7017 -34.5364
   -34.5327 -34.4322 -34.4206 -34.4145 -34.3962 -34.3893 -34.3722 -34.3432
   -34.3375 -34.3032 -34.2975 -34.2840 -34.2752 -34.2524 -34.2482 -33.9726
   -33.9723 -33.8904 -33.8901   6.2689   6.4424   6.4470   6.6107   6.6528
     6.7095   6.7882   6.9651   7.0214   7.1290   7.3679   7.3875   7.6781
     8.2075   8.5794   8.8409   9.0339   9.1939   9.2771   9.4803   9.7002
     9.8060   9.9103  10.4167  10.4433  10.4637  11.0349  11.1730  11.2634
    11.6690  11.8868  12.1303  12.2181  12.3596  12.4432  12.5801  12.6498
    12.6916  12.7347  12.7763  12.8216  12.8524  12.9499  13.0465  13.1286
    13.9774  14.5801  15.2365  15.6968  15.7469  15.9155  16.4496  17.0212
    17.4131  20.0416

          k = 0.0556-0.4170 0.0000 (  4465 PWs)   bands (ev):

   -34.7341 -34.7312 -34.7103 -34.7045 -34.6727 -34.6538 -34.6124 -34.5721
   -34.5343 -34.4593 -34.4008 -34.3922 -34.3856 -34.3513 -34.3460 -34.3217
   -34.3068 -34.2817 -34.2658 -34.2397 -34.2332 -34.2239 -34.2186 -33.9511
   -33.9509 -33.8942 -33.8939   6.5676   6.6094   6.7245   6.7690   6.9051
     6.9437   7.0415   7.1025   7.2488   7.3994   7.5710   7.6875   7.8827
     8.3365   8.6318   8.9891   9.2484   9.2889   9.3756   9.4159   9.5554
     9.6294   9.7759  10.0230  10.0608  10.3045  10.5072  10.6277  10.9695
    11.0712  11.2676  11.3983  11.4941  11.7745  11.8684  11.9467  12.0161
    12.0819  12.1579  12.2515  12.3302  12.4770  12.5203  12.6609  12.7420
    12.8836  12.9836  13.1018  13.1675  13.8016  14.8963  16.1358  17.4106
    18.6517  19.7699

          k = 0.0556-0.2887 0.0000 (  4439 PWs)   bands (ev):

   -34.7015 -34.6921 -34.6404 -34.5995 -34.5683 -34.5366 -34.4952 -34.4605
   -34.4456 -34.4189 -34.3679 -34.3421 -34.3420 -34.3141 -34.2994 -34.2756
   -34.2635 -34.2498 -34.2279 -34.2072 -34.1931 -34.0915 -34.0913 -33.9100
   -33.9100 -33.9017 -33.9014   6.2887   6.4676   6.7326   7.0114   7.1256
     7.2597   7.4901   7.5569   7.7768   7.8155   8.0381   8.0734   8.2721
     8.4356   8.4872   8.6884   8.9012   8.9222   9.2175   9.4509   9.5532
     9.6077   9.6560   9.7001   9.8082   9.8490   9.9851  10.0451  10.1748
    10.3138  10.5701  10.5830  10.6445  10.7762  10.9188  10.9462  11.1169
    11.1689  11.2177  11.4302  11.5222  11.6258  11.8204  11.8532  11.9292
    12.1449  12.2659  12.5649  12.7338  12.8466  13.7649  14.8366  15.9663
    17.0187  17.8791

          k = 0.0556-0.1604 0.0000 (  4443 PWs)   bands (ev):

   -34.7617 -34.7377 -34.6554 -34.5448 -34.4490 -34.3819 -34.3559 -34.3247
   -34.3160 -34.3081 -34.2948 -34.2866 -34.2699 -34.2609 -34.2476 -34.2301
   -34.2232 -34.2108 -34.1878 -34.1785 -34.1679 -33.9441 -33.9439 -33.9101
   -33.9100 -33.8693 -33.8691   5.2345   5.5129   5.9637   6.5091   6.8624
     6.9071   6.9610   7.2257   7.2563   8.3966   8.5146   8.6494   8.7284
     8.7932   8.8328   8.8925   9.0178   9.2676   9.3339   9.5023   9.5693
     9.5941   9.6185   9.6915   9.7267   9.7563   9.7925   9.8194   9.8530
     9.9412  10.0160  10.1030  10.2268  10.3268  10.3400  10.7137  10.7801
    10.8584  10.9596  10.9653  11.1418  11.3547  11.4291  11.5365  11.7348
    11.8205  12.2082  12.2311  12.5346  12.6632  12.8033  13.5299  14.4023
    15.2127  15.7428

          k = 0.0556-0.0321 0.0000 (  4465 PWs)   bands (ev):

   -34.7960 -34.7651 -34.6715 -34.5397 -34.4161 -34.2979 -34.2824 -34.2746
   -34.2727 -34.2722 -34.2400 -34.2300 -34.2215 -34.2115 -34.2040 -34.1951
   -34.1886 -34.1680 -34.1680 -34.1621 -34.1507 -33.9197 -33.9195 -33.8590
   -33.8589 -33.8479 -33.8477   4.6279   4.9294   5.4106   5.9773   6.3659
     6.4328   6.4604   6.7268   6.7468   8.8777   8.9257   9.0819   9.1227
     9.1409   9.2045   9.2794   9.2849   9.3323   9.3447   9.3456   9.3540
     9.4377   9.4714   9.5114   9.5521   9.5812   9.5955   9.6300   9.7466
     9.8195   9.9041   9.9090   9.9545  10.6123  11.0153  11.0160  11.1577
    11.1642  11.2717  11.2934  11.3466  11.3929  11.4773  11.6241  11.7625
    11.9703  11.9722  12.0911  12.3419  12.4225  12.6000  12.7303  13.0391
    13.6714  13.9573

          k = 0.1667 0.2887 0.0000 (  4425 PWs)   bands (ev):

   -34.6797 -34.6796 -34.6413 -34.6177 -34.5943 -34.5712 -34.5357 -34.4953
   -34.4837 -34.4474 -34.3890 -34.3718 -34.3671 -34.3274 -34.3123 -34.3013
   -34.2837 -34.2646 -34.2639 -34.2515 -34.1964 -34.1229 -34.1227 -33.9430
   -33.9428 -33.8980 -33.8980   6.7795   6.8554   7.0124   7.2397   7.5050
     7.7266   7.7403   7.7630   7.8544   7.8566   7.9708   7.9804   8.0718
     8.2139   8.3251   8.4188   8.8361   8.8799   8.9304   9.0168   9.1927
     9.3252   9.3549   9.3758   9.4641   9.5259  10.0721  10.0790  10.2291
    10.3126  10.4651  10.5205  10.9176  10.9335  11.0049  11.2021  11.4089
    11.5070  11.6589  11.8058  12.0233  12.1176  12.2067  12.3569  12.3620
    12.4109  12.4750  12.5607  12.5901  13.3386  14.3153  15.3953  16.5402
    17.6378  18.5926

          k = 0.1667 0.4170 0.0000 (  4459 PWs)   bands (ev):

   -34.7193 -34.7156 -34.6938 -34.6850 -34.6597 -34.6452 -34.6142 -34.5796
   -34.5371 -34.4711 -34.4443 -34.4427 -34.4056 -34.3739 -34.3659 -34.3597
   -34.3365 -34.3285 -34.2995 -34.2770 -34.2301 -34.2167 -34.2158 -34.0050
   -34.0047 -33.8913 -33.8909   6.9415   7.0013   7.0807   7.1804   7.2658
     7.3429   7.4806   7.4891   7.5704   7.7257   7.7983   8.0397   8.1274
     8.3369   8.4441   8.6453   8.8425   8.8924   9.0434   9.1500   9.2443
     9.4595   9.5734   9.7978   9.8791   9.9988  10.0657  10.2228  10.3694
    10.4896  10.7852  11.0102  11.1096  11.1663  11.3294  11.3993  11.6863
    11.7573  12.0454  12.5159  12.6021  12.7271  12.7945  12.8499  13.0033
    14.0077  14.1395  14.2269  14.4716  15.0404  15.9365  17.0210  18.1864
    19.3474  20.4157

          k = 0.1667 0.5453 0.0000 (  4490 PWs)   bands (ev):

   -34.7765 -34.7715 -34.7386 -34.7209 -34.7113 -34.6825 -34.6703 -34.5384
   -34.5317 -34.4899 -34.4837 -34.4621 -34.4438 -34.4186 -34.3898 -34.3770
   -34.3632 -34.3382 -34.3226 -34.2874 -34.2627 -34.2613 -34.2582 -34.0386
   -34.0385 -33.8874 -33.8873   6.6294   6.8236   6.9169   7.0686   7.1019
     7.1368   7.2103   7.4053   7.4856   7.5302   7.7808   7.8810   7.9968
     8.2337   8.3262   8.5344   8.6836   8.9853   9.2498   9.3405   9.5117
     9.7223   9.8140   9.8676  10.1593  10.2286  10.3032  10.6581  10.7574
    11.0862  11.1101  11.2143  11.4827  11.7703  11.9311  12.0386  12.1438
    12.2202  12.3631  12.5075  12.5681  12.6407  12.7952  12.9129  13.0060
    15.8385  16.1468  16.5001  16.8083  17.1260  17.5235  17.9402  18.2383
    18.3962  20.3457

          k = 0.1667-0.4811 0.0000 (  4476 PWs)   bands (ev):

   -34.7561 -34.7510 -34.7221 -34.7078 -34.6943 -34.6680 -34.6514 -34.5548
   -34.5354 -34.4760 -34.4692 -34.4655 -34.4242 -34.4007 -34.3806 -34.3794
   -34.3516 -34.3380 -34.3117 -34.2854 -34.2503 -34.2462 -34.2428 -34.0269
   -34.0268 -33.8887 -33.8886   6.7405   6.9115   6.9480   7.1328   7.1609
     7.1759   7.3205   7.4481   7.5100   7.6053   7.7924   7.9427   8.0464
     8.2423   8.4070   8.6399   8.7808   8.8579   9.1985   9.2501   9.5402
     9.6202   9.7444   9.9007   9.9904  10.0384  10.2839  10.4999  10.6672
    10.8460  10.8931  11.0595  11.3797  11.5940  11.6655  11.7324  11.8428
    11.8916  12.1737  12.5450  12.6621  12.7578  12.8542  12.9652  13.0995
    14.9650  15.1650  15.3735  15.6562  16.1558  16.9036  17.8254  18.7916
    19.6339  20.5944

          k = 0.1667-0.3528 0.0000 (  4458 PWs)   bands (ev):

   -34.6832 -34.6822 -34.6576 -34.6557 -34.6235 -34.6196 -34.5883 -34.5609
   -34.5219 -34.4666 -34.4120 -34.4082 -34.3921 -34.3508 -34.3350 -34.3301
   -34.3147 -34.3054 -34.2841 -34.2649 -34.2120 -34.1747 -34.1745 -33.9756
   -33.9754 -33.8947 -33.8947   7.0332   7.1231   7.1786   7.2509   7.3674
     7.4519   7.5489   7.6254   7.6829   7.7956   7.9668   8.0952   8.1849
     8.2694   8.4130   8.5850   8.6934   8.8056   8.9783   9.1466   9.2274
     9.2658   9.3268   9.5263   9.6720   9.7303   9.9904  10.0039  10.1963
    10.4734  10.5940  10.7092  10.8873  11.0925  11.1532  11.2951  11.5758
    11.6398  11.8938  12.3104  12.3669  12.4943  12.5372  12.6059  12.7772
    13.1125  13.1870  13.2417  13.3984  14.0440  15.0318  16.1531  17.3348
    18.4867  19.5278

          k = 0.1667-0.2245 0.0000 (  4433 PWs)   bands (ev):

   -34.7053 -34.6961 -34.6405 -34.5838 -34.5440 -34.5121 -34.4733 -34.4363
   -34.4260 -34.4110 -34.3666 -34.3394 -34.3373 -34.3123 -34.2899 -34.2728
   -34.2563 -34.2470 -34.2344 -34.2212 -34.1857 -34.0669 -34.0668 -33.9129
   -33.9128 -33.9021 -33.9020   6.2401   6.4256   6.7335   7.1220   7.4196
     7.4730   7.6157   7.7270   7.8483   7.9460   8.0745   8.1529   8.1848
     8.2960   8.4256   8.5833   8.6351   8.8723   9.1324   9.1863   9.2775
     9.4015   9.4613   9.5697   9.6638   9.6949   9.8947  10.0198  10.1835
    10.4124  10.4228  10.5276  10.6282  10.7169  10.8794  10.8996  11.0301
    11.1669  11.2087  11.4681  11.5230  11.5795  11.8607  11.8997  11.9058
    12.0698  12.2203  12.4136  12.5660  12.8881  13.7496  14.7442  15.8229
    16.8411  17.6711

          k = 0.1667-0.0962 0.0000 (  4427 PWs)   bands (ev):

   -34.7518 -34.7299 -34.6512 -34.5488 -34.4649 -34.4092 -34.3798 -34.3468
   -34.3363 -34.3190 -34.3032 -34.3028 -34.2877 -34.2652 -34.2624 -34.2397
   -34.2311 -34.2202 -34.1904 -34.1813 -34.1701 -33.9695 -33.9693 -33.9091
   -33.9089 -33.8739 -33.8738   5.4149   5.6813   6.1130   6.6341   6.9653
     6.9698   7.1132   7.3507   7.3982   8.2087   8.4344   8.5610   8.6223
     8.6961   8.7499   8.8528   8.8987   9.3345   9.3781   9.4886   9.6016
     9.6200   9.6419   9.7292   9.7575   9.8403   9.8628   9.9234   9.9926
    10.0081  10.0543  10.0582  10.2295  10.3314  10.4380  10.5481  10.7146
    10.7409  10.9085  11.0095  11.1565  11.2697  11.4980  11.5192  11.7035
    12.0092  12.0920  12.3754  12.6434  12.7846  12.8475  13.7299  14.6847
    15.5463  16.1366

          k = 0.2778 0.4811 0.0000 (  4485 PWs)   bands (ev):

   -34.7189 -34.7184 -34.6908 -34.6884 -34.6569 -34.6536 -34.6146 -34.5988
   -34.5733 -34.5371 -34.5102 -34.5101 -34.4698 -34.4509 -34.4299 -34.4208
   -34.3650 -34.3441 -34.3273 -34.2984 -34.2669 -34.2256 -34.2255 -34.0976
   -34.0974 -33.8862 -33.8861   7.1670   7.1815   7.2935   7.3422   7.4238
     7.5848   7.7682   7.8668   7.9388   7.9689   8.0660   8.0829   8.1708
     8.2119   8.3551   8.4019   8.6762   8.7750   8.9169   9.0486   9.2084
     9.3675   9.5613   9.6545   9.8847   9.8917  10.1036  10.1062  10.5771
    10.6576  10.7324  10.8514  11.0857  11.1208  11.3016  11.3268  11.6398
    11.8945  12.2198  12.5069  12.6828  12.7005  12.7015  12.8393  12.9957
    16.3304  16.4553  16.7227  17.1463  17.7302  18.4813  19.3580  20.2459
    20.7041  20.7890

          k = 0.2778 0.6094 0.0000 (  4491 PWs)   bands (ev):

   -34.7123 -34.7075 -34.6792 -34.6741 -34.6519 -34.6440 -34.6310 -34.6044
   -34.5829 -34.5620 -34.5379 -34.5283 -34.5090 -34.4774 -34.4437 -34.4337
   -34.3533 -34.3435 -34.3261 -34.3031 -34.2865 -34.2178 -34.2176 -34.1294
   -34.1292 -33.8849 -33.8847   7.1328   7.2999   7.3922   7.5183   7.5405
     7.6380   7.7328   7.8526   7.8950   7.9339   7.9996   8.0729   8.1808
     8.2230   8.3192   8.4644   8.5499   8.9002   8.9427   9.1730   9.2604
     9.3767   9.4492   9.6440   9.8113   9.8597  10.1539  10.1638  10.5485
    10.6608  10.8340  10.9580  11.0520  11.1726  11.3297  11.3792  11.9587
    12.1089  12.2908  12.3774  12.4924  12.5415  12.5911  12.6470  12.7728
    17.5303  17.7076  18.0117  18.3887  18.7327  19.0382  19.4021  19.8076
    20.2273  20.3456

          k = 0.2778-0.4170 0.0000 (  4462 PWs)   bands (ev):

   -34.7253 -34.7221 -34.6983 -34.6860 -34.6679 -34.6506 -34.6270 -34.5801
   -34.5486 -34.4959 -34.4824 -34.4810 -34.4357 -34.4092 -34.3999 -34.3842
   -34.3662 -34.3438 -34.3235 -34.2867 -34.2463 -34.2265 -34.2264 -34.0524
   -34.0521 -33.8882 -33.8879   7.0214   7.1524   7.1742   7.3018   7.3607
     7.4810   7.5860   7.6751   7.7478   7.8684   8.0808   8.0908   8.1808
     8.3083   8.5227   8.5264   8.5768   8.7297   8.9405   9.0072   9.2462
     9.3801   9.5386   9.7611   9.9104   9.9417  10.1230  10.1559  10.3325
    10.5110  10.7645  10.9085  11.0749  11.1838  11.3193  11.3718  11.5416
    11.7101  12.1313  12.5459  12.7553  12.7877  12.8514  12.9433  13.1013
    15.1634  15.2451  15.4235  15.7728  16.3464  17.1604  18.1495  19.2183
    20.2734  21.1693

          k = 0.2778-0.2887 0.0000 (  4463 PWs)   bands (ev):

   -34.7017 -34.7010 -34.6813 -34.6784 -34.6417 -34.6300 -34.5883 -34.5758
   -34.5289 -34.4613 -34.4071 -34.4017 -34.3881 -34.3509 -34.3372 -34.3290
   -34.3176 -34.2857 -34.2700 -34.2572 -34.2181 -34.1959 -34.1953 -33.9632
   -33.9630 -33.8944 -33.8942   6.7791   6.9099   6.9662   7.0067   7.1570
     7.1887   7.2533   7.3574   7.4648   7.6106   7.7682   7.9872   8.0287
     8.3362   8.5240   8.8410   8.9098   9.1433   9.1924   9.3030   9.3885
     9.5125   9.6380   9.7257   9.8339  10.0620  10.1601  10.3401  10.5197
    10.5323  10.7485  10.9815  11.1712  11.2465  11.2833  11.4619  11.7686
    11.7906  12.0746  12.2377  12.3677  12.4358  12.5394  12.6314  12.8049
    12.9536  13.1458  13.1743  13.3118  13.9484  14.9663  16.1322  17.3540
    18.5425  19.6028

          k = 0.2778-0.1604 0.0000 (  4458 PWs)   bands (ev):

   -34.6968 -34.6858 -34.6420 -34.6277 -34.6017 -34.5742 -34.5303 -34.4928
   -34.4814 -34.4352 -34.3772 -34.3504 -34.3497 -34.3232 -34.3110 -34.2831
   -34.2680 -34.2593 -34.2263 -34.2092 -34.2029 -34.1283 -34.1279 -33.9146
   -33.9145 -33.9003 -33.9001   6.3957   6.5728   6.7838   6.9033   6.9613
     7.1370   7.3428   7.3966   7.5604   7.7084   7.8634   7.9513   8.1829
     8.4919   8.7220   8.8516   9.0384   9.1884   9.3379   9.4828   9.5623
     9.6207   9.6645   9.7773   9.9002  10.0641  10.1557  10.3315  10.4371
    10.4492  10.6130  10.6905  10.8671  11.0591  11.1199  11.2248  11.2532
    11.3039  11.4132  11.4418  11.6008  11.7248  11.8400  11.9561  11.9598
    12.0944  12.4101  12.6933  12.8451  12.8551  13.9145  15.0751  16.2638
    17.3698  18.2893

          k = 0.3889 0.6736 0.0000 (  4511 PWs)   bands (ev):

   -34.7482 -34.7429 -34.7090 -34.6952 -34.6821 -34.6622 -34.6485 -34.5624
   -34.5583 -34.5216 -34.5203 -34.4989 -34.4848 -34.4518 -34.4268 -34.4035
   -34.3546 -34.3538 -34.3298 -34.2938 -34.2750 -34.2431 -34.2431 -34.0878
   -34.0878 -33.8860 -33.8858   6.8556   7.0443   7.2434   7.3540   7.3703
     7.4463   7.5555   7.6178   7.7081   7.7829   7.9735   8.0015   8.1725
     8.3120   8.3569   8.4110   8.5074   8.7404   9.0196   9.1898   9.4466
     9.5897   9.6885   9.8321   9.8943  10.1390  10.2388  10.3681  10.6009
    10.6500  10.7013  11.0232  11.2756  11.4695  11.6184  11.7188  12.1378
    12.1960  12.2769  12.3687  12.5211  12.5300  12.7089  12.7880  12.8185
    17.0495  17.2578  17.5065  17.7410  17.9805  18.2562  18.5853  18.8990
    19.1526  20.4833

          k = 0.3889-0.3528 0.0000 (  4485 PWs)   bands (ev):

   -34.7898 -34.7843 -34.7530 -34.7367 -34.7241 -34.6952 -34.6791 -34.5395
   -34.5309 -34.4547 -34.4460 -34.4360 -34.4060 -34.3829 -34.3795 -34.3609
   -34.3490 -34.3109 -34.3014 -34.2797 -34.2677 -34.2636 -34.2463 -33.9958
   -33.9957 -33.8896 -33.8895   6.4692   6.6483   6.6542   6.8123   6.8569
     6.9246   6.9772   7.1768   7.2665   7.2828   7.5826   7.6372   7.7987
     8.2094   8.4768   8.7475   8.9325   9.2143   9.3262   9.4613   9.5121
     9.6459   9.8758  10.0867  10.2074  10.4633  10.6682  10.7931  11.0529
    11.2767  11.5497  11.5938  11.7042  11.9957  12.1827  12.2311  12.2681
    12.2959  12.3823  12.5777  12.6400  12.7410  12.8352  12.9798  13.1031
    14.5659  14.9361  15.3205  15.5617  15.8482  16.4256  17.2035  17.9698
    18.5296  20.2822

          k = 0.3889-0.2245 0.0000 (  4444 PWs)   bands (ev):

   -34.7654 -34.7604 -34.7335 -34.7277 -34.6997 -34.6800 -34.6443 -34.5593
   -34.5355 -34.4561 -34.3983 -34.3912 -34.3900 -34.3584 -34.3521 -34.3203
   -34.3059 -34.2932 -34.2581 -34.2575 -34.2480 -34.2339 -34.2327 -33.9500
   -33.9497 -33.8932 -33.8926   6.4278   6.4674   6.5612   6.6684   6.7563
     6.7953   6.9173   6.9777   7.1069   7.2670   7.4363   7.5007   7.7943
     8.3055   8.6621   9.0126   9.1985   9.2722   9.3701   9.5531   9.5642
     9.7295   9.8963  10.1572  10.3321  10.3994  10.8193  10.9385  11.1240
    11.4750  11.6087  11.9363  11.9550  12.1830  12.2285  12.2936  12.3232
    12.3843  12.4086  12.4898  12.5249  12.5971  12.6591  12.7545  12.8614
    12.8855  12.9629  13.2505  13.2898  13.8451  14.9853  16.2521  17.5312
    18.7741  20.0212

          k =-0.5000-0.8660 0.0000 (  4492 PWs)   bands (ev):

   -34.8219 -34.8173 -34.7861 -34.7636 -34.7581 -34.7208 -34.7107 -34.5364
   -34.5342 -34.4181 -34.4082 -34.4064 -34.3994 -34.3967 -34.3686 -34.3349
   -34.3325 -34.3066 -34.2979 -34.2863 -34.2710 -34.2509 -34.2446 -33.9640
   -33.9640 -33.8909 -33.8906   6.1941   6.3659   6.3757   6.5468   6.5786
     6.6284   6.7310   6.8880   6.9328   7.0789   7.2837   7.3013   7.6415
     8.1989   8.6172   8.8771   9.0611   9.1434   9.2615   9.4533   9.8163
     9.9070   9.9510  10.3514  10.5831  10.6259  10.9375  11.4468  11.4771
    11.5463  12.1148  12.3192  12.3577  12.4936  12.6750  12.7647  12.7701
    12.8085  12.8642  12.9172  12.9398  12.9892  13.0872  13.2343  13.2393
    13.4661  14.3489  15.1708  15.6659  15.8457  16.1037  16.2902  16.4348
    16.4941  19.9523

 ------ SPIN DOWN ----------


          k = 0.0556 0.0962 0.0000 (  4451 PWs)   bands (ev):

   -34.7840 -34.7554 -34.6654 -34.5401 -34.4242 -34.3265 -34.3089 -34.2880
   -34.2822 -34.2820 -34.2643 -34.2519 -34.2326 -34.2306 -34.2223 -34.2110
   -34.1953 -34.1939 -34.1709 -34.1704 -34.1581 -33.9181 -33.9177 -33.8869
   -33.8867 -33.8552 -33.8552   4.8377   5.1331   5.6070   6.1700   6.5467
     6.6106   6.6338   6.9083   6.9316   8.7062   8.7449   8.9059   8.9796
     9.0032   9.0754   9.1589   9.2520   9.3489   9.4302   9.4456   9.4873
     9.4886   9.5340   9.5538   9.5838   9.6242   9.6743   9.7301   9.7834
     9.7930   9.8480  10.0433  10.0551  10.2515  10.8192  10.8818  10.8854
    11.0500  11.0917  11.2479  11.3082  11.3820  11.4510  11.5552  11.6354
    11.8087  11.9443  12.2431  12.3670  12.5604  12.6796  12.9327  13.6454
    14.3433  14.7286

          k = 0.0556 0.2245 0.0000 (  4420 PWs)   bands (ev):

   -34.7312 -34.7146 -34.6448 -34.5604 -34.4978 -34.4551 -34.4192 -34.3884
   -34.3699 -34.3637 -34.3299 -34.3156 -34.3139 -34.2916 -34.2720 -34.2519
   -34.2421 -34.2317 -34.2076 -34.1912 -34.1790 -34.0132 -34.0129 -33.9064
   -33.9062 -33.8882 -33.8880   5.7614   6.0004   6.3898   6.8634   7.1417
     7.1842   7.3514   7.5664   7.6429   8.0228   8.2466   8.3936   8.4107
     8.5205   8.5890   8.7110   8.7640   9.1341   9.3172   9.4044   9.4935
     9.5704   9.6694   9.6914   9.7185   9.8122   9.8421   9.9914  10.1183
    10.1617  10.2333  10.3715  10.4490  10.5331  10.5683  10.6269  10.7250
    10.8366  10.9235  11.0538  11.1475  11.4559  11.5679  11.6013  11.7782
    12.0113  12.1869  12.5258  12.5433  12.6986  13.2604  14.1776  15.1891
    16.1227  16.8201

          k = 0.0556 0.3528 0.0000 (  4467 PWs)   bands (ev):

   -34.6953 -34.6853 -34.6599 -34.6580 -34.6196 -34.6124 -34.5686 -34.5340
   -34.5121 -34.4512 -34.3880 -34.3693 -34.3673 -34.3309 -34.3271 -34.3009
   -34.2860 -34.2660 -34.2479 -34.2245 -34.2104 -34.1656 -34.1652 -33.9320
   -33.9319 -33.8978 -33.8976   6.5640   6.7482   6.8764   6.9269   6.9558
     7.1244   7.2038   7.3485   7.4346   7.6507   7.7547   7.9347   8.0632
     8.4319   8.7032   8.8586   9.0564   9.1960   9.3507   9.4636   9.5389
     9.5602   9.5858   9.7814   9.8523  10.1233  10.1764  10.4094  10.5511
    10.5923  10.7144  10.8799  11.0906  11.2633  11.3549  11.4172  11.5103
    11.6944  11.7422  11.7953  11.9533  12.0965  12.1602  12.2920  12.3372
    12.3944  12.4284  12.6226  12.7918  13.2349  14.3075  15.4968  16.7211
    17.8806  18.8765

          k = 0.0556 0.4811 0.0000 (  4463 PWs)   bands (ev):

   -34.7856 -34.7803 -34.7504 -34.7394 -34.7185 -34.6951 -34.6690 -34.5483
   -34.5341 -34.4512 -34.4131 -34.4084 -34.3928 -34.3709 -34.3611 -34.3365
   -34.3251 -34.2954 -34.2824 -34.2667 -34.2615 -34.2486 -34.2378 -33.9649
   -33.9647 -33.8916 -33.8912   6.3899   6.4968   6.5435   6.6921   6.7250
     6.7938   6.8830   7.0154   7.1074   7.2184   7.4454   7.4881   7.7519
     8.2485   8.5938   8.9213   9.1033   9.2638   9.3221   9.5275   9.5506
     9.7356   9.9189  10.2413  10.2875  10.4609  10.8866  10.9756  11.1060
    11.5381  11.6219  11.9073  11.9751  12.0906  12.3178  12.3890  12.4334
    12.4657  12.5097  12.5474  12.6243  12.6739  12.8019  12.8966  13.0246
    13.3763  13.7979  14.1861  14.3173  14.6243  15.4815  16.5911  17.7278
    18.7588  20.2431

          k = 0.0556-0.5453 0.0000 (  4486 PWs)   bands (ev):

   -34.8140 -34.8081 -34.7769 -34.7570 -34.7477 -34.7150 -34.7017 -34.5364
   -34.5327 -34.4322 -34.4206 -34.4145 -34.3962 -34.3893 -34.3722 -34.3432
   -34.3375 -34.3032 -34.2975 -34.2840 -34.2752 -34.2524 -34.2482 -33.9726
   -33.9723 -33.8904 -33.8901   6.2689   6.4424   6.4470   6.6107   6.6528
     6.7095   6.7882   6.9651   7.0214   7.1290   7.3679   7.3875   7.6781
     8.2075   8.5794   8.8409   9.0339   9.1939   9.2771   9.4803   9.7002
     9.8060   9.9103  10.4167  10.4433  10.4637  11.0349  11.1730  11.2634
    11.6690  11.8868  12.1303  12.2181  12.3596  12.4432  12.5801  12.6498
    12.6916  12.7347  12.7763  12.8216  12.8524  12.9499  13.0465  13.1286
    13.9774  14.5801  15.2365  15.6968  15.7469  15.9155  16.4496  17.0212
    17.4131  20.0410

          k = 0.0556-0.4170 0.0000 (  4465 PWs)   bands (ev):

   -34.7341 -34.7312 -34.7103 -34.7045 -34.6727 -34.6538 -34.6124 -34.5721
   -34.5343 -34.4593 -34.4008 -34.3922 -34.3856 -34.3513 -34.3460 -34.3217
   -34.3068 -34.2817 -34.2658 -34.2397 -34.2332 -34.2239 -34.2186 -33.9511
   -33.9509 -33.8942 -33.8939   6.5676   6.6094   6.7245   6.7690   6.9051
     6.9437   7.0415   7.1025   7.2488   7.3994   7.5710   7.6875   7.8827
     8.3365   8.6318   8.9891   9.2484   9.2889   9.3756   9.4159   9.5554
     9.6294   9.7759  10.0230  10.0608  10.3045  10.5072  10.6277  10.9695
    11.0712  11.2676  11.3983  11.4941  11.7745  11.8684  11.9467  12.0161
    12.0819  12.1579  12.2515  12.3302  12.4770  12.5203  12.6609  12.7420
    12.8836  12.9836  13.1018  13.1675  13.8016  14.8963  16.1358  17.4106
    18.6517  19.7699

          k = 0.0556-0.2887 0.0000 (  4439 PWs)   bands (ev):

   -34.7015 -34.6921 -34.6404 -34.5995 -34.5683 -34.5366 -34.4952 -34.4605
   -34.4456 -34.4189 -34.3679 -34.3421 -34.3420 -34.3141 -34.2994 -34.2756
   -34.2635 -34.2498 -34.2279 -34.2072 -34.1931 -34.0915 -34.0913 -33.9100
   -33.9100 -33.9017 -33.9014   6.2887   6.4676   6.7326   7.0114   7.1256
     7.2597   7.4901   7.5569   7.7768   7.8155   8.0381   8.0734   8.2721
     8.4356   8.4872   8.6884   8.9012   8.9222   9.2175   9.4509   9.5532
     9.6077   9.6560   9.7001   9.8082   9.8490   9.9851  10.0451  10.1748
    10.3138  10.5701  10.5830  10.6445  10.7762  10.9188  10.9462  11.1169
    11.1689  11.2177  11.4302  11.5222  11.6258  11.8204  11.8532  11.9292
    12.1449  12.2659  12.5649  12.7338  12.8466  13.7649  14.8366  15.9663
    17.0187  17.8791

          k = 0.0556-0.1604 0.0000 (  4443 PWs)   bands (ev):

   -34.7617 -34.7377 -34.6554 -34.5448 -34.4490 -34.3819 -34.3559 -34.3247
   -34.3160 -34.3081 -34.2948 -34.2866 -34.2699 -34.2609 -34.2476 -34.2301
   -34.2232 -34.2108 -34.1878 -34.1785 -34.1679 -33.9441 -33.9439 -33.9101
   -33.9100 -33.8693 -33.8691   5.2345   5.5129   5.9637   6.5091   6.8624
     6.9071   6.9610   7.2257   7.2563   8.3966   8.5146   8.6494   8.7284
     8.7932   8.8328   8.8925   9.0178   9.2676   9.3339   9.5023   9.5693
     9.5941   9.6185   9.6915   9.7267   9.7563   9.7925   9.8194   9.8530
     9.9412  10.0160  10.1030  10.2268  10.3268  10.3400  10.7137  10.7801
    10.8584  10.9596  10.9653  11.1418  11.3547  11.4291  11.5365  11.7348
    11.8205  12.2082  12.2311  12.5346  12.6632  12.8033  13.5299  14.4023
    15.2127  15.7428

          k = 0.0556-0.0321 0.0000 (  4465 PWs)   bands (ev):

   -34.7960 -34.7651 -34.6715 -34.5397 -34.4161 -34.2979 -34.2824 -34.2746
   -34.2727 -34.2722 -34.2400 -34.2300 -34.2215 -34.2115 -34.2040 -34.1951
   -34.1886 -34.1680 -34.1680 -34.1621 -34.1507 -33.9197 -33.9195 -33.8590
   -33.8589 -33.8479 -33.8477   4.6279   4.9294   5.4106   5.9773   6.3659
     6.4328   6.4604   6.7268   6.7468   8.8777   8.9257   9.0819   9.1227
     9.1409   9.2045   9.2794   9.2849   9.3323   9.3447   9.3456   9.3540
     9.4377   9.4714   9.5114   9.5521   9.5812   9.5955   9.6300   9.7466
     9.8195   9.9041   9.9090   9.9545  10.6123  11.0153  11.0160  11.1577
    11.1642  11.2717  11.2934  11.3466  11.3929  11.4773  11.6241  11.7625
    11.9703  11.9722  12.0911  12.3419  12.4225  12.6000  12.7303  13.0391
    13.6714  13.9573

          k = 0.1667 0.2887 0.0000 (  4425 PWs)   bands (ev):

   -34.6797 -34.6796 -34.6413 -34.6177 -34.5943 -34.5712 -34.5357 -34.4953
   -34.4837 -34.4474 -34.3890 -34.3718 -34.3671 -34.3274 -34.3123 -34.3013
   -34.2837 -34.2646 -34.2639 -34.2515 -34.1964 -34.1229 -34.1227 -33.9430
   -33.9428 -33.8980 -33.8980   6.7795   6.8554   7.0124   7.2397   7.5050
     7.7266   7.7403   7.7630   7.8544   7.8566   7.9708   7.9804   8.0718
     8.2139   8.3251   8.4188   8.8361   8.8799   8.9304   9.0168   9.1927
     9.3252   9.3549   9.3758   9.4641   9.5259  10.0721  10.0790  10.2291
    10.3126  10.4651  10.5205  10.9176  10.9335  11.0049  11.2021  11.4089
    11.5070  11.6589  11.8058  12.0233  12.1176  12.2067  12.3569  12.3620
    12.4109  12.4750  12.5607  12.5901  13.3386  14.3153  15.3953  16.5402
    17.6378  18.5926

          k = 0.1667 0.4170 0.0000 (  4459 PWs)   bands (ev):

   -34.7193 -34.7156 -34.6938 -34.6850 -34.6597 -34.6452 -34.6142 -34.5796
   -34.5371 -34.4711 -34.4443 -34.4427 -34.4056 -34.3739 -34.3659 -34.3597
   -34.3365 -34.3285 -34.2995 -34.2770 -34.2301 -34.2167 -34.2158 -34.0050
   -34.0047 -33.8913 -33.8909   6.9415   7.0013   7.0807   7.1804   7.2658
     7.3429   7.4806   7.4891   7.5704   7.7257   7.7983   8.0397   8.1274
     8.3369   8.4441   8.6453   8.8425   8.8924   9.0434   9.1500   9.2443
     9.4595   9.5734   9.7978   9.8791   9.9988  10.0657  10.2228  10.3694
    10.4896  10.7852  11.0102  11.1096  11.1663  11.3294  11.3993  11.6863
    11.7573  12.0454  12.5159  12.6021  12.7271  12.7945  12.8499  13.0033
    14.0077  14.1395  14.2269  14.4716  15.0404  15.9365  17.0210  18.1864
    19.3474  20.4157

          k = 0.1667 0.5453 0.0000 (  4490 PWs)   bands (ev):

   -34.7765 -34.7715 -34.7386 -34.7209 -34.7113 -34.6825 -34.6703 -34.5384
   -34.5317 -34.4899 -34.4837 -34.4621 -34.4438 -34.4186 -34.3898 -34.3770
   -34.3632 -34.3382 -34.3226 -34.2874 -34.2627 -34.2613 -34.2582 -34.0386
   -34.0385 -33.8874 -33.8873   6.6294   6.8236   6.9169   7.0686   7.1019
     7.1368   7.2103   7.4053   7.4856   7.5302   7.7808   7.8810   7.9968
     8.2337   8.3262   8.5344   8.6836   8.9853   9.2498   9.3405   9.5117
     9.7223   9.8140   9.8676  10.1593  10.2286  10.3032  10.6581  10.7574
    11.0862  11.1101  11.2143  11.4827  11.7703  11.9311  12.0386  12.1438
    12.2202  12.3631  12.5075  12.5681  12.6407  12.7952  12.9129  13.0060
    15.8385  16.1468  16.5001  16.8083  17.1260  17.5235  17.9402  18.2383
    18.3962  20.3380

          k = 0.1667-0.4811 0.0000 (  4476 PWs)   bands (ev):

   -34.7561 -34.7510 -34.7221 -34.7078 -34.6943 -34.6680 -34.6514 -34.5548
   -34.5354 -34.4760 -34.4692 -34.4655 -34.4242 -34.4007 -34.3806 -34.3794
   -34.3516 -34.3380 -34.3117 -34.2854 -34.2503 -34.2462 -34.2428 -34.0269
   -34.0268 -33.8887 -33.8886   6.7405   6.9115   6.9480   7.1328   7.1609
     7.1759   7.3205   7.4481   7.5100   7.6053   7.7924   7.9427   8.0464
     8.2423   8.4070   8.6399   8.7808   8.8579   9.1985   9.2501   9.5402
     9.6202   9.7444   9.9007   9.9904  10.0384  10.2839  10.4999  10.6672
    10.8460  10.8931  11.0595  11.3797  11.5940  11.6655  11.7324  11.8428
    11.8916  12.1737  12.5450  12.6621  12.7578  12.8542  12.9652  13.0995
    14.9650  15.1650  15.3735  15.6562  16.1558  16.9036  17.8254  18.7916
    19.6339  20.5940

          k = 0.1667-0.3528 0.0000 (  4458 PWs)   bands (ev):

   -34.6832 -34.6822 -34.6576 -34.6557 -34.6235 -34.6196 -34.5883 -34.5609
   -34.5219 -34.4666 -34.4120 -34.4082 -34.3921 -34.3508 -34.3350 -34.3301
   -34.3147 -34.3054 -34.2841 -34.2649 -34.2120 -34.1747 -34.1745 -33.9756
   -33.9754 -33.8947 -33.8947   7.0332   7.1231   7.1786   7.2509   7.3674
     7.4519   7.5489   7.6254   7.6829   7.7956   7.9668   8.0952   8.1849
     8.2694   8.4130   8.5850   8.6934   8.8056   8.9783   9.1466   9.2274
     9.2658   9.3268   9.5263   9.6720   9.7303   9.9904  10.0039  10.1963
    10.4734  10.5940  10.7092  10.8873  11.0925  11.1532  11.2951  11.5758
    11.6398  11.8938  12.3104  12.3669  12.4943  12.5372  12.6059  12.7772
    13.1125  13.1870  13.2417  13.3984  14.0440  15.0318  16.1531  17.3348
    18.4867  19.5278

          k = 0.1667-0.2245 0.0000 (  4433 PWs)   bands (ev):

   -34.7053 -34.6961 -34.6405 -34.5838 -34.5440 -34.5121 -34.4733 -34.4363
   -34.4260 -34.4110 -34.3666 -34.3394 -34.3373 -34.3123 -34.2899 -34.2728
   -34.2563 -34.2470 -34.2344 -34.2212 -34.1857 -34.0669 -34.0668 -33.9129
   -33.9128 -33.9021 -33.9020   6.2401   6.4256   6.7335   7.1220   7.4196
     7.4730   7.6157   7.7270   7.8483   7.9460   8.0745   8.1529   8.1848
     8.2960   8.4256   8.5833   8.6351   8.8723   9.1324   9.1863   9.2775
     9.4015   9.4613   9.5697   9.6638   9.6949   9.8947  10.0198  10.1835
    10.4124  10.4228  10.5276  10.6282  10.7169  10.8794  10.8996  11.0301
    11.1669  11.2087  11.4681  11.5230  11.5795  11.8607  11.8997  11.9058
    12.0698  12.2203  12.4136  12.5660  12.8881  13.7496  14.7442  15.8229
    16.8411  17.6711

          k = 0.1667-0.0962 0.0000 (  4427 PWs)   bands (ev):

   -34.7518 -34.7299 -34.6512 -34.5488 -34.4649 -34.4092 -34.3798 -34.3468
   -34.3363 -34.3190 -34.3032 -34.3028 -34.2877 -34.2652 -34.2624 -34.2397
   -34.2311 -34.2202 -34.1904 -34.1813 -34.1701 -33.9695 -33.9693 -33.9091
   -33.9089 -33.8739 -33.8738   5.4149   5.6813   6.1130   6.6341   6.9653
     6.9698   7.1132   7.3507   7.3982   8.2087   8.4344   8.5610   8.6223
     8.6961   8.7499   8.8528   8.8987   9.3345   9.3781   9.4886   9.6016
     9.6200   9.6419   9.7292   9.7575   9.8403   9.8628   9.9234   9.9926
    10.0081  10.0543  10.0582  10.2295  10.3314  10.4380  10.5481  10.7146
    10.7409  10.9085  11.0095  11.1565  11.2697  11.4980  11.5192  11.7035
    12.0092  12.0920  12.3754  12.6434  12.7846  12.8475  13.7299  14.6847
    15.5463  16.1366

          k = 0.2778 0.4811 0.0000 (  4485 PWs)   bands (ev):

   -34.7189 -34.7184 -34.6908 -34.6884 -34.6569 -34.6536 -34.6146 -34.5988
   -34.5733 -34.5371 -34.5102 -34.5101 -34.4698 -34.4509 -34.4299 -34.4208
   -34.3650 -34.3441 -34.3273 -34.2984 -34.2669 -34.2256 -34.2255 -34.0976
   -34.0974 -33.8862 -33.8861   7.1670   7.1815   7.2935   7.3422   7.4238
     7.5848   7.7682   7.8668   7.9388   7.9689   8.0660   8.0829   8.1708
     8.2119   8.3551   8.4019   8.6762   8.7750   8.9169   9.0486   9.2084
     9.3675   9.5613   9.6545   9.8847   9.8917  10.1036  10.1062  10.5771
    10.6576  10.7324  10.8514  11.0857  11.1208  11.3016  11.3268  11.6398
    11.8945  12.2198  12.5069  12.6828  12.7005  12.7015  12.8393  12.9957
    16.3304  16.4553  16.7227  17.1463  17.7302  18.4813  19.3580  20.2459
    20.7041  20.7887

          k = 0.2778 0.6094 0.0000 (  4491 PWs)   bands (ev):

   -34.7123 -34.7075 -34.6792 -34.6741 -34.6519 -34.6440 -34.6310 -34.6044
   -34.5829 -34.5620 -34.5379 -34.5283 -34.5090 -34.4774 -34.4437 -34.4337
   -34.3533 -34.3435 -34.3261 -34.3031 -34.2865 -34.2178 -34.2176 -34.1294
   -34.1292 -33.8849 -33.8847   7.1328   7.2999   7.3922   7.5183   7.5405
     7.6380   7.7328   7.8526   7.8950   7.9339   7.9996   8.0729   8.1808
     8.2230   8.3192   8.4644   8.5499   8.9002   8.9427   9.1730   9.2604
     9.3767   9.4492   9.6440   9.8113   9.8597  10.1539  10.1638  10.5485
    10.6608  10.8340  10.9580  11.0520  11.1726  11.3297  11.3792  11.9587
    12.1089  12.2908  12.3774  12.4924  12.5415  12.5911  12.6470  12.7728
    17.5303  17.7076  18.0117  18.3887  18.7327  19.0382  19.4021  19.8076
    20.2273  20.3456

          k = 0.2778-0.4170 0.0000 (  4462 PWs)   bands (ev):

   -34.7253 -34.7221 -34.6983 -34.6860 -34.6679 -34.6506 -34.6270 -34.5801
   -34.5486 -34.4959 -34.4824 -34.4810 -34.4357 -34.4092 -34.3999 -34.3842
   -34.3662 -34.3438 -34.3235 -34.2867 -34.2463 -34.2265 -34.2264 -34.0524
   -34.0521 -33.8882 -33.8879   7.0214   7.1524   7.1742   7.3018   7.3607
     7.4810   7.5860   7.6751   7.7478   7.8684   8.0808   8.0908   8.1808
     8.3083   8.5227   8.5264   8.5768   8.7297   8.9405   9.0072   9.2462
     9.3801   9.5386   9.7611   9.9104   9.9417  10.1230  10.1559  10.3325
    10.5110  10.7645  10.9085  11.0749  11.1838  11.3193  11.3718  11.5416
    11.7101  12.1313  12.5459  12.7553  12.7877  12.8514  12.9433  13.1013
    15.1634  15.2451  15.4235  15.7728  16.3464  17.1604  18.1495  19.2183
    20.2734  21.1693

          k = 0.2778-0.2887 0.0000 (  4463 PWs)   bands (ev):

   -34.7017 -34.7010 -34.6813 -34.6784 -34.6417 -34.6300 -34.5883 -34.5758
   -34.5289 -34.4613 -34.4071 -34.4017 -34.3881 -34.3509 -34.3372 -34.3290
   -34.3176 -34.2857 -34.2700 -34.2572 -34.2181 -34.1959 -34.1953 -33.9632
   -33.9630 -33.8944 -33.8942   6.7791   6.9099   6.9662   7.0067   7.1570
     7.1887   7.2533   7.3574   7.4648   7.6106   7.7682   7.9872   8.0287
     8.3362   8.5240   8.8410   8.9098   9.1433   9.1924   9.3030   9.3885
     9.5125   9.6380   9.7257   9.8339  10.0620  10.1601  10.3401  10.5197
    10.5323  10.7485  10.9815  11.1712  11.2465  11.2833  11.4619  11.7686
    11.7906  12.0746  12.2377  12.3677  12.4358  12.5394  12.6314  12.8049
    12.9536  13.1458  13.1743  13.3118  13.9484  14.9663  16.1322  17.3540
    18.5425  19.6028

          k = 0.2778-0.1604 0.0000 (  4458 PWs)   bands (ev):

   -34.6968 -34.6858 -34.6420 -34.6277 -34.6017 -34.5742 -34.5303 -34.4928
   -34.4814 -34.4352 -34.3772 -34.3504 -34.3497 -34.3232 -34.3110 -34.2831
   -34.2680 -34.2593 -34.2263 -34.2092 -34.2029 -34.1283 -34.1279 -33.9146
   -33.9145 -33.9003 -33.9001   6.3957   6.5728   6.7838   6.9033   6.9613
     7.1370   7.3428   7.3966   7.5604   7.7084   7.8634   7.9513   8.1829
     8.4919   8.7220   8.8516   9.0384   9.1884   9.3379   9.4828   9.5623
     9.6207   9.6645   9.7773   9.9002  10.0641  10.1557  10.3315  10.4371
    10.4492  10.6130  10.6905  10.8671  11.0591  11.1199  11.2248  11.2532
    11.3039  11.4132  11.4418  11.6008  11.7248  11.8400  11.9561  11.9598
    12.0944  12.4101  12.6933  12.8451  12.8551  13.9145  15.0751  16.2638
    17.3698  18.2893

          k = 0.3889 0.6736 0.0000 (  4511 PWs)   bands (ev):

   -34.7482 -34.7429 -34.7090 -34.6952 -34.6821 -34.6622 -34.6485 -34.5624
   -34.5583 -34.5216 -34.5203 -34.4989 -34.4848 -34.4518 -34.4268 -34.4035
   -34.3546 -34.3538 -34.3298 -34.2938 -34.2750 -34.2431 -34.2431 -34.0878
   -34.0878 -33.8860 -33.8858   6.8556   7.0443   7.2434   7.3540   7.3703
     7.4463   7.5555   7.6178   7.7081   7.7829   7.9735   8.0015   8.1725
     8.3120   8.3569   8.4110   8.5074   8.7404   9.0196   9.1898   9.4466
     9.5897   9.6885   9.8321   9.8943  10.1390  10.2388  10.3681  10.6009
    10.6500  10.7013  11.0232  11.2756  11.4695  11.6184  11.7188  12.1378
    12.1960  12.2769  12.3687  12.5211  12.5300  12.7089  12.7880  12.8185
    17.0495  17.2578  17.5065  17.7410  17.9805  18.2562  18.5853  18.8990
    19.1526  20.4829

          k = 0.3889-0.3528 0.0000 (  4485 PWs)   bands (ev):

   -34.7898 -34.7843 -34.7530 -34.7367 -34.7241 -34.6952 -34.6791 -34.5395
   -34.5309 -34.4547 -34.4460 -34.4360 -34.4060 -34.3829 -34.3795 -34.3609
   -34.3490 -34.3109 -34.3014 -34.2797 -34.2677 -34.2636 -34.2463 -33.9958
   -33.9957 -33.8896 -33.8895   6.4692   6.6483   6.6542   6.8123   6.8569
     6.9246   6.9772   7.1768   7.2665   7.2828   7.5826   7.6372   7.7987
     8.2094   8.4768   8.7475   8.9325   9.2143   9.3262   9.4613   9.5121
     9.6459   9.8758  10.0867  10.2074  10.4633  10.6682  10.7931  11.0529
    11.2767  11.5497  11.5938  11.7042  11.9957  12.1827  12.2311  12.2681
    12.2959  12.3823  12.5777  12.6400  12.7410  12.8352  12.9798  13.1031
    14.5659  14.9361  15.3205  15.5617  15.8482  16.4256  17.2035  17.9698
    18.5296  20.2822

          k = 0.3889-0.2245 0.0000 (  4444 PWs)   bands (ev):

   -34.7654 -34.7604 -34.7335 -34.7277 -34.6997 -34.6800 -34.6443 -34.5593
   -34.5355 -34.4561 -34.3983 -34.3912 -34.3900 -34.3584 -34.3521 -34.3203
   -34.3059 -34.2932 -34.2581 -34.2575 -34.2480 -34.2339 -34.2327 -33.9500
   -33.9497 -33.8932 -33.8926   6.4278   6.4674   6.5612   6.6684   6.7563
     6.7953   6.9173   6.9777   7.1069   7.2670   7.4363   7.5007   7.7943
     8.3055   8.6621   9.0126   9.1985   9.2722   9.3701   9.5531   9.5642
     9.7295   9.8963  10.1572  10.3321  10.3994  10.8193  10.9385  11.1240
    11.4750  11.6087  11.9363  11.9550  12.1830  12.2285  12.2936  12.3232
    12.3843  12.4086  12.4898  12.5249  12.5971  12.6591  12.7545  12.8614
    12.8855  12.9629  13.2505  13.2898  13.8451  14.9853  16.2521  17.5312
    18.7741  20.0212

          k =-0.5000-0.8660 0.0000 (  4492 PWs)   bands (ev):

   -34.8219 -34.8173 -34.7861 -34.7636 -34.7581 -34.7208 -34.7107 -34.5364
   -34.5342 -34.4181 -34.4082 -34.4064 -34.3994 -34.3967 -34.3686 -34.3349
   -34.3325 -34.3066 -34.2979 -34.2863 -34.2710 -34.2509 -34.2446 -33.9640
   -33.9640 -33.8909 -33.8906   6.1941   6.3659   6.3757   6.5468   6.5786
     6.6284   6.7310   6.8880   6.9328   7.0789   7.2837   7.3013   7.6415
     8.1989   8.6172   8.8771   9.0611   9.1434   9.2615   9.4533   9.8163
     9.9070   9.9510  10.3514  10.5831  10.6259  10.9375  11.4468  11.4771
    11.5463  12.1148  12.3192  12.3577  12.4936  12.6750  12.7647  12.7701
    12.8085  12.8642  12.9172  12.9398  12.9892  13.0872  13.2343  13.2393
    13.4661  14.3489  15.1708  15.6659  15.8457  16.1037  16.2902  16.4348
    16.4941  19.9517

     the Fermi energy is    12.2120 ev

!    total energy              =   -1540.61889000 Ry
     estimated scf accuracy    <       0.00000007 Ry
     smearing contrib. (-TS)   =      -0.03836302 Ry
     internal energy E=F+TS    =   -1540.58052698 Ry

     The total energy is F=E-TS. E is the sum of the following terms:
     one-electron contribution =  -10660.52646879 Ry
     hartree contribution      =    5408.16917352 Ry
     xc contribution           =    -269.23705959 Ry
     ewald contribution        =    3981.01382789 Ry

     total magnetization       =    -0.00 Bohr mag/cell
     absolute magnetization    =     0.00 Bohr mag/cell

     convergence has been achieved in  10 iterations

     negative rho (up, down):  2.533E-01 2.533E-01

     Forces acting on atoms (cartesian axes, Ry/au):

     atom    1 type  1   force =     0.00000000    0.00000000    0.00043512
     atom    2 type  1   force =     0.00000000    0.00000000    0.00223767
     atom    3 type  1   force =     0.00000000    0.00000000   -0.00056853
     atom    4 type  1   force =     0.00000000    0.00000000   -0.00164429
     atom    5 type  1   force =     0.00000000    0.00000000    0.00000397
     atom    6 type  1   force =     0.00000000    0.00000000    0.00164663
     atom    7 type  1   force =     0.00000000    0.00000000    0.00056497
     atom    8 type  1   force =     0.00000000    0.00000000   -0.00223803
     atom    9 type  1   force =     0.00000000    0.00000000   -0.00043751

     Total force =     0.004056     Total SCF correction =     0.002478
     SCF correction compared to forces is large: reduce conv_thr to get better values
     Energy error            =      4.8E-05
     Gradient error          =      2.2E-03

     number of scf cycles    =   5
     number of bfgs steps    =   4

     energy   old            =   -1540.6188422422 Ry
     energy   new            =   -1540.6188900039 Ry

     CASE: energy  _new < energy  _old

     new trust radius        =       0.0045721347 bohr
     new conv_thr            =       0.0000001000 Ry


ATOMIC_POSITIONS (angstrom)
Rh            0.0000000000        0.0000000000        0.0312231036
Rh            2.7108568000        1.5651139000        2.2029026790
Rh            1.3554284000        0.7825569000        4.4079362203
Rh            0.0000000000        0.0000000000        6.6366227942
Rh            2.7108568000        1.5651139000        8.8536170071
Rh            1.3554284000        0.7825569000       11.0706104543
Rh            0.0000000000        0.0000000000       13.2993021765
Rh            2.7108568000        1.5651139000       15.5043451576
Rh            1.3554284000        0.7825569000       17.6760308075



     Writing output data file /home/STUDENTI/leonardo.razzai/WORK/relax_surf/9-L.save/
     NEW-OLD atomic charge density approx. for the potential

     negative rho (up, down):  2.529E-01 2.529E-01
     Generating pointlists ...

     total cpu time spent up to now is     1180.9 secs

     Self-consistent Calculation

     iteration #  1     ecut=    35.00 Ry     beta= 0.40
     Davidson diagonalization with overlap
     ethr =  1.00E-06,  avg # of iterations =  5.0

     negative rho (up, down):  2.529E-01 2.529E-01

     total cpu time spent up to now is     1220.3 secs

     total energy              =   -1540.61869051 Ry
     estimated scf accuracy    <       0.01140445 Ry

     total magnetization       =    -0.00 Bohr mag/cell
     absolute magnetization    =     0.00 Bohr mag/cell

     iteration #  2     ecut=    35.00 Ry     beta= 0.40
     Davidson diagonalization with overlap
     ethr =  8.45E-06,  avg # of iterations =  1.0

     negative rho (up, down):  2.529E-01 2.529E-01

     total cpu time spent up to now is     1239.5 secs

     total energy              =   -1540.61886073 Ry
     estimated scf accuracy    <       0.00487342 Ry

     total magnetization       =    -0.00 Bohr mag/cell
     absolute magnetization    =     0.00 Bohr mag/cell

     iteration #  3     ecut=    35.00 Ry     beta= 0.40
     Davidson diagonalization with overlap
     ethr =  3.61E-06,  avg # of iterations =  1.0

     negative rho (up, down):  2.529E-01 2.529E-01

     total cpu time spent up to now is     1258.8 secs

     total energy              =   -1540.61891272 Ry
     estimated scf accuracy    <       0.00024254 Ry

     total magnetization       =    -0.00 Bohr mag/cell
     absolute magnetization    =     0.00 Bohr mag/cell

     iteration #  4     ecut=    35.00 Ry     beta= 0.40
     Davidson diagonalization with overlap
     ethr =  1.80E-07,  avg # of iterations =  1.0

     negative rho (up, down):  2.529E-01 2.529E-01

     total cpu time spent up to now is     1278.0 secs

     total energy              =   -1540.61890801 Ry
     estimated scf accuracy    <       0.00011640 Ry

     total magnetization       =    -0.00 Bohr mag/cell
     absolute magnetization    =     0.00 Bohr mag/cell

     iteration #  5     ecut=    35.00 Ry     beta= 0.40
     Davidson diagonalization with overlap
     ethr =  8.62E-08,  avg # of iterations =  1.0

     negative rho (up, down):  2.529E-01 2.529E-01

     total cpu time spent up to now is     1297.2 secs

     total energy              =   -1540.61891044 Ry
     estimated scf accuracy    <       0.00000172 Ry

     total magnetization       =    -0.00 Bohr mag/cell
     absolute magnetization    =     0.00 Bohr mag/cell

     iteration #  6     ecut=    35.00 Ry     beta= 0.40
     Davidson diagonalization with overlap
     ethr =  1.27E-09,  avg # of iterations =  2.2

     negative rho (up, down):  2.529E-01 2.529E-01

     total cpu time spent up to now is     1319.2 secs

     total energy              =   -1540.61891055 Ry
     estimated scf accuracy    <       0.00000053 Ry

     total magnetization       =    -0.00 Bohr mag/cell
     absolute magnetization    =     0.00 Bohr mag/cell

     iteration #  7     ecut=    35.00 Ry     beta= 0.40
     Davidson diagonalization with overlap
     ethr =  3.89E-10,  avg # of iterations =  1.1

     negative rho (up, down):  2.529E-01 2.529E-01

     total cpu time spent up to now is     1338.6 secs

     total energy              =   -1540.61891057 Ry
     estimated scf accuracy    <       0.00000081 Ry

     total magnetization       =    -0.00 Bohr mag/cell
     absolute magnetization    =     0.00 Bohr mag/cell

     iteration #  8     ecut=    35.00 Ry     beta= 0.40
     Davidson diagonalization with overlap
     ethr =  3.89E-10,  avg # of iterations =  1.0

     negative rho (up, down):  2.529E-01 2.529E-01

     total cpu time spent up to now is     1357.9 secs

     total energy              =   -1540.61891061 Ry
     estimated scf accuracy    <       0.00000090 Ry

     total magnetization       =    -0.00 Bohr mag/cell
     absolute magnetization    =     0.00 Bohr mag/cell

     iteration #  9     ecut=    35.00 Ry     beta= 0.40
     Davidson diagonalization with overlap
     ethr =  3.89E-10,  avg # of iterations =  1.1

     negative rho (up, down):  2.529E-01 2.529E-01
 
     Magnetic moment per site:
     atom:    1    charge:   13.1086    magn:   -0.0000    constr:    0.0000
     atom:    2    charge:   13.1643    magn:    0.0000    constr:    0.0000
     atom:    3    charge:   13.1595    magn:    0.0000    constr:    0.0000
     atom:    4    charge:   13.1563    magn:    0.0000    constr:    0.0000
     atom:    5    charge:   13.1590    magn:    0.0000    constr:    0.0000
     atom:    6    charge:   13.1565    magn:    0.0000    constr:    0.0000
     atom:    7    charge:   13.1589    magn:    0.0000    constr:    0.0000
     atom:    8    charge:   13.1649    magn:   -0.0000    constr:    0.0000
     atom:    9    charge:   13.1088    magn:   -0.0000    constr:    0.0000

     total cpu time spent up to now is     1377.2 secs

     End of self-consistent calculation

 ------ SPIN UP ------------


          k = 0.0556 0.0962 0.0000 (  4451 PWs)   bands (ev):

   -34.7853 -34.7594 -34.6651 -34.5403 -34.4249 -34.3280 -34.3109 -34.2890
   -34.2845 -34.2838 -34.2628 -34.2520 -34.2316 -34.2311 -34.2217 -34.2115
   -34.1952 -34.1925 -34.1702 -34.1693 -34.1567 -33.9186 -33.9182 -33.8871
   -33.8869 -33.8554 -33.8554   4.8383   5.1295   5.6058   6.1695   6.5433
     6.6148   6.6311   6.9059   6.9296   8.7054   8.7463   8.9012   8.9799
     9.0038   9.0720   9.1583   9.2515   9.3497   9.4291   9.4457   9.4832
     9.4891   9.5327   9.5493   9.5845   9.6238   9.6747   9.7299   9.7844
     9.7931   9.8483  10.0421  10.0539  10.2524  10.8182  10.8822  10.8860
    11.0492  11.0898  11.2476  11.3086  11.3822  11.4514  11.5551  11.6356
    11.8082  11.9450  12.2425  12.3677  12.5621  12.6803  12.9334  13.6454
    14.3466  14.7305

          k = 0.0556 0.2245 0.0000 (  4420 PWs)   bands (ev):

   -34.7330 -34.7185 -34.6442 -34.5609 -34.4993 -34.4564 -34.4197 -34.3879
   -34.3698 -34.3640 -34.3302 -34.3177 -34.3158 -34.2912 -34.2707 -34.2521
   -34.2417 -34.2319 -34.2070 -34.1900 -34.1777 -34.0134 -34.0131 -33.9069
   -33.9067 -33.8884 -33.8882   5.7620   5.9969   6.3885   6.8626   7.1418
     7.1812   7.3503   7.5637   7.6414   8.0230   8.2434   8.3936   8.4112
     8.5180   8.5857   8.7095   8.7645   9.1339   9.3172   9.4041   9.4930
     9.5710   9.6686   9.6916   9.7179   9.8097   9.8404   9.9922  10.1173
    10.1615  10.2298  10.3715  10.4482  10.5330  10.5685  10.6269  10.7250
    10.8375  10.9237  11.0533  11.1466  11.4560  11.5675  11.6019  11.7784
    12.0116  12.1866  12.5269  12.5448  12.6999  13.2618  14.1790  15.1903
    16.1261  16.8219

          k = 0.0556 0.3528 0.0000 (  4467 PWs)   bands (ev):

   -34.6974 -34.6888 -34.6612 -34.6600 -34.6188 -34.6121 -34.5688 -34.5328
   -34.5125 -34.4514 -34.3885 -34.3715 -34.3695 -34.3312 -34.3254 -34.3008
   -34.2860 -34.2661 -34.2474 -34.2232 -34.2090 -34.1658 -34.1655 -33.9323
   -33.9321 -33.8983 -33.8982   6.5644   6.7441   6.8762   6.9248   6.9545
     7.1217   7.2033   7.3448   7.4332   7.6498   7.7538   7.9343   8.0625
     8.4310   8.7031   8.8568   9.0555   9.1936   9.3503   9.4626   9.5396
     9.5596   9.5863   9.7770   9.8524  10.1220  10.1763  10.4095  10.5505
    10.5917  10.7143  10.8788  11.0896  11.2642  11.3548  11.4167  11.5099
    11.6953  11.7427  11.7943  11.9534  12.0964  12.1599  12.2922  12.3374
    12.3945  12.4289  12.6250  12.7929  13.2362  14.3092  15.4990  16.7237
    17.8830  18.8784

          k = 0.0556 0.4811 0.0000 (  4463 PWs)   bands (ev):

   -34.7874 -34.7829 -34.7509 -34.7409 -34.7186 -34.6939 -34.6678 -34.5502
   -34.5365 -34.4505 -34.4151 -34.4103 -34.3939 -34.3694 -34.3603 -34.3364
   -34.3250 -34.2954 -34.2821 -34.2670 -34.2618 -34.2475 -34.2366 -33.9651
   -33.9650 -33.8921 -33.8918   6.3900   6.4970   6.5386   6.6885   6.7236
     6.7926   6.8779   7.0151   7.1076   7.2169   7.4441   7.4874   7.7516
     8.2481   8.5931   8.9198   9.1050   9.2643   9.3206   9.5214   9.5510
     9.7358   9.9174  10.2384  10.2870  10.4606  10.8868  10.9756  11.1057
    11.5380  11.6212  11.9072  11.9748  12.0909  12.3181  12.3892  12.4339
    12.4653  12.5100  12.5483  12.6250  12.6735  12.8024  12.8972  13.0254
    13.3766  13.7972  14.1868  14.3179  14.6252  15.4824  16.5929  17.7308
    18.7595  20.2441

          k = 0.0556-0.5453 0.0000 (  4486 PWs)   bands (ev):

   -34.8159 -34.8107 -34.7771 -34.7590 -34.7474 -34.7137 -34.7005 -34.5388
   -34.5352 -34.4325 -34.4228 -34.4155 -34.3968 -34.3879 -34.3708 -34.3431
   -34.3376 -34.3033 -34.2975 -34.2846 -34.2753 -34.2512 -34.2469 -33.9728
   -33.9725 -33.8909 -33.8907   6.2690   6.4374   6.4470   6.6103   6.6485
     6.7084   6.7830   6.9644   7.0220   7.1277   7.3670   7.3864   7.6778
     8.2071   8.5786   8.8395   9.0352   9.1945   9.2766   9.4739   9.7000
     9.8063   9.9093  10.4157  10.4425  10.4617  11.0342  11.1723  11.2646
    11.6682  11.8867  12.1305  12.2186  12.3598  12.4448  12.5804  12.6486
    12.6917  12.7351  12.7773  12.8219  12.8529  12.9499  13.0465  13.1292
    13.9777  14.5791  15.2372  15.6980  15.7470  15.9165  16.4505  17.0232
    17.4137  20.0413

          k = 0.0556-0.4170 0.0000 (  4465 PWs)   bands (ev):

   -34.7360 -34.7336 -34.7117 -34.7063 -34.6723 -34.6530 -34.6114 -34.5729
   -34.5359 -34.4591 -34.4021 -34.3944 -34.3872 -34.3500 -34.3456 -34.3216
   -34.3067 -34.2817 -34.2654 -34.2385 -34.2326 -34.2243 -34.2182 -33.9513
   -33.9512 -33.8947 -33.8944   6.5679   6.6094   6.7202   6.7648   6.9032
     6.9433   7.0395   7.0996   7.2485   7.3980   7.5699   7.6869   7.8824
     8.3362   8.6313   8.9881   9.2487   9.2879   9.3748   9.4151   9.5575
     9.6236   9.7724  10.0212  10.0606  10.3052  10.5070  10.6276  10.9688
    11.0711  11.2672  11.3978  11.4931  11.7742  11.8687  11.9471  12.0159
    12.0824  12.1581  12.2522  12.3294  12.4773  12.5205  12.6623  12.7429
    12.8847  12.9834  13.1024  13.1679  13.8027  14.8977  16.1380  17.4137
    18.6533  19.7717

          k = 0.0556-0.2887 0.0000 (  4439 PWs)   bands (ev):

   -34.7038 -34.6959 -34.6394 -34.6005 -34.5699 -34.5371 -34.4953 -34.4598
   -34.4450 -34.4195 -34.3681 -34.3443 -34.3442 -34.3142 -34.2979 -34.2758
   -34.2633 -34.2499 -34.2273 -34.2060 -34.1918 -34.0917 -34.0916 -33.9103
   -33.9102 -33.9022 -33.9019   6.2893   6.4642   6.7312   7.0101   7.1252
     7.2565   7.4870   7.5564   7.7744   7.8152   8.0369   8.0732   8.2712
     8.4326   8.4862   8.6857   8.9015   8.9223   9.2173   9.4513   9.5537
     9.6073   9.6551   9.6995   9.8055   9.8464   9.9854  10.0456  10.1747
    10.3121  10.5681  10.5832  10.6439  10.7758  10.9196  10.9452  11.1169
    11.1694  11.2182  11.4298  11.5218  11.6254  11.8206  11.8537  11.9297
    12.1447  12.2662  12.5671  12.7347  12.8480  13.7666  14.8384  15.9683
    17.0217  17.8809

          k = 0.0556-0.1604 0.0000 (  4443 PWs)   bands (ev):

   -34.7631 -34.7416 -34.6551 -34.5451 -34.4500 -34.3835 -34.3572 -34.3250
   -34.3158 -34.3090 -34.2964 -34.2880 -34.2702 -34.2600 -34.2465 -34.2299
   -34.2229 -34.2109 -34.1870 -34.1773 -34.1666 -33.9444 -33.9442 -33.9105
   -33.9105 -33.8695 -33.8693   5.2351   5.5093   5.9624   6.5085   6.8593
     6.9081   6.9607   7.2230   7.2543   8.3966   8.5138   8.6462   8.7289
     8.7923   8.8298   8.8915   9.0168   9.2676   9.3339   9.5024   9.5691
     9.5938   9.6181   9.6867   9.7274   9.7564   9.7914   9.8172   9.8526
     9.9406  10.0167  10.1041  10.2262  10.3261  10.3391  10.7142  10.7806
    10.8579  10.9587  10.9662  11.1408  11.3550  11.4284  11.5369  11.7348
    11.8206  12.2078  12.2318  12.5363  12.6639  12.8046  13.5309  14.4029
    15.2162  15.7447

          k = 0.0556-0.0321 0.0000 (  4465 PWs)   bands (ev):

   -34.7972 -34.7690 -34.6714 -34.5399 -34.4168 -34.2990 -34.2846 -34.2760
   -34.2750 -34.2745 -34.2384 -34.2283 -34.2220 -34.2118 -34.2042 -34.1954
   -34.1877 -34.1675 -34.1671 -34.1606 -34.1493 -33.9202 -33.9201 -33.8593
   -33.8591 -33.8482 -33.8479   4.6284   4.9257   5.4094   5.9769   6.3625
     6.4369   6.4579   6.7244   6.7448   8.8776   8.9268   9.0790   9.1227
     9.1411   9.2013   9.2789   9.2851   9.3297   9.3439   9.3439   9.3544
     9.4337   9.4705   9.5108   9.5524   9.5814   9.5957   9.6312   9.7462
     9.8187   9.9029   9.9078   9.9550  10.6134  11.0158  11.0167  11.1558
    11.1622  11.2716  11.2934  11.3459  11.3930  11.4771  11.6238  11.7628
    11.9697  11.9726  12.0923  12.3416  12.4231  12.6019  12.7312  13.0387
    13.6744  13.9593

          k = 0.1667 0.2887 0.0000 (  4425 PWs)   bands (ev):

   -34.6833 -34.6830 -34.6397 -34.6190 -34.5958 -34.5717 -34.5358 -34.4942
   -34.4833 -34.4477 -34.3893 -34.3739 -34.3690 -34.3270 -34.3120 -34.3020
   -34.2839 -34.2635 -34.2619 -34.2515 -34.1951 -34.1231 -34.1229 -33.9432
   -33.9430 -33.8985 -33.8985   6.7802   6.8528   7.0107   7.2376   7.5025
     7.7252   7.7385   7.7614   7.8514   7.8523   7.9675   7.9824   8.0696
     8.2131   8.3240   8.4200   8.8356   8.8792   8.9305   9.0162   9.1920
     9.3250   9.3524   9.3731   9.4629   9.5281  10.0730  10.0796  10.2277
    10.3123  10.4659  10.5210  10.9164  10.9318  11.0064  11.2006  11.4081
    11.5061  11.6596  11.8064  12.0237  12.1174  12.2066  12.3571  12.3631
    12.4124  12.4752  12.5607  12.5909  13.3398  14.3169  15.3975  16.5426
    17.6403  18.5944

          k = 0.1667 0.4170 0.0000 (  4459 PWs)   bands (ev):

   -34.7214 -34.7183 -34.6948 -34.6872 -34.6588 -34.6445 -34.6130 -34.5807
   -34.5387 -34.4707 -34.4462 -34.4448 -34.4056 -34.3736 -34.3657 -34.3599
   -34.3361 -34.3280 -34.2984 -34.2765 -34.2288 -34.2171 -34.2160 -34.0053
   -34.0050 -33.8918 -33.8914   6.9418   7.0017   7.0765   7.1760   7.2631
     7.3408   7.4792   7.4866   7.5686   7.7250   7.7979   8.0394   8.1269
     8.3357   8.4425   8.6441   8.8389   8.8912   9.0440   9.1490   9.2413
     9.4598   9.5723   9.7979   9.8797   9.9977  10.0663  10.2228  10.3689
    10.4894  10.7857  11.0104  11.1092  11.1675  11.3288  11.3998  11.6862
    11.7571  12.0467  12.5172  12.6027  12.7273  12.7949  12.8507  13.0038
    14.0081  14.1393  14.2269  14.4717  15.0410  15.9377  17.0231  18.1893
    19.3488  20.4174

          k = 0.1667 0.5453 0.0000 (  4490 PWs)   bands (ev):

   -34.7783 -34.7741 -34.7388 -34.7233 -34.7108 -34.6811 -34.6691 -34.5408
   -34.5343 -34.4920 -34.4861 -34.4605 -34.4429 -34.4184 -34.3905 -34.3771
   -34.3624 -34.3378 -34.3223 -34.2865 -34.2627 -34.2617 -34.2571 -34.0388
   -34.0388 -33.8879 -33.8879   6.6295   6.8181   6.9173   7.0682   7.0975
     7.1350   7.2057   7.4037   7.4845   7.5301   7.7809   7.8803   7.9958
     8.2325   8.3238   8.5308   8.6852   8.9838   9.2492   9.3382   9.5120
     9.7225   9.8128   9.8653  10.1593  10.2283  10.3043  10.6581  10.7572
    11.0858  11.1097  11.2142  11.4824  11.7707  11.9319  12.0391  12.1441
    12.2206  12.3640  12.5089  12.5688  12.6414  12.7961  12.9138  13.0065
    15.8389  16.1463  16.5003  16.8086  17.1264  17.5238  17.9409  18.2400
    18.3968  20.3458

          k = 0.1667-0.4811 0.0000 (  4476 PWs)   bands (ev):

   -34.7580 -34.7536 -34.7226 -34.7101 -34.6935 -34.6669 -34.6502 -34.5567
   -34.5378 -34.4773 -34.4715 -34.4652 -34.4236 -34.4004 -34.3812 -34.3790
   -34.3513 -34.3376 -34.3111 -34.2845 -34.2498 -34.2467 -34.2422 -34.0271
   -34.0270 -33.8892 -33.8891   6.7407   6.9066   6.9483   7.1282   7.1584
     7.1750   7.3166   7.4466   7.5087   7.6051   7.7921   7.9424   8.0456
     8.2413   8.4046   8.6365   8.7839   8.8548   9.1982   9.2473   9.5393
     9.6187   9.7446   9.8993   9.9909  10.0390  10.2836  10.5001  10.6673
    10.8456  10.8929  11.0593  11.3793  11.5942  11.6663  11.7329  11.8434
    11.8917  12.1750  12.5464  12.6627  12.7583  12.8547  12.9660  13.1000
    14.9655  15.1644  15.3736  15.6565  16.1564  16.9045  17.8270  18.7939
    19.6345  20.5950

          k = 0.1667-0.3528 0.0000 (  4458 PWs)   bands (ev):

   -34.6861 -34.6853 -34.6593 -34.6573 -34.6222 -34.6195 -34.5888 -34.5599
   -34.5222 -34.4665 -34.4136 -34.4103 -34.3927 -34.3500 -34.3358 -34.3307
   -34.3144 -34.3038 -34.2827 -34.2648 -34.2106 -34.1750 -34.1748 -33.9758
   -33.9756 -33.8952 -33.8952   7.0335   7.1223   7.1757   7.2477   7.3657
     7.4504   7.5443   7.6245   7.6814   7.7932   7.9667   8.0933   8.1850
     8.2659   8.4126   8.5847   8.6932   8.8047   8.9762   9.1435   9.2261
     9.2669   9.3265   9.5263   9.6712   9.7298   9.9911  10.0046  10.1948
    10.4743  10.5940  10.7102  10.8872  11.0919  11.1537  11.2946  11.5747
    11.6393  11.8949  12.3112  12.3674  12.4947  12.5377  12.6068  12.7778
    13.1129  13.1877  13.2413  13.3983  14.0449  15.0333  16.1554  17.3377
    18.4886  19.5297

          k = 0.1667-0.2245 0.0000 (  4433 PWs)   bands (ev):

   -34.7077 -34.6999 -34.6395 -34.5846 -34.5457 -34.5131 -34.4735 -34.4358
   -34.4251 -34.4117 -34.3667 -34.3414 -34.3394 -34.3123 -34.2888 -34.2733
   -34.2562 -34.2470 -34.2334 -34.2199 -34.1845 -34.0671 -34.0670 -33.9131
   -33.9130 -33.9026 -33.9025   6.2407   6.4223   6.7320   7.1209   7.4194
     7.4702   7.6128   7.7247   7.8467   7.9443   8.0726   8.1539   8.1831
     8.2946   8.4231   8.5841   8.6342   8.8715   9.1322   9.1857   9.2767
     9.4013   9.4614   9.5676   9.6608   9.6965   9.8945  10.0215  10.1820
    10.4117  10.4219  10.5270  10.6294  10.7147  10.8788  10.8985  11.0298
    11.1674  11.2094  11.4676  11.5227  11.5790  11.8610  11.9001  11.9063
    12.0701  12.2204  12.4156  12.5669  12.8892  13.7512  14.7460  15.8247
    16.8442  17.6729

          k = 0.1667-0.0962 0.0000 (  4427 PWs)   bands (ev):

   -34.7534 -34.7338 -34.6508 -34.5491 -34.4662 -34.4108 -34.3807 -34.3465
   -34.3360 -34.3193 -34.3055 -34.3051 -34.2878 -34.2647 -34.2607 -34.2398
   -34.2304 -34.2205 -34.1900 -34.1800 -34.1687 -33.9697 -33.9695 -33.9096
   -33.9094 -33.8742 -33.8740   5.4154   5.6777   6.1117   6.6334   6.9636
     6.9690   7.1127   7.3482   7.3965   8.2089   8.4310   8.5615   8.6229
     8.6934   8.7465   8.8523   8.8980   9.3344   9.3785   9.4887   9.6025
     9.6197   9.6409   9.7306   9.7512   9.8410   9.8626   9.9198   9.9932
    10.0066  10.0544  10.0576  10.2305  10.3306  10.4372  10.5484  10.7142
    10.7413  10.9097  11.0083  11.1561  11.2697  11.4987  11.5186  11.7038
    12.0087  12.0926  12.3752  12.6456  12.7855  12.8489  13.7309  14.6854
    15.5498  16.1384

          k = 0.2778 0.4811 0.0000 (  4485 PWs)   bands (ev):

   -34.7214 -34.7209 -34.6918 -34.6896 -34.6555 -34.6530 -34.6152 -34.6002
   -34.5745 -34.5367 -34.5119 -34.5110 -34.4696 -34.4497 -34.4308 -34.4216
   -34.3645 -34.3446 -34.3265 -34.2973 -34.2652 -34.2259 -34.2258 -34.0978
   -34.0976 -33.8867 -33.8866   7.1664   7.1820   7.2874   7.3391   7.4231
     7.5814   7.7636   7.8653   7.9393   7.9694   8.0645   8.0801   8.1679
     8.2081   8.3536   8.4018   8.6755   8.7748   8.9151   9.0487   9.2075
     9.3660   9.5621   9.6548   9.8841   9.8913  10.1031  10.1057  10.5772
    10.6587  10.7338  10.8526  11.0861  11.1212  11.3019  11.3274  11.6400
    11.8949  12.2209  12.5082  12.6835  12.7009  12.7020  12.8406  12.9962
    16.3311  16.4546  16.7227  17.1467  17.7308  18.4822  19.3593  20.2475
    20.7050  20.7892

          k = 0.2778 0.6094 0.0000 (  4491 PWs)   bands (ev):

   -34.7142 -34.7102 -34.6804 -34.6759 -34.6513 -34.6433 -34.6319 -34.6061
   -34.5834 -34.5616 -34.5379 -34.5294 -34.5080 -34.4769 -34.4452 -34.4347
   -34.3539 -34.3446 -34.3244 -34.3017 -34.2847 -34.2182 -34.2179 -34.1296
   -34.1294 -33.8854 -33.8852   7.1329   7.2941   7.3920   7.5139   7.5396
     7.6376   7.7294   7.8477   7.8941   7.9328   7.9950   8.0702   8.1807
     8.2233   8.3192   8.4624   8.5479   8.9001   8.9413   9.1727   9.2595
     9.3757   9.4498   9.6442   9.8107   9.8594  10.1533  10.1633  10.5484
    10.6626  10.8356  10.9588  11.0521  11.1726  11.3307  11.3801  11.9590
    12.1092  12.2917  12.3786  12.4934  12.5421  12.5920  12.6480  12.7733
    17.5309  17.7070  18.0119  18.3891  18.7331  19.0381  19.4022  19.8091
    20.2277  20.3460

          k = 0.2778-0.4170 0.0000 (  4462 PWs)   bands (ev):

   -34.7276 -34.7248 -34.6990 -34.6883 -34.6665 -34.6495 -34.6265 -34.5815
   -34.5505 -34.4955 -34.4843 -34.4827 -34.4355 -34.4087 -34.4007 -34.3845
   -34.3652 -34.3435 -34.3230 -34.2861 -34.2447 -34.2269 -34.2268 -34.0526
   -34.0523 -33.8887 -33.8884   7.0215   7.1505   7.1717   7.2970   7.3595
     7.4789   7.5829   7.6749   7.7445   7.8670   8.0793   8.0908   8.1799
     8.3064   8.5216   8.5224   8.5763   8.7292   8.9393   9.0071   9.2446
     9.3786   9.5393   9.7611   9.9101   9.9417  10.1228  10.1559  10.3318
    10.5121  10.7658  10.9088  11.0750  11.1841  11.3197  11.3720  11.5416
    11.7104  12.1325  12.5472  12.7559  12.7883  12.8518  12.9443  13.1018
    15.1640  15.2447  15.4234  15.7730  16.3470  17.1615  18.1512  19.2208
    20.2745  21.1704

          k = 0.2778-0.2887 0.0000 (  4463 PWs)   bands (ev):

   -34.7041 -34.7033 -34.6831 -34.6805 -34.6410 -34.6292 -34.5885 -34.5751
   -34.5300 -34.4612 -34.4087 -34.4039 -34.3890 -34.3496 -34.3377 -34.3288
   -34.3174 -34.2853 -34.2698 -34.2559 -34.2167 -34.1963 -34.1956 -33.9634
   -33.9633 -33.8949 -33.8947   6.7795   6.9102   6.9618   7.0035   7.1537
     7.1874   7.2524   7.3543   7.4636   7.6098   7.7673   7.9869   8.0282
     8.3359   8.5224   8.8392   8.9092   9.1403   9.1902   9.3039   9.3863
     9.5127   9.6381   9.7256   9.8324  10.0615  10.1601  10.3401  10.5195
    10.5316  10.7483  10.9810  11.1717  11.2477  11.2825  11.4617  11.7678
    11.7906  12.0750  12.2386  12.3679  12.4359  12.5398  12.6329  12.8056
    12.9540  13.1457  13.1746  13.3119  13.9493  14.9677  16.1345  17.3570
    18.5443  19.6047

          k = 0.2778-0.1604 0.0000 (  4458 PWs)   bands (ev):

   -34.6991 -34.6897 -34.6417 -34.6290 -34.6027 -34.5741 -34.5305 -34.4919
   -34.4811 -34.4356 -34.3775 -34.3527 -34.3521 -34.3233 -34.3092 -34.2831
   -34.2678 -34.2596 -34.2261 -34.2077 -34.2016 -34.1285 -34.1282 -33.9148
   -33.9147 -33.9008 -33.9007   6.3961   6.5692   6.7825   6.9028   6.9595
     7.1341   7.3416   7.3948   7.5579   7.7079   7.8624   7.9508   8.1820
     8.4903   8.7212   8.8505   9.0359   9.1881   9.3388   9.4833   9.5631
     9.6204   9.6649   9.7703   9.9001  10.0622  10.1554  10.3312  10.4367
    10.4487  10.6129  10.6892  10.8651  11.0577  11.1207  11.2260  11.2538
    11.3045  11.4135  11.4411  11.6006  11.7244  11.8401  11.9564  11.9602
    12.0944  12.4101  12.6960  12.8464  12.8561  13.9163  15.0771  16.2660
    17.3725  18.2912

          k = 0.3889 0.6736 0.0000 (  4511 PWs)   bands (ev):

   -34.7500 -34.7456 -34.7095 -34.6976 -34.6820 -34.6605 -34.6474 -34.5649
   -34.5609 -34.5228 -34.5216 -34.4974 -34.4844 -34.4520 -34.4278 -34.4037
   -34.3549 -34.3532 -34.3293 -34.2928 -34.2732 -34.2435 -34.2435 -34.0881
   -34.0880 -33.8865 -33.8863   6.8557   7.0386   7.2438   7.3519   7.3663
     7.4464   7.5503   7.6160   7.7080   7.7815   7.9700   7.9990   8.1722
     8.3109   8.3539   8.4127   8.5066   8.7395   9.0189   9.1874   9.4456
     9.5877   9.6885   9.8333   9.8941  10.1382  10.2396  10.3688  10.6004
    10.6497  10.7024  11.0234  11.2754  11.4697  11.6195  11.7196  12.1379
    12.1962  12.2777  12.3704  12.5223  12.5306  12.7103  12.7883  12.8192
    17.0499  17.2577  17.5065  17.7409  17.9807  18.2562  18.5855  18.9012
    19.1533  20.4840

          k = 0.3889-0.3528 0.0000 (  4485 PWs)   bands (ev):

   -34.7917 -34.7869 -34.7533 -34.7386 -34.7239 -34.6939 -34.6779 -34.5417
   -34.5334 -34.4556 -34.4483 -34.4361 -34.4056 -34.3823 -34.3786 -34.3612
   -34.3491 -34.3106 -34.3013 -34.2790 -34.2681 -34.2635 -34.2449 -33.9960
   -33.9959 -33.8901 -33.8900   6.4694   6.6433   6.6544   6.8116   6.8527
     6.9224   6.9730   7.1756   7.2669   7.2817   7.5818   7.6365   7.7982
     8.2089   8.4752   8.7447   8.9344   9.2116   9.3253   9.4626   9.5106
     9.6444   9.8755  10.0838  10.2063  10.4636  10.6686  10.7929  11.0524
    11.2763  11.5495  11.5932  11.7040  11.9964  12.1832  12.2313  12.2680
    12.2964  12.3836  12.5788  12.6407  12.7413  12.8359  12.9803  13.1037
    14.5663  14.9353  15.3209  15.5622  15.8489  16.4263  17.2048  17.9720
    18.5301  20.2825

          k = 0.3889-0.2245 0.0000 (  4444 PWs)   bands (ev):

   -34.7672 -34.7629 -34.7345 -34.7291 -34.6997 -34.6790 -34.6432 -34.5608
   -34.5376 -34.4555 -34.3990 -34.3933 -34.3924 -34.3581 -34.3503 -34.3203
   -34.3053 -34.2935 -34.2578 -34.2573 -34.2485 -34.2330 -34.2315 -33.9502
   -33.9499 -33.8937 -33.8931   6.4279   6.4676   6.5566   6.6641   6.7552
     6.7948   6.9130   6.9768   7.1069   7.2655   7.4351   7.5000   7.7940
     8.3052   8.6618   9.0121   9.1997   9.2728   9.3699   9.5460   9.5635
     9.7298   9.8944  10.1543  10.3312  10.3993  10.8198  10.9379  11.1241
    11.4737  11.6091  11.9354  11.9551  12.1833  12.2281  12.2945  12.3214
    12.3845  12.4087  12.4896  12.5251  12.5980  12.6596  12.7539  12.8629
    12.8852  12.9640  13.2521  13.2903  13.8463  14.9865  16.2542  17.5344
    18.7752  20.0228

          k =-0.5000-0.8660 0.0000 (  4492 PWs)   bands (ev):

   -34.8238 -34.8199 -34.7862 -34.7660 -34.7573 -34.7196 -34.7095 -34.5389
   -34.5367 -34.4182 -34.4103 -34.4088 -34.4000 -34.3947 -34.3669 -34.3348
   -34.3323 -34.3069 -34.2982 -34.2869 -34.2708 -34.2496 -34.2434 -33.9642
   -33.9642 -33.8914 -33.8912   6.1941   6.3607   6.3759   6.5466   6.5741
     6.6274   6.7257   6.8873   6.9335   7.0776   7.2828   7.3000   7.6412
     8.1985   8.6167   8.8766   9.0624   9.1442   9.2613   9.4462   9.8144
     9.9067   9.9513  10.3515  10.5810  10.6242  10.9370  11.4484  11.4766
    11.5453  12.1145  12.3202  12.3584  12.4953  12.6752  12.7638  12.7678
    12.8094  12.8647  12.9176  12.9403  12.9894  13.0876  13.2342  13.2393
    13.4664  14.3478  15.1716  15.6666  15.8463  16.1061  16.2911  16.4357
    16.4945  19.9519

 ------ SPIN DOWN ----------


          k = 0.0556 0.0962 0.0000 (  4451 PWs)   bands (ev):

   -34.7853 -34.7594 -34.6651 -34.5403 -34.4249 -34.3280 -34.3109 -34.2890
   -34.2845 -34.2838 -34.2628 -34.2520 -34.2316 -34.2311 -34.2217 -34.2115
   -34.1952 -34.1925 -34.1702 -34.1693 -34.1567 -33.9186 -33.9182 -33.8871
   -33.8869 -33.8554 -33.8554   4.8383   5.1295   5.6058   6.1695   6.5433
     6.6148   6.6311   6.9059   6.9296   8.7054   8.7463   8.9012   8.9799
     9.0038   9.0720   9.1583   9.2515   9.3497   9.4291   9.4457   9.4832
     9.4891   9.5327   9.5493   9.5845   9.6238   9.6747   9.7299   9.7844
     9.7931   9.8483  10.0421  10.0539  10.2524  10.8182  10.8822  10.8860
    11.0492  11.0898  11.2476  11.3086  11.3822  11.4514  11.5551  11.6356
    11.8082  11.9450  12.2425  12.3677  12.5621  12.6803  12.9334  13.6454
    14.3466  14.7305

          k = 0.0556 0.2245 0.0000 (  4420 PWs)   bands (ev):

   -34.7330 -34.7185 -34.6442 -34.5609 -34.4993 -34.4564 -34.4197 -34.3879
   -34.3698 -34.3640 -34.3302 -34.3177 -34.3158 -34.2912 -34.2707 -34.2521
   -34.2417 -34.2319 -34.2070 -34.1900 -34.1777 -34.0134 -34.0131 -33.9069
   -33.9067 -33.8884 -33.8882   5.7620   5.9969   6.3885   6.8626   7.1418
     7.1812   7.3503   7.5637   7.6414   8.0230   8.2434   8.3936   8.4112
     8.5180   8.5857   8.7095   8.7645   9.1339   9.3172   9.4041   9.4930
     9.5710   9.6686   9.6916   9.7179   9.8097   9.8404   9.9922  10.1173
    10.1615  10.2298  10.3715  10.4482  10.5330  10.5685  10.6269  10.7250
    10.8375  10.9237  11.0533  11.1466  11.4560  11.5675  11.6019  11.7784
    12.0116  12.1866  12.5269  12.5448  12.6999  13.2618  14.1790  15.1903
    16.1261  16.8219

          k = 0.0556 0.3528 0.0000 (  4467 PWs)   bands (ev):

   -34.6974 -34.6888 -34.6612 -34.6600 -34.6188 -34.6121 -34.5688 -34.5328
   -34.5125 -34.4514 -34.3885 -34.3715 -34.3695 -34.3312 -34.3254 -34.3008
   -34.2860 -34.2661 -34.2474 -34.2232 -34.2090 -34.1658 -34.1655 -33.9323
   -33.9321 -33.8983 -33.8982   6.5644   6.7441   6.8762   6.9248   6.9545
     7.1217   7.2033   7.3448   7.4332   7.6498   7.7538   7.9343   8.0625
     8.4310   8.7031   8.8568   9.0555   9.1936   9.3503   9.4626   9.5396
     9.5596   9.5863   9.7770   9.8524  10.1220  10.1763  10.4095  10.5505
    10.5917  10.7143  10.8788  11.0896  11.2642  11.3548  11.4167  11.5099
    11.6953  11.7427  11.7943  11.9534  12.0964  12.1599  12.2922  12.3374
    12.3945  12.4289  12.6250  12.7929  13.2362  14.3092  15.4990  16.7237
    17.8830  18.8784

          k = 0.0556 0.4811 0.0000 (  4463 PWs)   bands (ev):

   -34.7874 -34.7829 -34.7509 -34.7409 -34.7186 -34.6939 -34.6678 -34.5502
   -34.5365 -34.4505 -34.4151 -34.4103 -34.3939 -34.3694 -34.3603 -34.3364
   -34.3250 -34.2954 -34.2821 -34.2670 -34.2618 -34.2475 -34.2366 -33.9651
   -33.9650 -33.8921 -33.8918   6.3900   6.4970   6.5386   6.6885   6.7236
     6.7926   6.8779   7.0151   7.1076   7.2169   7.4441   7.4874   7.7516
     8.2481   8.5931   8.9198   9.1050   9.2643   9.3206   9.5214   9.5510
     9.7358   9.9174  10.2384  10.2870  10.4606  10.8868  10.9756  11.1057
    11.5380  11.6212  11.9072  11.9748  12.0909  12.3181  12.3892  12.4339
    12.4653  12.5100  12.5483  12.6250  12.6735  12.8024  12.8972  13.0254
    13.3766  13.7972  14.1868  14.3179  14.6252  15.4824  16.5929  17.7308
    18.7595  20.2440

          k = 0.0556-0.5453 0.0000 (  4486 PWs)   bands (ev):

   -34.8159 -34.8107 -34.7771 -34.7590 -34.7474 -34.7137 -34.7005 -34.5388
   -34.5352 -34.4325 -34.4228 -34.4155 -34.3968 -34.3879 -34.3708 -34.3431
   -34.3376 -34.3033 -34.2975 -34.2846 -34.2753 -34.2512 -34.2469 -33.9728
   -33.9725 -33.8909 -33.8907   6.2690   6.4374   6.4470   6.6103   6.6485
     6.7084   6.7830   6.9644   7.0220   7.1277   7.3670   7.3864   7.6778
     8.2071   8.5786   8.8395   9.0352   9.1945   9.2766   9.4739   9.7000
     9.8063   9.9093  10.4157  10.4425  10.4617  11.0342  11.1723  11.2646
    11.6682  11.8867  12.1305  12.2186  12.3598  12.4448  12.5804  12.6486
    12.6917  12.7351  12.7773  12.8219  12.8529  12.9499  13.0465  13.1292
    13.9777  14.5791  15.2372  15.6980  15.7470  15.9165  16.4505  17.0232
    17.4137  20.0407

          k = 0.0556-0.4170 0.0000 (  4465 PWs)   bands (ev):

   -34.7360 -34.7336 -34.7117 -34.7063 -34.6723 -34.6530 -34.6114 -34.5729
   -34.5359 -34.4591 -34.4021 -34.3944 -34.3872 -34.3500 -34.3456 -34.3216
   -34.3067 -34.2817 -34.2654 -34.2385 -34.2326 -34.2243 -34.2182 -33.9513
   -33.9512 -33.8947 -33.8944   6.5679   6.6094   6.7202   6.7648   6.9032
     6.9433   7.0395   7.0996   7.2485   7.3980   7.5699   7.6869   7.8824
     8.3362   8.6313   8.9881   9.2487   9.2879   9.3748   9.4151   9.5575
     9.6236   9.7724  10.0212  10.0606  10.3052  10.5070  10.6276  10.9688
    11.0711  11.2672  11.3978  11.4931  11.7742  11.8687  11.9471  12.0159
    12.0824  12.1581  12.2522  12.3294  12.4773  12.5205  12.6623  12.7429
    12.8847  12.9834  13.1024  13.1679  13.8027  14.8977  16.1380  17.4137
    18.6533  19.7717

          k = 0.0556-0.2887 0.0000 (  4439 PWs)   bands (ev):

   -34.7038 -34.6959 -34.6394 -34.6005 -34.5699 -34.5371 -34.4953 -34.4598
   -34.4450 -34.4195 -34.3681 -34.3443 -34.3442 -34.3142 -34.2979 -34.2758
   -34.2633 -34.2499 -34.2273 -34.2060 -34.1918 -34.0917 -34.0916 -33.9103
   -33.9102 -33.9022 -33.9019   6.2893   6.4642   6.7312   7.0101   7.1252
     7.2565   7.4870   7.5564   7.7744   7.8152   8.0369   8.0732   8.2712
     8.4326   8.4862   8.6857   8.9015   8.9223   9.2173   9.4513   9.5537
     9.6073   9.6551   9.6995   9.8055   9.8464   9.9854  10.0456  10.1747
    10.3121  10.5681  10.5832  10.6439  10.7758  10.9196  10.9452  11.1169
    11.1694  11.2182  11.4298  11.5218  11.6254  11.8206  11.8537  11.9297
    12.1447  12.2662  12.5671  12.7347  12.8480  13.7666  14.8384  15.9683
    17.0217  17.8809

          k = 0.0556-0.1604 0.0000 (  4443 PWs)   bands (ev):

   -34.7631 -34.7416 -34.6551 -34.5451 -34.4500 -34.3835 -34.3572 -34.3250
   -34.3158 -34.3090 -34.2964 -34.2880 -34.2702 -34.2600 -34.2465 -34.2299
   -34.2229 -34.2109 -34.1870 -34.1773 -34.1666 -33.9444 -33.9442 -33.9105
   -33.9105 -33.8695 -33.8693   5.2351   5.5093   5.9624   6.5085   6.8593
     6.9081   6.9607   7.2230   7.2543   8.3966   8.5138   8.6462   8.7289
     8.7923   8.8298   8.8915   9.0168   9.2676   9.3339   9.5024   9.5691
     9.5938   9.6181   9.6867   9.7274   9.7564   9.7914   9.8172   9.8526
     9.9406  10.0167  10.1041  10.2262  10.3261  10.3391  10.7142  10.7806
    10.8579  10.9587  10.9662  11.1408  11.3550  11.4284  11.5369  11.7348
    11.8206  12.2078  12.2318  12.5363  12.6639  12.8046  13.5309  14.4029
    15.2162  15.7447

          k = 0.0556-0.0321 0.0000 (  4465 PWs)   bands (ev):

   -34.7972 -34.7690 -34.6714 -34.5399 -34.4168 -34.2990 -34.2846 -34.2760
   -34.2750 -34.2745 -34.2384 -34.2283 -34.2220 -34.2118 -34.2042 -34.1954
   -34.1877 -34.1675 -34.1671 -34.1606 -34.1493 -33.9202 -33.9201 -33.8593
   -33.8591 -33.8482 -33.8479   4.6284   4.9257   5.4094   5.9769   6.3625
     6.4369   6.4579   6.7244   6.7448   8.8776   8.9268   9.0790   9.1227
     9.1411   9.2013   9.2789   9.2851   9.3297   9.3439   9.3439   9.3544
     9.4337   9.4705   9.5108   9.5524   9.5814   9.5957   9.6312   9.7462
     9.8187   9.9029   9.9078   9.9550  10.6134  11.0158  11.0167  11.1558
    11.1622  11.2716  11.2934  11.3459  11.3930  11.4771  11.6238  11.7628
    11.9697  11.9726  12.0923  12.3416  12.4231  12.6019  12.7312  13.0387
    13.6744  13.9593

          k = 0.1667 0.2887 0.0000 (  4425 PWs)   bands (ev):

   -34.6833 -34.6830 -34.6397 -34.6190 -34.5958 -34.5717 -34.5358 -34.4942
   -34.4833 -34.4477 -34.3893 -34.3739 -34.3690 -34.3270 -34.3120 -34.3020
   -34.2839 -34.2635 -34.2619 -34.2515 -34.1951 -34.1231 -34.1229 -33.9432
   -33.9430 -33.8985 -33.8985   6.7802   6.8528   7.0107   7.2376   7.5025
     7.7252   7.7385   7.7614   7.8514   7.8523   7.9675   7.9824   8.0696
     8.2131   8.3240   8.4200   8.8356   8.8792   8.9305   9.0162   9.1920
     9.3250   9.3524   9.3731   9.4629   9.5281  10.0730  10.0796  10.2277
    10.3123  10.4659  10.5210  10.9164  10.9318  11.0064  11.2006  11.4081
    11.5061  11.6596  11.8064  12.0237  12.1174  12.2066  12.3571  12.3631
    12.4124  12.4752  12.5607  12.5909  13.3398  14.3169  15.3975  16.5426
    17.6403  18.5944

          k = 0.1667 0.4170 0.0000 (  4459 PWs)   bands (ev):

   -34.7214 -34.7183 -34.6948 -34.6872 -34.6588 -34.6445 -34.6130 -34.5807
   -34.5387 -34.4707 -34.4462 -34.4448 -34.4056 -34.3736 -34.3657 -34.3599
   -34.3361 -34.3280 -34.2984 -34.2765 -34.2288 -34.2171 -34.2160 -34.0053
   -34.0050 -33.8918 -33.8914   6.9418   7.0017   7.0765   7.1760   7.2631
     7.3408   7.4792   7.4866   7.5686   7.7250   7.7979   8.0394   8.1269
     8.3357   8.4425   8.6441   8.8389   8.8912   9.0440   9.1490   9.2413
     9.4598   9.5723   9.7979   9.8797   9.9977  10.0663  10.2228  10.3689
    10.4894  10.7857  11.0104  11.1092  11.1675  11.3288  11.3998  11.6862
    11.7571  12.0467  12.5172  12.6027  12.7273  12.7949  12.8507  13.0038
    14.0081  14.1393  14.2269  14.4717  15.0410  15.9377  17.0231  18.1893
    19.3488  20.4174

          k = 0.1667 0.5453 0.0000 (  4490 PWs)   bands (ev):

   -34.7783 -34.7741 -34.7388 -34.7233 -34.7108 -34.6811 -34.6691 -34.5408
   -34.5343 -34.4920 -34.4861 -34.4605 -34.4429 -34.4184 -34.3905 -34.3771
   -34.3624 -34.3378 -34.3223 -34.2865 -34.2627 -34.2617 -34.2571 -34.0388
   -34.0388 -33.8879 -33.8879   6.6295   6.8181   6.9173   7.0682   7.0975
     7.1350   7.2057   7.4037   7.4845   7.5301   7.7809   7.8803   7.9958
     8.2325   8.3238   8.5308   8.6852   8.9838   9.2492   9.3382   9.5120
     9.7225   9.8128   9.8653  10.1593  10.2283  10.3043  10.6581  10.7572
    11.0858  11.1097  11.2142  11.4824  11.7707  11.9319  12.0391  12.1441
    12.2206  12.3640  12.5089  12.5688  12.6414  12.7961  12.9138  13.0065
    15.8389  16.1463  16.5003  16.8086  17.1264  17.5238  17.9409  18.2400
    18.3968  20.3382

          k = 0.1667-0.4811 0.0000 (  4476 PWs)   bands (ev):

   -34.7580 -34.7536 -34.7226 -34.7101 -34.6935 -34.6669 -34.6502 -34.5567
   -34.5378 -34.4773 -34.4715 -34.4652 -34.4236 -34.4004 -34.3812 -34.3790
   -34.3513 -34.3376 -34.3111 -34.2845 -34.2498 -34.2467 -34.2422 -34.0271
   -34.0270 -33.8892 -33.8891   6.7407   6.9066   6.9483   7.1282   7.1584
     7.1750   7.3166   7.4466   7.5087   7.6051   7.7921   7.9424   8.0456
     8.2413   8.4046   8.6365   8.7839   8.8548   9.1982   9.2473   9.5393
     9.6187   9.7446   9.8993   9.9909  10.0390  10.2836  10.5001  10.6673
    10.8456  10.8929  11.0593  11.3793  11.5942  11.6663  11.7329  11.8434
    11.8917  12.1750  12.5464  12.6627  12.7583  12.8547  12.9660  13.1000
    14.9655  15.1644  15.3736  15.6565  16.1564  16.9045  17.8270  18.7939
    19.6345  20.5947

          k = 0.1667-0.3528 0.0000 (  4458 PWs)   bands (ev):

   -34.6861 -34.6853 -34.6593 -34.6573 -34.6222 -34.6195 -34.5888 -34.5599
   -34.5222 -34.4665 -34.4136 -34.4103 -34.3927 -34.3500 -34.3358 -34.3307
   -34.3144 -34.3038 -34.2827 -34.2648 -34.2106 -34.1750 -34.1748 -33.9758
   -33.9756 -33.8952 -33.8952   7.0335   7.1223   7.1757   7.2477   7.3657
     7.4504   7.5443   7.6245   7.6814   7.7932   7.9667   8.0933   8.1850
     8.2659   8.4126   8.5847   8.6932   8.8047   8.9762   9.1435   9.2261
     9.2669   9.3265   9.5263   9.6712   9.7298   9.9911  10.0046  10.1948
    10.4743  10.5940  10.7102  10.8872  11.0919  11.1537  11.2946  11.5747
    11.6393  11.8949  12.3112  12.3674  12.4947  12.5377  12.6068  12.7778
    13.1129  13.1877  13.2413  13.3983  14.0449  15.0333  16.1554  17.3377
    18.4886  19.5297

          k = 0.1667-0.2245 0.0000 (  4433 PWs)   bands (ev):

   -34.7077 -34.6999 -34.6395 -34.5846 -34.5457 -34.5131 -34.4735 -34.4358
   -34.4251 -34.4117 -34.3667 -34.3414 -34.3394 -34.3123 -34.2888 -34.2733
   -34.2562 -34.2470 -34.2334 -34.2199 -34.1845 -34.0671 -34.0670 -33.9131
   -33.9130 -33.9026 -33.9025   6.2407   6.4223   6.7320   7.1209   7.4194
     7.4702   7.6128   7.7247   7.8467   7.9443   8.0726   8.1539   8.1831
     8.2946   8.4231   8.5841   8.6342   8.8715   9.1322   9.1857   9.2767
     9.4013   9.4614   9.5676   9.6608   9.6965   9.8945  10.0215  10.1820
    10.4117  10.4219  10.5270  10.6294  10.7147  10.8788  10.8985  11.0298
    11.1674  11.2094  11.4676  11.5227  11.5790  11.8610  11.9001  11.9063
    12.0701  12.2204  12.4156  12.5669  12.8892  13.7512  14.7460  15.8247
    16.8442  17.6729

          k = 0.1667-0.0962 0.0000 (  4427 PWs)   bands (ev):

   -34.7534 -34.7338 -34.6508 -34.5491 -34.4662 -34.4108 -34.3807 -34.3465
   -34.3360 -34.3193 -34.3055 -34.3051 -34.2878 -34.2647 -34.2607 -34.2398
   -34.2304 -34.2205 -34.1900 -34.1800 -34.1687 -33.9697 -33.9695 -33.9096
   -33.9094 -33.8742 -33.8740   5.4154   5.6777   6.1117   6.6334   6.9636
     6.9690   7.1127   7.3482   7.3965   8.2089   8.4310   8.5615   8.6229
     8.6934   8.7465   8.8523   8.8980   9.3344   9.3785   9.4887   9.6025
     9.6197   9.6409   9.7306   9.7512   9.8410   9.8626   9.9198   9.9932
    10.0066  10.0544  10.0576  10.2305  10.3306  10.4372  10.5484  10.7142
    10.7413  10.9097  11.0083  11.1561  11.2697  11.4987  11.5186  11.7038
    12.0087  12.0926  12.3752  12.6456  12.7855  12.8489  13.7309  14.6854
    15.5498  16.1384

          k = 0.2778 0.4811 0.0000 (  4485 PWs)   bands (ev):

   -34.7214 -34.7209 -34.6918 -34.6896 -34.6555 -34.6530 -34.6152 -34.6002
   -34.5745 -34.5367 -34.5119 -34.5110 -34.4696 -34.4497 -34.4308 -34.4216
   -34.3645 -34.3446 -34.3265 -34.2973 -34.2652 -34.2259 -34.2258 -34.0978
   -34.0976 -33.8867 -33.8866   7.1664   7.1820   7.2874   7.3391   7.4231
     7.5814   7.7636   7.8653   7.9393   7.9694   8.0645   8.0801   8.1679
     8.2081   8.3536   8.4018   8.6755   8.7748   8.9151   9.0487   9.2075
     9.3660   9.5621   9.6548   9.8841   9.8913  10.1031  10.1057  10.5772
    10.6587  10.7338  10.8526  11.0861  11.1212  11.3019  11.3274  11.6400
    11.8949  12.2209  12.5082  12.6835  12.7009  12.7020  12.8406  12.9962
    16.3311  16.4546  16.7227  17.1467  17.7308  18.4822  19.3593  20.2475
    20.7050  20.7890

          k = 0.2778 0.6094 0.0000 (  4491 PWs)   bands (ev):

   -34.7142 -34.7102 -34.6804 -34.6759 -34.6513 -34.6433 -34.6319 -34.6061
   -34.5834 -34.5616 -34.5379 -34.5294 -34.5080 -34.4769 -34.4452 -34.4347
   -34.3539 -34.3446 -34.3244 -34.3017 -34.2847 -34.2182 -34.2179 -34.1296
   -34.1294 -33.8854 -33.8852   7.1329   7.2941   7.3920   7.5139   7.5396
     7.6376   7.7294   7.8477   7.8941   7.9328   7.9950   8.0702   8.1807
     8.2233   8.3192   8.4624   8.5479   8.9001   8.9413   9.1727   9.2595
     9.3757   9.4498   9.6442   9.8107   9.8594  10.1533  10.1633  10.5484
    10.6626  10.8356  10.9588  11.0521  11.1726  11.3307  11.3801  11.9590
    12.1092  12.2917  12.3786  12.4934  12.5421  12.5920  12.6480  12.7733
    17.5309  17.7070  18.0119  18.3891  18.7331  19.0381  19.4022  19.8091
    20.2277  20.3460

          k = 0.2778-0.4170 0.0000 (  4462 PWs)   bands (ev):

   -34.7276 -34.7248 -34.6990 -34.6883 -34.6665 -34.6495 -34.6265 -34.5815
   -34.5505 -34.4955 -34.4843 -34.4827 -34.4355 -34.4087 -34.4007 -34.3845
   -34.3652 -34.3435 -34.3230 -34.2861 -34.2447 -34.2269 -34.2268 -34.0526
   -34.0523 -33.8887 -33.8884   7.0215   7.1505   7.1717   7.2970   7.3595
     7.4789   7.5829   7.6749   7.7445   7.8670   8.0793   8.0908   8.1799
     8.3064   8.5216   8.5224   8.5763   8.7292   8.9393   9.0071   9.2446
     9.3786   9.5393   9.7611   9.9101   9.9417  10.1228  10.1559  10.3318
    10.5121  10.7658  10.9088  11.0750  11.1841  11.3197  11.3720  11.5416
    11.7104  12.1325  12.5472  12.7559  12.7883  12.8518  12.9443  13.1018
    15.1640  15.2447  15.4234  15.7730  16.3470  17.1615  18.1512  19.2208
    20.2745  21.1703

          k = 0.2778-0.2887 0.0000 (  4463 PWs)   bands (ev):

   -34.7041 -34.7033 -34.6831 -34.6805 -34.6410 -34.6292 -34.5885 -34.5751
   -34.5300 -34.4612 -34.4087 -34.4039 -34.3890 -34.3496 -34.3377 -34.3288
   -34.3174 -34.2853 -34.2698 -34.2559 -34.2167 -34.1963 -34.1956 -33.9634
   -33.9633 -33.8949 -33.8947   6.7795   6.9102   6.9618   7.0035   7.1537
     7.1874   7.2524   7.3543   7.4636   7.6098   7.7673   7.9869   8.0282
     8.3359   8.5224   8.8392   8.9092   9.1403   9.1902   9.3039   9.3863
     9.5127   9.6381   9.7256   9.8324  10.0615  10.1601  10.3401  10.5195
    10.5316  10.7483  10.9810  11.1717  11.2477  11.2825  11.4617  11.7678
    11.7906  12.0750  12.2386  12.3679  12.4359  12.5398  12.6329  12.8056
    12.9540  13.1457  13.1746  13.3119  13.9493  14.9677  16.1345  17.3570
    18.5443  19.6047

          k = 0.2778-0.1604 0.0000 (  4458 PWs)   bands (ev):

   -34.6991 -34.6897 -34.6417 -34.6290 -34.6027 -34.5741 -34.5305 -34.4919
   -34.4811 -34.4356 -34.3775 -34.3527 -34.3521 -34.3233 -34.3092 -34.2831
   -34.2678 -34.2596 -34.2261 -34.2077 -34.2016 -34.1285 -34.1282 -33.9148
   -33.9147 -33.9008 -33.9007   6.3961   6.5692   6.7825   6.9028   6.9595
     7.1341   7.3416   7.3948   7.5579   7.7079   7.8624   7.9508   8.1820
     8.4903   8.7212   8.8505   9.0359   9.1881   9.3388   9.4833   9.5631
     9.6204   9.6649   9.7703   9.9001  10.0622  10.1554  10.3312  10.4367
    10.4487  10.6129  10.6892  10.8651  11.0577  11.1207  11.2260  11.2538
    11.3045  11.4135  11.4411  11.6006  11.7244  11.8401  11.9564  11.9602
    12.0944  12.4101  12.6960  12.8464  12.8561  13.9163  15.0771  16.2660
    17.3725  18.2912

          k = 0.3889 0.6736 0.0000 (  4511 PWs)   bands (ev):

   -34.7500 -34.7456 -34.7095 -34.6976 -34.6820 -34.6605 -34.6474 -34.5649
   -34.5609 -34.5228 -34.5216 -34.4974 -34.4844 -34.4520 -34.4278 -34.4037
   -34.3549 -34.3532 -34.3293 -34.2928 -34.2732 -34.2435 -34.2435 -34.0881
   -34.0880 -33.8865 -33.8863   6.8557   7.0386   7.2438   7.3519   7.3663
     7.4464   7.5503   7.6160   7.7080   7.7815   7.9700   7.9990   8.1722
     8.3109   8.3539   8.4127   8.5066   8.7395   9.0189   9.1874   9.4456
     9.5877   9.6885   9.8333   9.8941  10.1382  10.2396  10.3688  10.6004
    10.6497  10.7024  11.0234  11.2754  11.4697  11.6195  11.7196  12.1379
    12.1962  12.2777  12.3704  12.5223  12.5306  12.7103  12.7883  12.8192
    17.0499  17.2577  17.5065  17.7409  17.9807  18.2562  18.5855  18.9012
    19.1533  20.4837

          k = 0.3889-0.3528 0.0000 (  4485 PWs)   bands (ev):

   -34.7917 -34.7869 -34.7533 -34.7386 -34.7239 -34.6939 -34.6779 -34.5417
   -34.5334 -34.4556 -34.4483 -34.4361 -34.4056 -34.3823 -34.3786 -34.3612
   -34.3491 -34.3106 -34.3013 -34.2790 -34.2681 -34.2635 -34.2449 -33.9960
   -33.9959 -33.8901 -33.8900   6.4694   6.6433   6.6544   6.8116   6.8527
     6.9224   6.9730   7.1756   7.2669   7.2817   7.5818   7.6365   7.7982
     8.2089   8.4752   8.7447   8.9344   9.2116   9.3253   9.4626   9.5106
     9.6444   9.8755  10.0838  10.2063  10.4636  10.6686  10.7929  11.0524
    11.2763  11.5495  11.5932  11.7040  11.9964  12.1832  12.2313  12.2680
    12.2964  12.3836  12.5788  12.6407  12.7413  12.8359  12.9803  13.1037
    14.5663  14.9353  15.3209  15.5622  15.8489  16.4263  17.2048  17.9720
    18.5301  20.2825

          k = 0.3889-0.2245 0.0000 (  4444 PWs)   bands (ev):

   -34.7672 -34.7629 -34.7345 -34.7291 -34.6997 -34.6790 -34.6432 -34.5608
   -34.5376 -34.4555 -34.3990 -34.3933 -34.3924 -34.3581 -34.3503 -34.3203
   -34.3053 -34.2935 -34.2578 -34.2573 -34.2485 -34.2330 -34.2315 -33.9502
   -33.9499 -33.8937 -33.8931   6.4279   6.4676   6.5566   6.6641   6.7552
     6.7948   6.9130   6.9768   7.1069   7.2655   7.4351   7.5000   7.7940
     8.3052   8.6618   9.0121   9.1997   9.2728   9.3699   9.5460   9.5635
     9.7298   9.8944  10.1543  10.3312  10.3993  10.8198  10.9379  11.1241
    11.4737  11.6091  11.9354  11.9551  12.1833  12.2281  12.2945  12.3214
    12.3845  12.4087  12.4896  12.5251  12.5980  12.6596  12.7539  12.8629
    12.8852  12.9640  13.2521  13.2903  13.8463  14.9865  16.2542  17.5344
    18.7752  20.0228

          k =-0.5000-0.8660 0.0000 (  4492 PWs)   bands (ev):

   -34.8238 -34.8199 -34.7862 -34.7660 -34.7573 -34.7196 -34.7095 -34.5389
   -34.5367 -34.4182 -34.4103 -34.4088 -34.4000 -34.3947 -34.3669 -34.3348
   -34.3323 -34.3069 -34.2982 -34.2869 -34.2708 -34.2496 -34.2434 -33.9642
   -33.9642 -33.8914 -33.8912   6.1941   6.3607   6.3759   6.5466   6.5741
     6.6274   6.7257   6.8873   6.9335   7.0776   7.2828   7.3000   7.6412
     8.1985   8.6167   8.8766   9.0624   9.1442   9.2613   9.4462   9.8144
     9.9067   9.9513  10.3515  10.5810  10.6242  10.9370  11.4484  11.4766
    11.5453  12.1145  12.3202  12.3584  12.4953  12.6752  12.7638  12.7678
    12.8094  12.8647  12.9176  12.9403  12.9894  13.0876  13.2342  13.2393
    13.4664  14.3478  15.1716  15.6666  15.8463  16.1061  16.2911  16.4357
    16.4945  19.9514

     the Fermi energy is    12.2124 ev

!    total energy              =   -1540.61891064 Ry
     estimated scf accuracy    <       0.00000009 Ry
     smearing contrib. (-TS)   =      -0.03833049 Ry
     internal energy E=F+TS    =   -1540.58058015 Ry

     The total energy is F=E-TS. E is the sum of the following terms:
     one-electron contribution =  -10665.53669307 Ry
     hartree contribution      =    5410.67638017 Ry
     xc contribution           =    -269.23951152 Ry
     ewald contribution        =    3983.51924427 Ry

     total magnetization       =    -0.00 Bohr mag/cell
     absolute magnetization    =     0.00 Bohr mag/cell

     convergence has been achieved in   9 iterations

     negative rho (up, down):  2.529E-01 2.529E-01

     Forces acting on atoms (cartesian axes, Ry/au):

     atom    1 type  1   force =     0.00000000    0.00000000   -0.00004670
     atom    2 type  1   force =     0.00000000    0.00000000    0.00191517
     atom    3 type  1   force =     0.00000000    0.00000000    0.00021775
     atom    4 type  1   force =     0.00000000    0.00000000   -0.00113933
     atom    5 type  1   force =     0.00000000    0.00000000   -0.00000023
     atom    6 type  1   force =     0.00000000    0.00000000    0.00113673
     atom    7 type  1   force =     0.00000000    0.00000000   -0.00021715
     atom    8 type  1   force =     0.00000000    0.00000000   -0.00191322
     atom    9 type  1   force =     0.00000000    0.00000000    0.00004698

     Total force =     0.003165     Total SCF correction =     0.002590
     SCF correction compared to forces is large: reduce conv_thr to get better values
     Energy error            =      2.1E-05
     Gradient error          =      1.9E-03

     number of scf cycles    =   6
     number of bfgs steps    =   5

     energy   old            =   -1540.6188900039 Ry
     energy   new            =   -1540.6189106401 Ry

     CASE: energy  _new < energy  _old

     new trust radius        =       0.0047296218 bohr
     new conv_thr            =       0.0000001000 Ry


ATOMIC_POSITIONS (angstrom)
Rh            0.0000000000        0.0000000000        0.0329415602
Rh            2.7108568000        1.5651139000        2.2054054871
Rh            1.3554284000        0.7825569000        4.4069087269
Rh            0.0000000000        0.0000000000        6.6344866056
Rh            2.7108568000        1.5651139000        8.8536170794
Rh            1.3554284000        0.7825569000       11.0727448609
Rh            0.0000000000        0.0000000000       13.3003321674
Rh            2.7108568000        1.5651139000       15.5018471548
Rh            1.3554284000        0.7825569000       17.6743067576



     Writing output data file /home/STUDENTI/leonardo.razzai/WORK/relax_surf/9-L.save/
     NEW-OLD atomic charge density approx. for the potential

     negative rho (up, down):  2.526E-01 2.526E-01
     Generating pointlists ...

     total cpu time spent up to now is     1382.7 secs

     Self-consistent Calculation

     iteration #  1     ecut=    35.00 Ry     beta= 0.40
     Davidson diagonalization with overlap
     ethr =  1.00E-06,  avg # of iterations =  4.6

     negative rho (up, down):  2.527E-01 2.527E-01

     total cpu time spent up to now is     1422.3 secs

     total energy              =   -1540.61874370 Ry
     estimated scf accuracy    <       0.00515161 Ry

     total magnetization       =    -0.00 Bohr mag/cell
     absolute magnetization    =     0.00 Bohr mag/cell

     iteration #  2     ecut=    35.00 Ry     beta= 0.40
     Davidson diagonalization with overlap
     ethr =  3.82E-06,  avg # of iterations =  1.0

     negative rho (up, down):  2.527E-01 2.527E-01

     total cpu time spent up to now is     1441.7 secs

     total energy              =   -1540.61888304 Ry
     estimated scf accuracy    <       0.00145445 Ry

     total magnetization       =     0.00 Bohr mag/cell
     absolute magnetization    =     0.00 Bohr mag/cell

     iteration #  3     ecut=    35.00 Ry     beta= 0.40
     Davidson diagonalization with overlap
     ethr =  1.08E-06,  avg # of iterations =  1.0

     negative rho (up, down):  2.527E-01 2.527E-01

     total cpu time spent up to now is     1461.1 secs

     total energy              =   -1540.61893029 Ry
     estimated scf accuracy    <       0.00016744 Ry

     total magnetization       =     0.00 Bohr mag/cell
     absolute magnetization    =     0.00 Bohr mag/cell

     iteration #  4     ecut=    35.00 Ry     beta= 0.40
     Davidson diagonalization with overlap
     ethr =  1.24E-07,  avg # of iterations =  1.0

     negative rho (up, down):  2.527E-01 2.527E-01

     total cpu time spent up to now is     1480.6 secs

     total energy              =   -1540.61892383 Ry
     estimated scf accuracy    <       0.00009567 Ry

     total magnetization       =     0.00 Bohr mag/cell
     absolute magnetization    =     0.00 Bohr mag/cell

     iteration #  5     ecut=    35.00 Ry     beta= 0.40
     Davidson diagonalization with overlap
     ethr =  7.09E-08,  avg # of iterations =  1.0

     negative rho (up, down):  2.527E-01 2.527E-01

     total cpu time spent up to now is     1499.8 secs

     total energy              =   -1540.61892698 Ry
     estimated scf accuracy    <       0.00000108 Ry

     total magnetization       =     0.00 Bohr mag/cell
     absolute magnetization    =     0.00 Bohr mag/cell

     iteration #  6     ecut=    35.00 Ry     beta= 0.40
     Davidson diagonalization with overlap
     ethr =  7.98E-10,  avg # of iterations =  2.1

     negative rho (up, down):  2.527E-01 2.527E-01

     total cpu time spent up to now is     1522.8 secs

     total energy              =   -1540.61892705 Ry
     estimated scf accuracy    <       0.00000064 Ry

     total magnetization       =     0.00 Bohr mag/cell
     absolute magnetization    =     0.00 Bohr mag/cell

     iteration #  7     ecut=    35.00 Ry     beta= 0.40
     Davidson diagonalization with overlap
     ethr =  4.75E-10,  avg # of iterations =  1.0

     negative rho (up, down):  2.527E-01 2.527E-01

     total cpu time spent up to now is     1542.0 secs

     total energy              =   -1540.61892709 Ry
     estimated scf accuracy    <       0.00000050 Ry

     total magnetization       =     0.00 Bohr mag/cell
     absolute magnetization    =     0.00 Bohr mag/cell

     iteration #  8     ecut=    35.00 Ry     beta= 0.40
     Davidson diagonalization with overlap
     ethr =  3.69E-10,  avg # of iterations =  1.0

     negative rho (up, down):  2.527E-01 2.527E-01

     total cpu time spent up to now is     1561.3 secs

     total energy              =   -1540.61892715 Ry
     estimated scf accuracy    <       0.00000050 Ry

     total magnetization       =     0.00 Bohr mag/cell
     absolute magnetization    =     0.00 Bohr mag/cell

     iteration #  9     ecut=    35.00 Ry     beta= 0.40
     Davidson diagonalization with overlap
     ethr =  3.69E-10,  avg # of iterations =  1.2

     negative rho (up, down):  2.527E-01 2.527E-01

     total cpu time spent up to now is     1581.0 secs

     total energy              =   -1540.61892722 Ry
     estimated scf accuracy    <       0.00000032 Ry

     total magnetization       =    -0.00 Bohr mag/cell
     absolute magnetization    =     0.00 Bohr mag/cell

     iteration # 10     ecut=    35.00 Ry     beta= 0.40
     Davidson diagonalization with overlap
     ethr =  2.37E-10,  avg # of iterations =  1.0

     negative rho (up, down):  2.527E-01 2.527E-01
 
     Magnetic moment per site:
     atom:    1    charge:   13.1086    magn:   -0.0000    constr:    0.0000
     atom:    2    charge:   13.1651    magn:   -0.0000    constr:    0.0000
     atom:    3    charge:   13.1608    magn:   -0.0000    constr:    0.0000
     atom:    4    charge:   13.1560    magn:   -0.0000    constr:    0.0000
     atom:    5    charge:   13.1578    magn:   -0.0000    constr:    0.0000
     atom:    6    charge:   13.1562    magn:   -0.0000    constr:    0.0000
     atom:    7    charge:   13.1602    magn:   -0.0000    constr:    0.0000
     atom:    8    charge:   13.1657    magn:   -0.0000    constr:    0.0000
     atom:    9    charge:   13.1087    magn:    0.0000    constr:    0.0000

     total cpu time spent up to now is     1600.1 secs

     End of self-consistent calculation

 ------ SPIN UP ------------


          k = 0.0556 0.0962 0.0000 (  4451 PWs)   bands (ev):

   -34.7870 -34.7633 -34.6630 -34.5399 -34.4253 -34.3285 -34.3116 -34.2900
   -34.2857 -34.2846 -34.2607 -34.2526 -34.2321 -34.2304 -34.2212 -34.2123
   -34.1952 -34.1910 -34.1694 -34.1681 -34.1549 -33.9165 -33.9161 -33.8850
   -33.8848 -33.8533 -33.8532   4.8385   5.1256   5.6068   6.1701   6.5390
     6.6200   6.6274   6.9072   6.9309   8.7056   8.7474   8.8973   8.9801
     9.0032   9.0683   9.1603   9.2532   9.3511   9.4282   9.4452   9.4800
     9.4898   9.5328   9.5438   9.5861   9.6251   9.6749   9.7314   9.7859
     9.7947   9.8500  10.0441  10.0561  10.2544  10.8184  10.8826  10.8864
    11.0485  11.0883  11.2487  11.3106  11.3832  11.4526  11.5557  11.6358
    11.8094  11.9460  12.2424  12.3695  12.5636  12.6815  12.9351  13.6451
    14.3492  14.7326

          k = 0.0556 0.2245 0.0000 (  4420 PWs)   bands (ev):

   -34.7352 -34.7223 -34.6419 -34.5611 -34.5000 -34.4563 -34.4192 -34.3878
   -34.3701 -34.3637 -34.3305 -34.3188 -34.3168 -34.2905 -34.2691 -34.2528
   -34.2411 -34.2323 -34.2064 -34.1885 -34.1761 -34.0113 -34.0110 -33.9048
   -33.9046 -33.8862 -33.8861   5.7623   5.9932   6.3890   6.8629   7.1414
     7.1782   7.3505   7.5638   7.6419   8.0234   8.2405   8.3950   8.4120
     8.5157   8.5846   8.7089   8.7662   9.1348   9.3187   9.4052   9.4933
     9.5721   9.6681   9.6918   9.7174   9.8078   9.8390   9.9948  10.1173
    10.1619  10.2268  10.3739  10.4491  10.5338  10.5694  10.6275  10.7261
    10.8395  10.9251  11.0534  11.1465  11.4567  11.5674  11.6034  11.7796
    12.0124  12.1865  12.5286  12.5457  12.7015  13.2638  14.1810  15.1910
    16.1291  16.8241

          k = 0.0556 0.3528 0.0000 (  4467 PWs)   bands (ev):

   -34.6999 -34.6923 -34.6624 -34.6615 -34.6164 -34.6103 -34.5690 -34.5315
   -34.5126 -34.4511 -34.3888 -34.3727 -34.3707 -34.3314 -34.3232 -34.3011
   -34.2859 -34.2662 -34.2470 -34.2218 -34.2072 -34.1641 -34.1637 -33.9301
   -33.9300 -33.8960 -33.8959   6.5644   6.7398   6.8752   6.9219   6.9557
     7.1204   7.2027   7.3423   7.4334   7.6512   7.7553   7.9354   8.0634
     8.4315   8.7036   8.8565   9.0548   9.1914   9.3506   9.4617   9.5403
     9.5593   9.5871   9.7734   9.8531  10.1242  10.1769  10.4113  10.5516
    10.5927  10.7149  10.8791  11.0896  11.2649  11.3554  11.4158  11.5108
    11.6967  11.7439  11.7941  11.9546  12.0975  12.1596  12.2929  12.3384
    12.3945  12.4300  12.6273  12.7944  13.2377  14.3110  15.5010  16.7264
    17.8853  18.8806

          k = 0.0556 0.4811 0.0000 (  4463 PWs)   bands (ev):

   -34.7887 -34.7847 -34.7516 -34.7429 -34.7182 -34.6919 -34.6664 -34.5509
   -34.5371 -34.4493 -34.4167 -34.4114 -34.3951 -34.3678 -34.3589 -34.3365
   -34.3250 -34.2954 -34.2813 -34.2658 -34.2611 -34.2459 -34.2350 -33.9630
   -33.9628 -33.8897 -33.8894   6.3896   6.4969   6.5338   6.6851   6.7216
     6.7939   6.8730   7.0161   7.1093   7.2183   7.4460   7.4889   7.7532
     8.2491   8.5935   8.9183   9.1066   9.2653   9.3189   9.5160   9.5524
     9.7359   9.9195  10.2350  10.2872  10.4624  10.8885  10.9764  11.1065
    11.5387  11.6220  11.9080  11.9743  12.0914  12.3186  12.3903  12.4346
    12.4654  12.5110  12.5491  12.6265  12.6728  12.8043  12.8987  13.0267
    13.3773  13.7971  14.1886  14.3189  14.6264  15.4833  16.5940  17.7343
    18.7607  20.2454

          k = 0.0556-0.5453 0.0000 (  4486 PWs)   bands (ev):

   -34.8172 -34.8125 -34.7773 -34.7616 -34.7466 -34.7115 -34.6994 -34.5393
   -34.5356 -34.4332 -34.4246 -34.4157 -34.3981 -34.3858 -34.3690 -34.3430
   -34.3377 -34.3034 -34.2964 -34.2837 -34.2750 -34.2497 -34.2453 -33.9707
   -33.9704 -33.8885 -33.8883   6.2687   6.4322   6.4468   6.6095   6.6443
     6.7102   6.7772   6.9655   7.0236   7.1292   7.3687   7.3881   7.6795
     8.2081   8.5791   8.8379   9.0363   9.1955   9.2760   9.4684   9.7011
     9.8069   9.9111  10.4160  10.4434  10.4593  11.0351  11.1731  11.2666
    11.6681  11.8871  12.1313  12.2196  12.3599  12.4465  12.5810  12.6481
    12.6926  12.7356  12.7787  12.8225  12.8539  12.9509  13.0477  13.1305
    13.9783  14.5788  15.2392  15.6998  15.7474  15.9176  16.4507  17.0253
    17.4146  20.0424

          k = 0.0556-0.4170 0.0000 (  4465 PWs)   bands (ev):

   -34.7376 -34.7354 -34.7136 -34.7083 -34.6708 -34.6514 -34.6100 -34.5732
   -34.5366 -34.4579 -34.4031 -34.3956 -34.3882 -34.3490 -34.3444 -34.3218
   -34.3067 -34.2818 -34.2649 -34.2370 -34.2308 -34.2229 -34.2168 -33.9492
   -33.9490 -33.8923 -33.8921   6.5678   6.6090   6.7158   6.7605   6.9012
     6.9442   7.0389   7.0971   7.2501   7.3994   7.5716   7.6882   7.8838
     8.3370   8.6317   8.9878   9.2494   9.2875   9.3742   9.4145   9.5599
     9.6185   9.7691  10.0224  10.0615  10.3065  10.5088  10.6283  10.9696
    11.0728  11.2681  11.3985  11.4927  11.7737  11.8688  11.9481  12.0163
    12.0835  12.1590  12.2535  12.3283  12.4788  12.5203  12.6642  12.7443
    12.8862  12.9839  13.1033  13.1695  13.8041  14.8991  16.1398  17.4172
    18.6552  19.7737

          k = 0.0556-0.2887 0.0000 (  4439 PWs)   bands (ev):

   -34.7066 -34.6997 -34.6374 -34.6013 -34.5703 -34.5362 -34.4950 -34.4592
   -34.4440 -34.4202 -34.3682 -34.3455 -34.3454 -34.3140 -34.2960 -34.2763
   -34.2630 -34.2502 -34.2268 -34.2045 -34.1901 -34.0897 -34.0896 -33.9081
   -33.9081 -33.9000 -33.8997   6.2895   6.4605   6.7312   7.0094   7.1247
     7.2541   7.4852   7.5571   7.7730   7.8165   8.0364   8.0748   8.2716
     8.4324   8.4860   8.6838   8.9018   8.9236   9.2179   9.4522   9.5549
     9.6079   9.6540   9.6995   9.8032   9.8455   9.9870  10.0480  10.1748
    10.3129  10.5679  10.5833  10.6447  10.7759  10.9211  10.9450  11.1172
    11.1704  11.2188  11.4309  11.5232  11.6259  11.8213  11.8545  11.9307
    12.1450  12.2662  12.5688  12.7360  12.8497  13.7685  14.8405  15.9700
    17.0245  17.8830

          k = 0.0556-0.1604 0.0000 (  4443 PWs)   bands (ev):

   -34.7650 -34.7455 -34.6529 -34.5449 -34.4505 -34.3839 -34.3574 -34.3257
   -34.3158 -34.3091 -34.2966 -34.2889 -34.2709 -34.2589 -34.2453 -34.2302
   -34.2224 -34.2109 -34.1863 -34.1759 -34.1649 -33.9422 -33.9420 -33.9085
   -33.9084 -33.8674 -33.8672   5.2353   5.5055   5.9633   6.5090   6.8553
     6.9086   6.9612   7.2241   7.2553   8.3970   8.5139   8.6425   8.7291
     8.7924   8.8267   8.8922   9.0182   9.2698   9.3352   9.5031   9.5696
     9.5930   9.6178   9.6821   9.7278   9.7573   9.7909   9.8160   9.8534
     9.9416  10.0188  10.1055  10.2262  10.3283  10.3412  10.7150  10.7811
    10.8586  10.9583  10.9683  11.1402  11.3561  11.4278  11.5380  11.7361
    11.8214  12.2076  12.2331  12.5379  12.6652  12.8062  13.5327  14.4029
    15.2192  15.7467

          k = 0.0556-0.0321 0.0000 (  4465 PWs)   bands (ev):

   -34.7988 -34.7730 -34.6692 -34.5394 -34.4170 -34.2995 -34.2856 -34.2769
   -34.2761 -34.2756 -34.2366 -34.2264 -34.2230 -34.2127 -34.2045 -34.1957
   -34.1868 -34.1671 -34.1660 -34.1589 -34.1475 -33.9182 -33.9180 -33.8571
   -33.8570 -33.8460 -33.8458   4.6287   4.9218   5.4105   5.9775   6.3582
     6.4420   6.4544   6.7258   6.7462   8.8784   8.9275   9.0774   9.1228
     9.1403   9.1981   9.2783   9.2869   9.3273   9.3424   9.3430   9.3560
     9.4292   9.4710   9.5098   9.5535   9.5827   9.5973   9.6326   9.7475
     9.8208   9.9051   9.9100   9.9562  10.6160  11.0162  11.0174  11.1537
    11.1602  11.2725  11.2943  11.3465  11.3941  11.4777  11.6251  11.7646
    11.9705  11.9733  12.0935  12.3411  12.4250  12.6039  12.7326  13.0381
    13.6767  13.9612

          k = 0.1667 0.2887 0.0000 (  4425 PWs)   bands (ev):

   -34.6869 -34.6866 -34.6378 -34.6199 -34.5956 -34.5708 -34.5357 -34.4929
   -34.4829 -34.4478 -34.3895 -34.3747 -34.3695 -34.3265 -34.3117 -34.3035
   -34.2841 -34.2625 -34.2594 -34.2516 -34.1935 -34.1212 -34.1210 -33.9411
   -33.9409 -33.8963 -33.8963   6.7805   6.8496   7.0098   7.2363   7.5014
     7.7254   7.7360   7.7596   7.8466   7.8495   7.9669   7.9854   8.0707
     8.2150   8.3239   8.4213   8.8364   8.8802   8.9313   9.0171   9.1923
     9.3269   9.3531   9.3721   9.4600   9.5301  10.0746  10.0809  10.2271
    10.3131  10.4679  10.5226  10.9154  10.9311  11.0087  11.1981  11.4089
    11.5064  11.6606  11.8078  12.0246  12.1172  12.2072  12.3580  12.3640
    12.4145  12.4758  12.5617  12.5923  13.3412  14.3187  15.3995  16.5450
    17.6427  18.5966

          k = 0.1667 0.4170 0.0000 (  4459 PWs)   bands (ev):

   -34.7231 -34.7203 -34.6963 -34.6896 -34.6571 -34.6427 -34.6119 -34.5813
   -34.5395 -34.4692 -34.4469 -34.4456 -34.4055 -34.3739 -34.3662 -34.3597
   -34.3356 -34.3276 -34.2971 -34.2762 -34.2269 -34.2156 -34.2145 -34.0032
   -34.0029 -33.8895 -33.8890   6.9415   7.0016   7.0720   7.1712   7.2614
     7.3383   7.4797   7.4865   7.5688   7.7264   7.7987   8.0405   8.1278
     8.3363   8.4425   8.6449   8.8355   8.8905   9.0447   9.1491   9.2382
     9.4608   9.5731   9.7992   9.8810   9.9980  10.0684  10.2248  10.3694
    10.4914  10.7871  11.0109  11.1092  11.1694  11.3290  11.4001  11.6854
    11.7569  12.0483  12.5188  12.6036  12.7279  12.7962  12.8517  13.0047
    14.0087  14.1393  14.2277  14.4730  15.0423  15.9391  17.0249  18.1926
    19.3506  20.4194

          k = 0.1667 0.5453 0.0000 (  4490 PWs)   bands (ev):

   -34.7797 -34.7758 -34.7389 -34.7261 -34.7101 -34.6786 -34.6681 -34.5419
   -34.5353 -34.4931 -34.4872 -34.4583 -34.4419 -34.4183 -34.3916 -34.3775
   -34.3615 -34.3376 -34.3219 -34.2854 -34.2613 -34.2605 -34.2553 -34.0368
   -34.0367 -33.8855 -33.8854   6.6292   6.8124   6.9173   7.0674   7.0930
     7.1356   7.2014   7.4047   7.4858   7.5316   7.7821   7.8815   7.9976
     8.2331   8.3233   8.5262   8.6864   8.9837   9.2500   9.3375   9.5137
     9.7235   9.8125   9.8619  10.1616  10.2292  10.3055  10.6594  10.7584
    11.0870  11.1111  11.2149  11.4823  11.7712  11.9330  12.0398  12.1446
    12.2208  12.3646  12.5107  12.5697  12.6426  12.7975  12.9149  13.0075
    15.8396  16.1462  16.5013  16.8096  17.1275  17.5246  17.9413  18.2420
    18.3978  20.3470

          k = 0.1667-0.4811 0.0000 (  4476 PWs)   bands (ev):

   -34.7594 -34.7554 -34.7234 -34.7129 -34.6923 -34.6647 -34.6492 -34.5576
   -34.5390 -34.4777 -34.4724 -34.4637 -34.4231 -34.4006 -34.3825 -34.3782
   -34.3508 -34.3374 -34.3103 -34.2837 -34.2481 -34.2454 -34.2407 -34.0251
   -34.0249 -33.8868 -33.8867   6.7404   6.9014   6.9483   7.1235   7.1563
     7.1747   7.3141   7.4476   7.5100   7.6066   7.7930   7.9434   8.0472
     8.2421   8.4040   8.6325   8.7868   8.8530   9.1981   9.2469   9.5392
     9.6176   9.7454   9.8987   9.9921  10.0406  10.2855  10.5016  10.6689
    10.8470  10.8943  11.0594  11.3792  11.5946  11.6678  11.7332  11.8437
    11.8917  12.1765  12.5480  12.6635  12.7592  12.8558  12.9671  13.1010
    14.9661  15.1642  15.3747  15.6577  16.1576  16.9057  17.8284  18.7968
    19.6357  20.5960

          k = 0.1667-0.3528 0.0000 (  4458 PWs)   bands (ev):

   -34.6890 -34.6882 -34.6608 -34.6586 -34.6196 -34.6181 -34.5893 -34.5586
   -34.5222 -34.4657 -34.4143 -34.4111 -34.3927 -34.3493 -34.3373 -34.3313
   -34.3142 -34.3020 -34.2811 -34.2648 -34.2089 -34.1733 -34.1730 -33.9737
   -33.9735 -33.8929 -33.8929   7.0334   7.1208   7.1728   7.2440   7.3654
     7.4504   7.5402   7.6246   7.6815   7.7922   7.9688   8.0926   8.1867
     8.2640   8.4138   8.5855   8.6943   8.8048   8.9748   9.1419   9.2245
     9.2683   9.3280   9.5281   9.6725   9.7305   9.9927  10.0062  10.1942
    10.4771  10.5947  10.7116  10.8877  11.0918  11.1546  11.2943  11.5736
    11.6393  11.8961  12.3123  12.3684  12.4954  12.5386  12.6081  12.7788
    13.1135  13.1887  13.2414  13.3997  14.0463  15.0348  16.1573  17.3408
    18.4907  19.5318

          k = 0.1667-0.2245 0.0000 (  4433 PWs)   bands (ev):

   -34.7104 -34.7037 -34.6372 -34.5852 -34.5462 -34.5127 -34.4732 -34.4353
   -34.4238 -34.4127 -34.3667 -34.3424 -34.3403 -34.3119 -34.2877 -34.2744
   -34.2560 -34.2471 -34.2323 -34.2184 -34.1829 -34.0651 -34.0650 -33.9110
   -33.9109 -33.9005 -33.9004   6.2410   6.4187   6.7320   7.1208   7.4190
     7.4678   7.6105   7.7243   7.8464   7.9435   8.0709   8.1563   8.1821
     8.2960   8.4212   8.5856   8.6347   8.8723   9.1332   9.1864   9.2774
     9.4020   9.4629   9.5673   9.6569   9.6981   9.8950  10.0240  10.1814
    10.4124  10.4231  10.5277  10.6305  10.7129  10.8783  10.8982  11.0306
    11.1688  11.2104  11.4689  11.5237  11.5795  11.8617  11.9008  11.9072
    12.0705  12.2206  12.4179  12.5681  12.8904  13.7531  14.7480  15.8263
    16.8470  17.6750

          k = 0.1667-0.0962 0.0000 (  4427 PWs)   bands (ev):

   -34.7553 -34.7376 -34.6486 -34.5491 -34.4667 -34.4110 -34.3805 -34.3466
   -34.3356 -34.3197 -34.3067 -34.3064 -34.2882 -34.2642 -34.2585 -34.2405
   -34.2294 -34.2208 -34.1898 -34.1784 -34.1671 -33.9676 -33.9674 -33.9076
   -33.9074 -33.8720 -33.8718   5.4157   5.6739   6.1125   6.6338   6.9600
     6.9692   7.1132   7.3490   7.3974   8.2092   8.4283   8.5620   8.6231
     8.6909   8.7461   8.8510   8.9004   9.3359   9.3804   9.4893   9.6039
     9.6188   9.6405   9.7321   9.7450   9.8428   9.8621   9.9167   9.9944
    10.0078  10.0551  10.0590  10.2319  10.3324  10.4389  10.5493  10.7151
    10.7424  10.9118  11.0074  11.1552  11.2711  11.5002  11.5183  11.7050
    12.0093  12.0938  12.3744  12.6478  12.7869  12.8509  13.7328  14.6856
    15.5528  16.1405

          k = 0.2778 0.4811 0.0000 (  4485 PWs)   bands (ev):

   -34.7231 -34.7226 -34.6932 -34.6915 -34.6533 -34.6516 -34.6157 -34.6014
   -34.5751 -34.5351 -34.5124 -34.5109 -34.4690 -34.4482 -34.4314 -34.4227
   -34.3643 -34.3457 -34.3253 -34.2964 -34.2632 -34.2243 -34.2242 -34.0958
   -34.0957 -33.8842 -33.8842   7.1653   7.1820   7.2807   7.3356   7.4239
     7.5805   7.7608   7.8642   7.9409   7.9697   8.0645   8.0791   8.1677
     8.2051   8.3534   8.4033   8.6760   8.7753   8.9151   9.0503   9.2078
     9.3643   9.5638   9.6554   9.8853   9.8925  10.1052  10.1078  10.5778
    10.6608  10.7357  10.8543  11.0868  11.1219  11.3017  11.3274  11.6401
    11.8951  12.2223  12.5097  12.6844  12.7018  12.7027  12.8423  12.9971
    16.3319  16.4542  16.7238  17.1479  17.7320  18.4834  19.3606  20.2495
    20.7064  20.7897

          k = 0.2778 0.6094 0.0000 (  4491 PWs)   bands (ev):

   -34.7157 -34.7120 -34.6818 -34.6781 -34.6499 -34.6422 -34.6326 -34.6069
   -34.5828 -34.5605 -34.5379 -34.5297 -34.5067 -34.4756 -34.4459 -34.4352
   -34.3552 -34.3464 -34.3221 -34.3003 -34.2824 -34.2164 -34.2162 -34.1278
   -34.1276 -33.8830 -33.8827   7.1323   7.2881   7.3910   7.5096   7.5408
     7.6375   7.7268   7.8426   7.8946   7.9317   7.9947   8.0718   8.1807
     8.2235   8.3207   8.4621   8.5479   8.9009   8.9416   9.1737   9.2600
     9.3744   9.4504   9.6457   9.8121   9.8605  10.1553  10.1651  10.5491
    10.6658  10.8374  10.9601  11.0529  11.1726  11.3308  11.3803  11.9593
    12.1093  12.2925  12.3802  12.4945  12.5430  12.5934  12.6492  12.7743
    17.5317  17.7066  18.0129  18.3901  18.7339  19.0386  19.4024  19.8112
    20.2287  20.3469

          k = 0.2778-0.4170 0.0000 (  4462 PWs)   bands (ev):

   -34.7292 -34.7267 -34.7001 -34.6911 -34.6644 -34.6474 -34.6261 -34.5825
   -34.5517 -34.4939 -34.4846 -34.4827 -34.4352 -34.4085 -34.4019 -34.3848
   -34.3640 -34.3432 -34.3222 -34.2856 -34.2428 -34.2253 -34.2253 -34.0506
   -34.0503 -33.8863 -33.8860   7.0211   7.1479   7.1689   7.2923   7.3590
     7.4777   7.5814   7.6765   7.7431   7.8671   8.0798   8.0912   8.1809
     8.3062   8.5184   8.5228   8.5767   8.7293   8.9398   9.0079   9.2436
     9.3775   9.5404   9.7625   9.9112   9.9431  10.1251  10.1577  10.3318
    10.5149  10.7675  10.9096  11.0756  11.1851  11.3203  11.3723  11.5410
    11.7102  12.1339  12.5488  12.7568  12.7892  12.8527  12.9456  13.1027
    15.1648  15.2444  15.4243  15.7743  16.3483  17.1628  18.1529  19.2237
    20.2761  21.1718

          k = 0.2778-0.2887 0.0000 (  4463 PWs)   bands (ev):

   -34.7063 -34.7054 -34.6850 -34.6824 -34.6391 -34.6273 -34.5884 -34.5742
   -34.5304 -34.4603 -34.4095 -34.4049 -34.3894 -34.3480 -34.3385 -34.3289
   -34.3170 -34.2850 -34.2698 -34.2544 -34.2149 -34.1947 -34.1940 -33.9613
   -33.9611 -33.8926 -33.8924   6.7795   6.9099   6.9571   7.0001   7.1512
     7.1857   7.2537   7.3523   7.4646   7.6113   7.7686   7.9880   8.0294
     8.3367   8.5225   8.8394   8.9088   9.1377   9.1877   9.3046   9.3845
     9.5143   9.6388   9.7265   9.8320  10.0618  10.1628  10.3419  10.5200
    10.5327  10.7497  10.9812  11.1725  11.2495  11.2819  11.4615  11.7675
    11.7907  12.0765  12.2393  12.3686  12.4361  12.5410  12.6346  12.8068
    12.9547  13.1460  13.1754  13.3133  13.9507  14.9693  16.1364  17.3602
    18.5463  19.6068

          k = 0.2778-0.1604 0.0000 (  4458 PWs)   bands (ev):

   -34.7018 -34.6935 -34.6411 -34.6301 -34.6019 -34.5727 -34.5303 -34.4909
   -34.4806 -34.4358 -34.3776 -34.3540 -34.3535 -34.3233 -34.3069 -34.2835
   -34.2676 -34.2600 -34.2259 -34.2059 -34.2001 -34.1266 -34.1263 -33.9127
   -33.9126 -33.8986 -33.8984   6.3962   6.5653   6.7823   6.9022   6.9583
     7.1326   7.3401   7.3952   7.5559   7.7094   7.8637   7.9519   8.1827
     8.4904   8.7212   8.8501   9.0340   9.1882   9.3410   9.4841   9.5643
     9.6193   9.6656   9.7632   9.9007  10.0642  10.1563  10.3329  10.4379
    10.4498  10.6134  10.6891  10.8647  11.0576  11.1217  11.2276  11.2553
    11.3052  11.4133  11.4411  11.6023  11.7256  11.8410  11.9568  11.9613
    12.0950  12.4092  12.6986  12.8478  12.8575  13.9182  15.0791  16.2681
    17.3751  18.2933

          k = 0.3889 0.6736 0.0000 (  4511 PWs)   bands (ev):

   -34.7514 -34.7473 -34.7098 -34.7005 -34.6816 -34.6578 -34.6465 -34.5664
   -34.5623 -34.5229 -34.5223 -34.4954 -34.4833 -34.4516 -34.4287 -34.4040
   -34.3557 -34.3531 -34.3284 -34.2918 -34.2709 -34.2420 -34.2420 -34.0861
   -34.0860 -33.8840 -33.8839   6.8553   7.0327   7.2439   7.3527   7.3618
     7.4461   7.5452   7.6158   7.7093   7.7830   7.9687   7.9992   8.1734
     8.3115   8.3504   8.4147   8.5075   8.7400   9.0197   9.1866   9.4461
     9.5855   9.6901   9.8343   9.8948  10.1381  10.2414  10.3716  10.6023
    10.6514  10.7038  11.0237  11.2756  11.4698  11.6206  11.7204  12.1381
    12.1958  12.2784  12.3724  12.5238  12.5316  12.7120  12.7891  12.8202
    17.0506  17.2579  17.5069  17.7415  17.9816  18.2570  18.5854  18.9038
    19.1546  20.4853

          k = 0.3889-0.3528 0.0000 (  4485 PWs)   bands (ev):

   -34.7930 -34.7886 -34.7537 -34.7411 -34.7232 -34.6917 -34.6766 -34.5424
   -34.5341 -34.4561 -34.4498 -34.4353 -34.4056 -34.3819 -34.3775 -34.3616
   -34.3491 -34.3104 -34.3011 -34.2773 -34.2671 -34.2624 -34.2432 -33.9939
   -33.9938 -33.8877 -33.8876   6.4691   6.6380   6.6543   6.8105   6.8486
     6.9219   6.9696   7.1767   7.2685   7.2832   7.5834   7.6379   7.7999
     8.2098   8.4751   8.7410   8.9358   9.2101   9.3256   9.4647   9.5098
     9.6432   9.8775  10.0808  10.2062  10.4655  10.6698  10.7937  11.0533
    11.2774  11.5509  11.5929  11.7046  11.9969  12.1839  12.2321  12.2679
    12.2973  12.3850  12.5804  12.6414  12.7418  12.8374  12.9813  13.1048
    14.5669  14.9350  15.3223  15.5633  15.8500  16.4271  17.2057  17.9745
    18.5311  20.2835

          k = 0.3889-0.2245 0.0000 (  4444 PWs)   bands (ev):

   -34.7686 -34.7647 -34.7360 -34.7307 -34.6989 -34.6772 -34.6418 -34.5613
   -34.5383 -34.4542 -34.4000 -34.3947 -34.3938 -34.3578 -34.3479 -34.3205
   -34.3048 -34.2939 -34.2577 -34.2555 -34.2474 -34.2315 -34.2299 -33.9481
   -33.9478 -33.8913 -33.8908   6.4275   6.4676   6.5519   6.6600   6.7535
     6.7963   6.9093   6.9767   7.1086   7.2669   7.4369   7.5015   7.7956
     8.3062   8.6624   9.0119   9.2012   9.2739   9.3690   9.5389   9.5636
     9.7302   9.8966  10.1510  10.3312  10.4013  10.8216  10.9390  11.1246
    11.4739  11.6109  11.9346  11.9562  12.1838  12.2289  12.2950  12.3197
    12.3849  12.4100  12.4891  12.5254  12.5993  12.6612  12.7549  12.8651
    12.8855  12.9656  13.2545  13.2911  13.8476  14.9877  16.2557  17.5381
    18.7768  20.0247

          k =-0.5000-0.8660 0.0000 (  4492 PWs)   bands (ev):

   -34.8251 -34.8216 -34.7863 -34.7689 -34.7562 -34.7174 -34.7084 -34.5393
   -34.5370 -34.4192 -34.4117 -34.4103 -34.4020 -34.3914 -34.3645 -34.3350
   -34.3318 -34.3072 -34.2969 -34.2862 -34.2707 -34.2480 -34.2419 -33.9621
   -33.9621 -33.8890 -33.8888   6.1938   6.3554   6.3759   6.5459   6.5697
     6.6293   6.7199   6.8884   6.9352   7.0790   7.2846   7.3019   7.6429
     8.1995   8.6174   8.8761   9.0638   9.1454   9.2604   9.4391   9.8167
     9.9068   9.9518  10.3537  10.5783  10.6235  10.9383  11.4509  11.4772
    11.5454  12.1136  12.3220  12.3599  12.4971  12.6759  12.7627  12.7657
    12.8114  12.8656  12.9184  12.9413  12.9898  13.0886  13.2361  13.2411
    13.4669  14.3474  15.1738  15.6674  15.8467  16.1090  16.2918  16.4366
    16.4951  19.9531

 ------ SPIN DOWN ----------


          k = 0.0556 0.0962 0.0000 (  4451 PWs)   bands (ev):

   -34.7870 -34.7633 -34.6630 -34.5399 -34.4253 -34.3285 -34.3116 -34.2900
   -34.2857 -34.2846 -34.2607 -34.2526 -34.2321 -34.2304 -34.2212 -34.2123
   -34.1952 -34.1910 -34.1694 -34.1681 -34.1549 -33.9165 -33.9161 -33.8850
   -33.8848 -33.8533 -33.8532   4.8385   5.1256   5.6068   6.1701   6.5390
     6.6200   6.6274   6.9072   6.9309   8.7056   8.7474   8.8973   8.9801
     9.0032   9.0683   9.1603   9.2532   9.3511   9.4282   9.4452   9.4800
     9.4898   9.5328   9.5438   9.5861   9.6251   9.6749   9.7314   9.7859
     9.7947   9.8500  10.0441  10.0561  10.2544  10.8184  10.8826  10.8864
    11.0485  11.0883  11.2487  11.3106  11.3832  11.4526  11.5557  11.6358
    11.8094  11.9460  12.2424  12.3695  12.5636  12.6815  12.9351  13.6451
    14.3492  14.7326

          k = 0.0556 0.2245 0.0000 (  4420 PWs)   bands (ev):

   -34.7352 -34.7223 -34.6419 -34.5611 -34.5000 -34.4563 -34.4192 -34.3878
   -34.3701 -34.3637 -34.3305 -34.3188 -34.3168 -34.2905 -34.2691 -34.2528
   -34.2411 -34.2323 -34.2064 -34.1885 -34.1761 -34.0113 -34.0110 -33.9048
   -33.9046 -33.8862 -33.8861   5.7623   5.9932   6.3890   6.8629   7.1414
     7.1782   7.3505   7.5638   7.6419   8.0234   8.2405   8.3950   8.4120
     8.5157   8.5846   8.7089   8.7662   9.1348   9.3187   9.4052   9.4933
     9.5721   9.6681   9.6918   9.7174   9.8078   9.8390   9.9948  10.1173
    10.1619  10.2268  10.3739  10.4491  10.5338  10.5694  10.6275  10.7261
    10.8395  10.9251  11.0534  11.1465  11.4567  11.5674  11.6034  11.7796
    12.0124  12.1865  12.5286  12.5457  12.7015  13.2638  14.1810  15.1910
    16.1291  16.8241

          k = 0.0556 0.3528 0.0000 (  4467 PWs)   bands (ev):

   -34.6999 -34.6923 -34.6624 -34.6615 -34.6164 -34.6103 -34.5690 -34.5315
   -34.5126 -34.4511 -34.3888 -34.3727 -34.3707 -34.3314 -34.3232 -34.3011
   -34.2859 -34.2662 -34.2470 -34.2218 -34.2072 -34.1641 -34.1637 -33.9301
   -33.9300 -33.8960 -33.8959   6.5644   6.7398   6.8752   6.9219   6.9557
     7.1204   7.2027   7.3423   7.4334   7.6512   7.7553   7.9354   8.0634
     8.4315   8.7036   8.8565   9.0548   9.1914   9.3506   9.4617   9.5403
     9.5593   9.5871   9.7734   9.8531  10.1242  10.1769  10.4113  10.5516
    10.5927  10.7149  10.8791  11.0896  11.2649  11.3554  11.4158  11.5108
    11.6967  11.7439  11.7941  11.9546  12.0975  12.1596  12.2929  12.3384
    12.3945  12.4300  12.6273  12.7944  13.2377  14.3110  15.5010  16.7264
    17.8853  18.8806

          k = 0.0556 0.4811 0.0000 (  4463 PWs)   bands (ev):

   -34.7887 -34.7847 -34.7516 -34.7429 -34.7182 -34.6919 -34.6664 -34.5509
   -34.5371 -34.4493 -34.4167 -34.4114 -34.3951 -34.3678 -34.3589 -34.3365
   -34.3250 -34.2954 -34.2813 -34.2658 -34.2611 -34.2459 -34.2350 -33.9630
   -33.9628 -33.8897 -33.8894   6.3896   6.4969   6.5338   6.6851   6.7216
     6.7939   6.8730   7.0161   7.1093   7.2183   7.4460   7.4889   7.7532
     8.2491   8.5935   8.9183   9.1066   9.2653   9.3189   9.5160   9.5524
     9.7359   9.9195  10.2350  10.2872  10.4624  10.8885  10.9764  11.1065
    11.5387  11.6220  11.9080  11.9743  12.0914  12.3186  12.3903  12.4346
    12.4654  12.5110  12.5491  12.6265  12.6728  12.8043  12.8987  13.0267
    13.3773  13.7971  14.1886  14.3189  14.6264  15.4833  16.5940  17.7343
    18.7607  20.2454

          k = 0.0556-0.5453 0.0000 (  4486 PWs)   bands (ev):

   -34.8172 -34.8125 -34.7773 -34.7616 -34.7466 -34.7115 -34.6994 -34.5393
   -34.5356 -34.4332 -34.4246 -34.4157 -34.3981 -34.3858 -34.3690 -34.3430
   -34.3377 -34.3034 -34.2964 -34.2837 -34.2750 -34.2497 -34.2453 -33.9707
   -33.9704 -33.8885 -33.8883   6.2687   6.4322   6.4468   6.6095   6.6443
     6.7102   6.7772   6.9655   7.0236   7.1292   7.3687   7.3881   7.6795
     8.2081   8.5791   8.8379   9.0363   9.1955   9.2760   9.4684   9.7011
     9.8069   9.9111  10.4160  10.4434  10.4593  11.0351  11.1731  11.2666
    11.6681  11.8871  12.1313  12.2196  12.3599  12.4465  12.5810  12.6481
    12.6926  12.7356  12.7787  12.8225  12.8539  12.9509  13.0477  13.1305
    13.9783  14.5788  15.2392  15.6998  15.7474  15.9176  16.4507  17.0253
    17.4146  20.0418

          k = 0.0556-0.4170 0.0000 (  4465 PWs)   bands (ev):

   -34.7376 -34.7354 -34.7136 -34.7083 -34.6708 -34.6514 -34.6100 -34.5732
   -34.5366 -34.4579 -34.4031 -34.3956 -34.3882 -34.3490 -34.3444 -34.3218
   -34.3067 -34.2818 -34.2649 -34.2370 -34.2308 -34.2229 -34.2168 -33.9492
   -33.9490 -33.8923 -33.8921   6.5678   6.6090   6.7158   6.7605   6.9012
     6.9442   7.0389   7.0971   7.2501   7.3994   7.5716   7.6882   7.8838
     8.3370   8.6317   8.9878   9.2494   9.2875   9.3742   9.4145   9.5599
     9.6185   9.7691  10.0224  10.0615  10.3065  10.5088  10.6283  10.9696
    11.0728  11.2681  11.3985  11.4927  11.7737  11.8688  11.9481  12.0163
    12.0835  12.1590  12.2535  12.3283  12.4788  12.5203  12.6642  12.7443
    12.8862  12.9839  13.1033  13.1695  13.8041  14.8991  16.1398  17.4172
    18.6552  19.7737

          k = 0.0556-0.2887 0.0000 (  4439 PWs)   bands (ev):

   -34.7066 -34.6997 -34.6374 -34.6013 -34.5703 -34.5362 -34.4950 -34.4592
   -34.4440 -34.4202 -34.3682 -34.3455 -34.3454 -34.3140 -34.2960 -34.2763
   -34.2630 -34.2502 -34.2268 -34.2045 -34.1901 -34.0897 -34.0896 -33.9081
   -33.9081 -33.9000 -33.8997   6.2895   6.4605   6.7312   7.0094   7.1247
     7.2541   7.4852   7.5571   7.7730   7.8165   8.0364   8.0748   8.2716
     8.4324   8.4860   8.6838   8.9018   8.9236   9.2179   9.4522   9.5549
     9.6079   9.6540   9.6995   9.8032   9.8455   9.9870  10.0480  10.1748
    10.3129  10.5679  10.5833  10.6447  10.7759  10.9211  10.9450  11.1172
    11.1704  11.2188  11.4309  11.5232  11.6259  11.8213  11.8545  11.9307
    12.1450  12.2662  12.5688  12.7360  12.8497  13.7685  14.8405  15.9700
    17.0245  17.8830

          k = 0.0556-0.1604 0.0000 (  4443 PWs)   bands (ev):

   -34.7650 -34.7455 -34.6529 -34.5449 -34.4505 -34.3839 -34.3574 -34.3257
   -34.3158 -34.3091 -34.2966 -34.2889 -34.2709 -34.2589 -34.2453 -34.2302
   -34.2224 -34.2109 -34.1863 -34.1759 -34.1649 -33.9422 -33.9420 -33.9085
   -33.9084 -33.8674 -33.8672   5.2353   5.5055   5.9633   6.5090   6.8553
     6.9086   6.9612   7.2241   7.2553   8.3970   8.5139   8.6425   8.7291
     8.7924   8.8267   8.8922   9.0182   9.2698   9.3352   9.5031   9.5696
     9.5930   9.6178   9.6821   9.7278   9.7573   9.7909   9.8160   9.8534
     9.9416  10.0188  10.1055  10.2262  10.3283  10.3412  10.7150  10.7811
    10.8586  10.9583  10.9683  11.1402  11.3561  11.4278  11.5380  11.7361
    11.8214  12.2076  12.2331  12.5379  12.6652  12.8062  13.5327  14.4029
    15.2192  15.7467

          k = 0.0556-0.0321 0.0000 (  4465 PWs)   bands (ev):

   -34.7988 -34.7730 -34.6692 -34.5394 -34.4170 -34.2995 -34.2856 -34.2769
   -34.2761 -34.2756 -34.2366 -34.2264 -34.2230 -34.2127 -34.2045 -34.1957
   -34.1868 -34.1671 -34.1660 -34.1589 -34.1475 -33.9182 -33.9180 -33.8571
   -33.8570 -33.8460 -33.8458   4.6287   4.9218   5.4105   5.9775   6.3582
     6.4420   6.4544   6.7258   6.7462   8.8784   8.9275   9.0774   9.1228
     9.1403   9.1981   9.2783   9.2869   9.3273   9.3424   9.3430   9.3560
     9.4292   9.4710   9.5098   9.5535   9.5827   9.5973   9.6326   9.7475
     9.8208   9.9051   9.9100   9.9562  10.6160  11.0162  11.0174  11.1537
    11.1602  11.2725  11.2943  11.3465  11.3941  11.4777  11.6251  11.7646
    11.9705  11.9733  12.0935  12.3411  12.4250  12.6039  12.7326  13.0381
    13.6767  13.9612

          k = 0.1667 0.2887 0.0000 (  4425 PWs)   bands (ev):

   -34.6869 -34.6866 -34.6378 -34.6199 -34.5956 -34.5708 -34.5357 -34.4929
   -34.4829 -34.4478 -34.3895 -34.3747 -34.3695 -34.3265 -34.3117 -34.3035
   -34.2841 -34.2625 -34.2594 -34.2516 -34.1935 -34.1212 -34.1210 -33.9411
   -33.9409 -33.8963 -33.8963   6.7805   6.8496   7.0098   7.2363   7.5014
     7.7254   7.7360   7.7596   7.8466   7.8495   7.9669   7.9854   8.0707
     8.2150   8.3239   8.4213   8.8364   8.8802   8.9313   9.0171   9.1923
     9.3269   9.3531   9.3721   9.4600   9.5301  10.0746  10.0809  10.2271
    10.3131  10.4679  10.5226  10.9154  10.9311  11.0087  11.1981  11.4089
    11.5064  11.6606  11.8078  12.0246  12.1172  12.2072  12.3580  12.3640
    12.4145  12.4758  12.5617  12.5923  13.3412  14.3187  15.3995  16.5450
    17.6427  18.5966

          k = 0.1667 0.4170 0.0000 (  4459 PWs)   bands (ev):

   -34.7231 -34.7203 -34.6963 -34.6896 -34.6571 -34.6427 -34.6119 -34.5813
   -34.5395 -34.4692 -34.4469 -34.4456 -34.4055 -34.3739 -34.3662 -34.3597
   -34.3356 -34.3276 -34.2971 -34.2762 -34.2269 -34.2156 -34.2145 -34.0032
   -34.0029 -33.8895 -33.8890   6.9415   7.0016   7.0720   7.1712   7.2614
     7.3383   7.4797   7.4865   7.5688   7.7264   7.7987   8.0405   8.1278
     8.3363   8.4425   8.6449   8.8355   8.8905   9.0447   9.1491   9.2382
     9.4608   9.5731   9.7992   9.8810   9.9980  10.0684  10.2248  10.3694
    10.4914  10.7871  11.0109  11.1092  11.1694  11.3290  11.4001  11.6854
    11.7569  12.0483  12.5188  12.6036  12.7279  12.7962  12.8517  13.0047
    14.0087  14.1393  14.2277  14.4730  15.0423  15.9391  17.0249  18.1926
    19.3506  20.4194

          k = 0.1667 0.5453 0.0000 (  4490 PWs)   bands (ev):

   -34.7797 -34.7758 -34.7389 -34.7261 -34.7101 -34.6786 -34.6681 -34.5419
   -34.5353 -34.4931 -34.4872 -34.4583 -34.4419 -34.4183 -34.3916 -34.3775
   -34.3615 -34.3376 -34.3219 -34.2854 -34.2613 -34.2605 -34.2553 -34.0368
   -34.0367 -33.8855 -33.8854   6.6292   6.8124   6.9173   7.0674   7.0930
     7.1356   7.2014   7.4047   7.4858   7.5316   7.7821   7.8815   7.9976
     8.2331   8.3233   8.5262   8.6864   8.9837   9.2500   9.3375   9.5137
     9.7235   9.8125   9.8619  10.1616  10.2292  10.3055  10.6594  10.7584
    11.0870  11.1111  11.2149  11.4823  11.7712  11.9330  12.0398  12.1446
    12.2208  12.3646  12.5107  12.5697  12.6426  12.7975  12.9149  13.0075
    15.8396  16.1462  16.5013  16.8096  17.1275  17.5246  17.9413  18.2420
    18.3978  20.3394

          k = 0.1667-0.4811 0.0000 (  4476 PWs)   bands (ev):

   -34.7594 -34.7554 -34.7234 -34.7129 -34.6923 -34.6647 -34.6492 -34.5576
   -34.5390 -34.4777 -34.4724 -34.4637 -34.4231 -34.4006 -34.3825 -34.3782
   -34.3508 -34.3374 -34.3103 -34.2837 -34.2481 -34.2454 -34.2407 -34.0251
   -34.0249 -33.8868 -33.8867   6.7404   6.9014   6.9483   7.1235   7.1563
     7.1747   7.3141   7.4476   7.5100   7.6066   7.7930   7.9434   8.0472
     8.2421   8.4040   8.6325   8.7868   8.8530   9.1981   9.2469   9.5392
     9.6176   9.7454   9.8987   9.9921  10.0406  10.2855  10.5016  10.6689
    10.8470  10.8943  11.0594  11.3792  11.5946  11.6678  11.7332  11.8437
    11.8917  12.1765  12.5480  12.6635  12.7592  12.8558  12.9671  13.1010
    14.9661  15.1642  15.3747  15.6577  16.1576  16.9057  17.8284  18.7968
    19.6357  20.5958

          k = 0.1667-0.3528 0.0000 (  4458 PWs)   bands (ev):

   -34.6890 -34.6882 -34.6608 -34.6586 -34.6196 -34.6181 -34.5893 -34.5586
   -34.5222 -34.4657 -34.4143 -34.4111 -34.3927 -34.3493 -34.3373 -34.3313
   -34.3142 -34.3020 -34.2811 -34.2648 -34.2089 -34.1733 -34.1730 -33.9737
   -33.9735 -33.8929 -33.8929   7.0334   7.1208   7.1728   7.2440   7.3654
     7.4504   7.5402   7.6246   7.6815   7.7922   7.9688   8.0926   8.1867
     8.2640   8.4138   8.5855   8.6943   8.8048   8.9748   9.1419   9.2245
     9.2683   9.3280   9.5281   9.6725   9.7305   9.9927  10.0062  10.1942
    10.4771  10.5947  10.7116  10.8877  11.0918  11.1546  11.2943  11.5736
    11.6393  11.8961  12.3123  12.3684  12.4954  12.5386  12.6081  12.7788
    13.1135  13.1887  13.2414  13.3997  14.0463  15.0348  16.1573  17.3408
    18.4907  19.5318

          k = 0.1667-0.2245 0.0000 (  4433 PWs)   bands (ev):

   -34.7104 -34.7037 -34.6372 -34.5852 -34.5462 -34.5127 -34.4732 -34.4353
   -34.4238 -34.4127 -34.3667 -34.3424 -34.3403 -34.3119 -34.2877 -34.2744
   -34.2560 -34.2471 -34.2323 -34.2184 -34.1829 -34.0651 -34.0650 -33.9110
   -33.9109 -33.9005 -33.9004   6.2410   6.4187   6.7320   7.1208   7.4190
     7.4678   7.6105   7.7243   7.8464   7.9435   8.0709   8.1563   8.1821
     8.2960   8.4212   8.5856   8.6347   8.8723   9.1332   9.1864   9.2774
     9.4020   9.4629   9.5673   9.6569   9.6981   9.8950  10.0240  10.1814
    10.4124  10.4231  10.5277  10.6305  10.7129  10.8783  10.8982  11.0306
    11.1688  11.2104  11.4689  11.5237  11.5795  11.8617  11.9008  11.9072
    12.0705  12.2206  12.4179  12.5681  12.8904  13.7531  14.7480  15.8263
    16.8470  17.6750

          k = 0.1667-0.0962 0.0000 (  4427 PWs)   bands (ev):

   -34.7553 -34.7376 -34.6486 -34.5491 -34.4667 -34.4110 -34.3805 -34.3466
   -34.3356 -34.3197 -34.3067 -34.3064 -34.2882 -34.2642 -34.2585 -34.2405
   -34.2294 -34.2208 -34.1898 -34.1784 -34.1671 -33.9676 -33.9674 -33.9076
   -33.9074 -33.8720 -33.8718   5.4157   5.6739   6.1125   6.6338   6.9600
     6.9692   7.1132   7.3490   7.3974   8.2092   8.4283   8.5620   8.6231
     8.6909   8.7461   8.8510   8.9004   9.3359   9.3804   9.4893   9.6039
     9.6188   9.6405   9.7321   9.7450   9.8428   9.8621   9.9167   9.9944
    10.0078  10.0551  10.0590  10.2319  10.3324  10.4389  10.5493  10.7151
    10.7424  10.9118  11.0074  11.1552  11.2711  11.5002  11.5183  11.7050
    12.0093  12.0938  12.3744  12.6478  12.7869  12.8509  13.7328  14.6856
    15.5528  16.1405

          k = 0.2778 0.4811 0.0000 (  4485 PWs)   bands (ev):

   -34.7231 -34.7226 -34.6932 -34.6915 -34.6533 -34.6516 -34.6157 -34.6014
   -34.5751 -34.5351 -34.5124 -34.5109 -34.4690 -34.4482 -34.4314 -34.4227
   -34.3643 -34.3457 -34.3253 -34.2964 -34.2632 -34.2243 -34.2242 -34.0958
   -34.0957 -33.8842 -33.8842   7.1653   7.1820   7.2807   7.3356   7.4239
     7.5805   7.7608   7.8642   7.9409   7.9697   8.0645   8.0791   8.1677
     8.2051   8.3534   8.4033   8.6760   8.7753   8.9151   9.0503   9.2078
     9.3643   9.5638   9.6554   9.8853   9.8925  10.1052  10.1078  10.5778
    10.6608  10.7357  10.8543  11.0868  11.1219  11.3017  11.3274  11.6401
    11.8951  12.2223  12.5097  12.6844  12.7018  12.7027  12.8423  12.9971
    16.3319  16.4542  16.7238  17.1479  17.7320  18.4834  19.3606  20.2495
    20.7064  20.7896

          k = 0.2778 0.6094 0.0000 (  4491 PWs)   bands (ev):

   -34.7157 -34.7120 -34.6818 -34.6781 -34.6499 -34.6422 -34.6326 -34.6069
   -34.5828 -34.5605 -34.5379 -34.5297 -34.5067 -34.4756 -34.4459 -34.4352
   -34.3552 -34.3464 -34.3221 -34.3003 -34.2824 -34.2164 -34.2162 -34.1278
   -34.1276 -33.8830 -33.8827   7.1323   7.2881   7.3910   7.5096   7.5408
     7.6375   7.7268   7.8426   7.8946   7.9317   7.9947   8.0718   8.1807
     8.2235   8.3207   8.4621   8.5479   8.9009   8.9416   9.1737   9.2600
     9.3744   9.4504   9.6457   9.8121   9.8605  10.1553  10.1651  10.5491
    10.6658  10.8374  10.9601  11.0529  11.1726  11.3308  11.3803  11.9593
    12.1093  12.2925  12.3802  12.4945  12.5430  12.5934  12.6492  12.7743
    17.5317  17.7066  18.0129  18.3901  18.7339  19.0386  19.4024  19.8112
    20.2287  20.3469

          k = 0.2778-0.4170 0.0000 (  4462 PWs)   bands (ev):

   -34.7292 -34.7267 -34.7001 -34.6911 -34.6644 -34.6474 -34.6261 -34.5825
   -34.5517 -34.4939 -34.4846 -34.4827 -34.4352 -34.4085 -34.4019 -34.3848
   -34.3640 -34.3432 -34.3222 -34.2856 -34.2428 -34.2253 -34.2253 -34.0506
   -34.0503 -33.8863 -33.8860   7.0211   7.1479   7.1689   7.2923   7.3590
     7.4777   7.5814   7.6765   7.7431   7.8671   8.0798   8.0912   8.1809
     8.3062   8.5184   8.5228   8.5767   8.7293   8.9398   9.0079   9.2436
     9.3775   9.5404   9.7625   9.9112   9.9431  10.1251  10.1577  10.3318
    10.5149  10.7675  10.9096  11.0756  11.1851  11.3203  11.3723  11.5410
    11.7102  12.1339  12.5488  12.7568  12.7892  12.8527  12.9456  13.1027
    15.1648  15.2444  15.4243  15.7743  16.3483  17.1628  18.1529  19.2237
    20.2761  21.1718

          k = 0.2778-0.2887 0.0000 (  4463 PWs)   bands (ev):

   -34.7063 -34.7054 -34.6850 -34.6824 -34.6391 -34.6273 -34.5884 -34.5742
   -34.5304 -34.4603 -34.4095 -34.4049 -34.3894 -34.3480 -34.3385 -34.3289
   -34.3170 -34.2850 -34.2698 -34.2544 -34.2149 -34.1947 -34.1940 -33.9613
   -33.9611 -33.8926 -33.8924   6.7795   6.9099   6.9571   7.0001   7.1512
     7.1857   7.2537   7.3523   7.4646   7.6113   7.7686   7.9880   8.0294
     8.3367   8.5225   8.8394   8.9088   9.1377   9.1877   9.3046   9.3845
     9.5143   9.6388   9.7265   9.8320  10.0618  10.1628  10.3419  10.5200
    10.5327  10.7497  10.9812  11.1725  11.2495  11.2819  11.4615  11.7675
    11.7907  12.0765  12.2393  12.3686  12.4361  12.5410  12.6346  12.8068
    12.9547  13.1460  13.1754  13.3133  13.9507  14.9693  16.1364  17.3602
    18.5463  19.6068

          k = 0.2778-0.1604 0.0000 (  4458 PWs)   bands (ev):

   -34.7018 -34.6935 -34.6411 -34.6301 -34.6019 -34.5727 -34.5303 -34.4909
   -34.4806 -34.4358 -34.3776 -34.3540 -34.3535 -34.3233 -34.3069 -34.2835
   -34.2676 -34.2600 -34.2259 -34.2059 -34.2001 -34.1266 -34.1263 -33.9127
   -33.9126 -33.8986 -33.8984   6.3962   6.5653   6.7823   6.9022   6.9583
     7.1326   7.3401   7.3952   7.5559   7.7094   7.8637   7.9519   8.1827
     8.4904   8.7212   8.8501   9.0340   9.1882   9.3410   9.4841   9.5643
     9.6193   9.6656   9.7632   9.9007  10.0642  10.1563  10.3329  10.4379
    10.4498  10.6134  10.6891  10.8647  11.0576  11.1217  11.2276  11.2553
    11.3052  11.4133  11.4411  11.6023  11.7256  11.8410  11.9568  11.9613
    12.0950  12.4092  12.6986  12.8478  12.8575  13.9182  15.0791  16.2681
    17.3751  18.2933

          k = 0.3889 0.6736 0.0000 (  4511 PWs)   bands (ev):

   -34.7514 -34.7473 -34.7098 -34.7005 -34.6816 -34.6578 -34.6465 -34.5664
   -34.5623 -34.5229 -34.5223 -34.4954 -34.4833 -34.4516 -34.4287 -34.4040
   -34.3557 -34.3531 -34.3284 -34.2918 -34.2709 -34.2420 -34.2420 -34.0861
   -34.0860 -33.8840 -33.8839   6.8553   7.0327   7.2439   7.3527   7.3618
     7.4461   7.5452   7.6158   7.7093   7.7830   7.9687   7.9992   8.1734
     8.3115   8.3504   8.4147   8.5075   8.7400   9.0197   9.1866   9.4461
     9.5855   9.6901   9.8343   9.8948  10.1381  10.2414  10.3716  10.6023
    10.6514  10.7038  11.0237  11.2756  11.4698  11.6206  11.7204  12.1381
    12.1958  12.2784  12.3724  12.5238  12.5316  12.7120  12.7891  12.8202
    17.0506  17.2579  17.5069  17.7415  17.9816  18.2570  18.5854  18.9038
    19.1546  20.4851

          k = 0.3889-0.3528 0.0000 (  4485 PWs)   bands (ev):

   -34.7930 -34.7886 -34.7537 -34.7411 -34.7232 -34.6917 -34.6766 -34.5424
   -34.5341 -34.4561 -34.4498 -34.4353 -34.4056 -34.3819 -34.3775 -34.3616
   -34.3491 -34.3104 -34.3011 -34.2773 -34.2671 -34.2624 -34.2433 -33.9939
   -33.9938 -33.8877 -33.8876   6.4691   6.6380   6.6543   6.8105   6.8486
     6.9219   6.9696   7.1767   7.2685   7.2832   7.5834   7.6379   7.7999
     8.2098   8.4751   8.7410   8.9358   9.2101   9.3256   9.4647   9.5098
     9.6432   9.8775  10.0808  10.2062  10.4655  10.6698  10.7937  11.0533
    11.2774  11.5509  11.5929  11.7046  11.9969  12.1839  12.2321  12.2679
    12.2973  12.3850  12.5804  12.6414  12.7418  12.8374  12.9813  13.1048
    14.5669  14.9350  15.3223  15.5633  15.8500  16.4271  17.2057  17.9745
    18.5311  20.2835

          k = 0.3889-0.2245 0.0000 (  4444 PWs)   bands (ev):

   -34.7686 -34.7647 -34.7360 -34.7307 -34.6989 -34.6772 -34.6418 -34.5613
   -34.5383 -34.4542 -34.4000 -34.3947 -34.3938 -34.3578 -34.3479 -34.3205
   -34.3048 -34.2939 -34.2577 -34.2555 -34.2474 -34.2315 -34.2299 -33.9481
   -33.9478 -33.8913 -33.8908   6.4275   6.4676   6.5519   6.6600   6.7535
     6.7963   6.9093   6.9767   7.1086   7.2669   7.4369   7.5015   7.7956
     8.3062   8.6624   9.0119   9.2012   9.2739   9.3690   9.5389   9.5636
     9.7302   9.8966  10.1510  10.3312  10.4013  10.8216  10.9390  11.1246
    11.4739  11.6109  11.9346  11.9562  12.1838  12.2289  12.2950  12.3197
    12.3849  12.4100  12.4891  12.5254  12.5993  12.6612  12.7549  12.8651
    12.8855  12.9656  13.2545  13.2911  13.8476  14.9877  16.2557  17.5381
    18.7768  20.0247

          k =-0.5000-0.8660 0.0000 (  4492 PWs)   bands (ev):

   -34.8251 -34.8216 -34.7863 -34.7689 -34.7562 -34.7174 -34.7084 -34.5393
   -34.5370 -34.4192 -34.4117 -34.4103 -34.4020 -34.3914 -34.3645 -34.3350
   -34.3318 -34.3072 -34.2969 -34.2862 -34.2707 -34.2480 -34.2419 -33.9621
   -33.9621 -33.8890 -33.8888   6.1938   6.3554   6.3759   6.5459   6.5697
     6.6293   6.7199   6.8884   6.9352   7.0790   7.2846   7.3019   7.6429
     8.1995   8.6174   8.8761   9.0638   9.1454   9.2604   9.4391   9.8167
     9.9068   9.9518  10.3537  10.5783  10.6235  10.9383  11.4509  11.4772
    11.5454  12.1136  12.3220  12.3599  12.4971  12.6759  12.7627  12.7657
    12.8114  12.8656  12.9184  12.9413  12.9898  13.0886  13.2361  13.2411
    13.4669  14.3474  15.1738  15.6674  15.8467  16.1090  16.2918  16.4366
    16.4951  19.9526

     the Fermi energy is    12.2131 ev

!    total energy              =   -1540.61892726 Ry
     estimated scf accuracy    <          4.2E-09 Ry
     smearing contrib. (-TS)   =      -0.03830390 Ry
     internal energy E=F+TS    =   -1540.58062337 Ry

     The total energy is F=E-TS. E is the sum of the following terms:
     one-electron contribution =  -10671.84404972 Ry
     hartree contribution      =    5413.81511425 Ry
     xc contribution           =    -269.24095305 Ry
     ewald contribution        =    3986.68926516 Ry

     total magnetization       =    -0.00 Bohr mag/cell
     absolute magnetization    =     0.00 Bohr mag/cell

     convergence has been achieved in  10 iterations

     negative rho (up, down):  2.527E-01 2.527E-01

     Forces acting on atoms (cartesian axes, Ry/au):

     atom    1 type  1   force =     0.00000000    0.00000000    0.00007479
     atom    2 type  1   force =     0.00000000    0.00000000    0.00078633
     atom    3 type  1   force =     0.00000000    0.00000000    0.00081174
     atom    4 type  1   force =     0.00000000    0.00000000   -0.00020568
     atom    5 type  1   force =     0.00000000    0.00000000   -0.00000126
     atom    6 type  1   force =     0.00000000    0.00000000    0.00020649
     atom    7 type  1   force =     0.00000000    0.00000000   -0.00081037
     atom    8 type  1   force =     0.00000000    0.00000000   -0.00079025
     atom    9 type  1   force =     0.00000000    0.00000000   -0.00007179

     Total force =     0.001629     Total SCF correction =     0.000164
     SCF correction compared to forces is large: reduce conv_thr to get better values
     Energy error            =      1.7E-05
     Gradient error          =      8.1E-04
Begin final coordinates

ATOMIC_POSITIONS (angstrom)
Rh            0.0000000000        0.0000000000        0.0329415602
Rh            2.7108568000        1.5651139000        2.2054054871
Rh            1.3554284000        0.7825569000        4.4069087269
Rh            0.0000000000        0.0000000000        6.6344866056
Rh            2.7108568000        1.5651139000        8.8536170794
Rh            1.3554284000        0.7825569000       11.0727448609
Rh            0.0000000000        0.0000000000       13.3003321674
Rh            2.7108568000        1.5651139000       15.5018471548
Rh            1.3554284000        0.7825569000       17.6743067576
End final coordinates



     Writing output data file /home/STUDENTI/leonardo.razzai/WORK/relax_surf/9-L.save/

     lsda relaxation :  a final configuration with zero
                        absolute magnetization has been found

     the program is checking if it is really the minimum energy structure
     by performing a new scf iteration without any "electronic" history

     Initial potential from superposition of free atoms

     starting charge  130.49911, renormalised to  135.00000

     negative rho (up, down):  2.491E-01 2.442E-01

     total cpu time spent up to now is     1605.4 secs

     Self-consistent Calculation

     iteration #  1     ecut=    35.00 Ry     beta= 0.40
     Davidson diagonalization with overlap
     c_bands:  1 eigenvalues not converged
     c_bands:  1 eigenvalues not converged
     c_bands:  1 eigenvalues not converged
     c_bands:  1 eigenvalues not converged
     c_bands:  1 eigenvalues not converged
     c_bands:  1 eigenvalues not converged
     c_bands:  1 eigenvalues not converged
     ethr =  1.00E-06,  avg # of iterations = 14.1

     negative rho (up, down):  2.490E-01 2.466E-01

     total cpu time spent up to now is     1671.6 secs

     total energy              =   -1540.81702950 Ry
     estimated scf accuracy    <       6.81573045 Ry

     total magnetization       =     0.49 Bohr mag/cell
     absolute magnetization    =     0.50 Bohr mag/cell

     iteration #  2     ecut=    35.00 Ry     beta= 0.40
     Davidson diagonalization with overlap
MPI startup(): shm:dapl fabric is unknown or has been removed from the product, please use ofi or shm:ofi instead.

     Program PWSCF v.6.7MaX starts on  5Apr2023 at 18:28:22 

     This program is part of the open-source Quantum ESPRESSO suite
     for quantum simulation of materials; please cite
         "P. Giannozzi et al., J. Phys.:Condens. Matter 21 395502 (2009);
         "P. Giannozzi et al., J. Phys.:Condens. Matter 29 465901 (2017);
          URL http://www.quantum-espresso.org", 
     in publications or presentations arising from this work. More details at
     http://www.quantum-espresso.org/quote

     Parallel version (MPI), running on     8 processors

     MPI processes distributed on     1 nodes
     R & G space division:  proc/nbgrp/npool/nimage =       8
     Reading input from n_layers9.pwi

     Current dimensions of program PWSCF are:
     Max number of different atomic species (ntypx) = 10
     Max number of k-points (npk) =  40000
     Max angular momentum in pseudopotentials (lmaxx) =  3


 %%%%%%%%%%%%%%%%%%%%%%%%%%%%%%%%%%%%%%%%%%%%%%%%%%%%%%%%%%%%%%%%%%%%%%%%%%%%%%
     Error in routine check_tempdir (1):
     temporary directory /home/STUDENTI/leonardo.razzai/WORK/relax_surf/ cannot be created or accessed
 %%%%%%%%%%%%%%%%%%%%%%%%%%%%%%%%%%%%%%%%%%%%%%%%%%%%%%%%%%%%%%%%%%%%%%%%%%%%%%


 %%%%%%%%%%%%%%%%%%%%%%%%%%%%%%%%%%%%%%%%%%%%%%%%%%%%%%%%%%%%%%%%%%%%%%%%%%%%%%
     Error in routine check_tempdir (1):
     temporary directory /home/STUDENTI/leonardo.razzai/WORK/relax_surf/ cannot be created or accessed
 %%%%%%%%%%%%%%%%%%%%%%%%%%%%%%%%%%%%%%%%%%%%%%%%%%%%%%%%%%%%%%%%%%%%%%%%%%%%%%

     stopping ...

 %%%%%%%%%%%%%%%%%%%%%%%%%%%%%%%%%%%%%%%%%%%%%%%%%%%%%%%%%%%%%%%%%%%%%%%%%%%%%%
     Error in routine check_tempdir (1):
     temporary directory /home/STUDENTI/leonardo.razzai/WORK/relax_surf/ cannot be created or accessed
 %%%%%%%%%%%%%%%%%%%%%%%%%%%%%%%%%%%%%%%%%%%%%%%%%%%%%%%%%%%%%%%%%%%%%%%%%%%%%%

     stopping ...

 %%%%%%%%%%%%%%%%%%%%%%%%%%%%%%%%%%%%%%%%%%%%%%%%%%%%%%%%%%%%%%%%%%%%%%%%%%%%%%
     Error in routine check_tempdir (1):
     temporary directory /home/STUDENTI/leonardo.razzai/WORK/relax_surf/ cannot be created or accessed
 %%%%%%%%%%%%%%%%%%%%%%%%%%%%%%%%%%%%%%%%%%%%%%%%%%%%%%%%%%%%%%%%%%%%%%%%%%%%%%

     stopping ...

 %%%%%%%%%%%%%%%%%%%%%%%%%%%%%%%%%%%%%%%%%%%%%%%%%%%%%%%%%%%%%%%%%%%%%%%%%%%%%%
     Error in routine check_tempdir (1):
     temporary directory /home/STUDENTI/leonardo.razzai/WORK/relax_surf/ cannot be created or accessed
 %%%%%%%%%%%%%%%%%%%%%%%%%%%%%%%%%%%%%%%%%%%%%%%%%%%%%%%%%%%%%%%%%%%%%%%%%%%%%%

     stopping ...

 %%%%%%%%%%%%%%%%%%%%%%%%%%%%%%%%%%%%%%%%%%%%%%%%%%%%%%%%%%%%%%%%%%%%%%%%%%%%%%
     Error in routine check_tempdir (1):
     temporary directory /home/STUDENTI/leonardo.razzai/WORK/relax_surf/ cannot be created or accessed
 %%%%%%%%%%%%%%%%%%%%%%%%%%%%%%%%%%%%%%%%%%%%%%%%%%%%%%%%%%%%%%%%%%%%%%%%%%%%%%

     stopping ...

 %%%%%%%%%%%%%%%%%%%%%%%%%%%%%%%%%%%%%%%%%%%%%%%%%%%%%%%%%%%%%%%%%%%%%%%%%%%%%%
     Error in routine check_tempdir (1):
     temporary directory /home/STUDENTI/leonardo.razzai/WORK/relax_surf/ cannot be created or accessed
 %%%%%%%%%%%%%%%%%%%%%%%%%%%%%%%%%%%%%%%%%%%%%%%%%%%%%%%%%%%%%%%%%%%%%%%%%%%%%%

     stopping ...
     stopping ...
 %%%%%%%%%%%%%%%%%%%%%%%%%%%%%%%%%%%%%%%%%%%%%%%%%%%%%%%%%%%%%%%%%%%%%%%%%%%%%%
     Error in routine check_tempdir (1):
     temporary directory /home/STUDENTI/leonardo.razzai/WORK/relax_surf/ cannot be created or accessed
 %%%%%%%%%%%%%%%%%%%%%%%%%%%%%%%%%%%%%%%%%%%%%%%%%%%%%%%%%%%%%%%%%%%%%%%%%%%%%%

     stopping ...
MPI startup(): shm:dapl fabric is unknown or has been removed from the product, please use ofi or shm:ofi instead.

     Program PWSCF v.6.7MaX starts on  5Apr2023 at 18:33:44 

     This program is part of the open-source Quantum ESPRESSO suite
     for quantum simulation of materials; please cite
         "P. Giannozzi et al., J. Phys.:Condens. Matter 21 395502 (2009);
         "P. Giannozzi et al., J. Phys.:Condens. Matter 29 465901 (2017);
          URL http://www.quantum-espresso.org", 
     in publications or presentations arising from this work. More details at
     http://www.quantum-espresso.org/quote

     Parallel version (MPI), running on     8 processors

     MPI processes distributed on     1 nodes
     R & G space division:  proc/nbgrp/npool/nimage =       8
     Reading input from n_layers9.pwi

     Current dimensions of program PWSCF are:
     Max number of different atomic species (ntypx) = 10
     Max number of k-points (npk) =  40000
     Max angular momentum in pseudopotentials (lmaxx) =  3


 %%%%%%%%%%%%%%%%%%%%%%%%%%%%%%%%%%%%%%%%%%%%%%%%%%%%%%%%%%%%%%%%%%%%%%%%%%%%%%
     Error in routine check_tempdir (1):
     temporary directory /home/STUDENTI/leonardo.razzai/WORK/surf_111/ cannot be created or accessed

 %%%%%%%%%%%%%%%%%%%%%%%%%%%%%%%%%%%%%%%%%%%%%%%%%%%%%%%%%%%%%%%%%%%%%%%%%%%%%%
     Error in routine check_tempdir (1):
     temporary directory /home/STUDENTI/leonardo.razzai/WORK/surf_111/ cannot be created or accessed
 %%%%%%%%%%%%%%%%%%%%%%%%%%%%%%%%%%%%%%%%%%%%%%%%%%%%%%%%%%%%%%%%%%%%%%%%%%%%%%

     stopping ...

 %%%%%%%%%%%%%%%%%%%%%%%%%%%%%%%%%%%%%%%%%%%%%%%%%%%%%%%%%%%%%%%%%%%%%%%%%%%%%%
     Error in routine check_tempdir (1):
     temporary directory /home/STUDENTI/leonardo.razzai/WORK/surf_111/ cannot be created or accessed
 %%%%%%%%%%%%%%%%%%%%%%%%%%%%%%%%%%%%%%%%%%%%%%%%%%%%%%%%%%%%%%%%%%%%%%%%%%%%%%

     stopping ...

 %%%%%%%%%%%%%%%%%%%%%%%%%%%%%%%%%%%%%%%%%%%%%%%%%%%%%%%%%%%%%%%%%%%%%%%%%%%%%%
     Error in routine check_tempdir (1):
     temporary directory /home/STUDENTI/leonardo.razzai/WORK/surf_111/ cannot be created or accessed
 %%%%%%%%%%%%%%%%%%%%%%%%%%%%%%%%%%%%%%%%%%%%%%%%%%%%%%%%%%%%%%%%%%%%%%%%%%%%%%

     stopping ...

 %%%%%%%%%%%%%%%%%%%%%%%%%%%%%%%%%%%%%%%%%%%%%%%%%%%%%%%%%%%%%%%%%%%%%%%%%%%%%%
     Error in routine check_tempdir (1):
     temporary directory /home/STUDENTI/leonardo.razzai/WORK/surf_111/ cannot be created or accessed
 %%%%%%%%%%%%%%%%%%%%%%%%%%%%%%%%%%%%%%%%%%%%%%%%%%%%%%%%%%%%%%%%%%%%%%%%%%%%%%

     stopping ...

 %%%%%%%%%%%%%%%%%%%%%%%%%%%%%%%%%%%%%%%%%%%%%%%%%%%%%%%%%%%%%%%%%%%%%%%%%%%%%%
     Error in routine check_tempdir (1):
     temporary directory /home/STUDENTI/leonardo.razzai/WORK/surf_111/ cannot be created or accessed
 %%%%%%%%%%%%%%%%%%%%%%%%%%%%%%%%%%%%%%%%%%%%%%%%%%%%%%%%%%%%%%%%%%%%%%%%%%%%%%

     stopping ...
 %%%%%%%%%%%%%%%%%%%%%%%%%%%%%%%%%%%%%%%%%%%%%%%%%%%%%%%%%%%%%%%%%%%%%%%%%%%%%%

     stopping ...

 %%%%%%%%%%%%%%%%%%%%%%%%%%%%%%%%%%%%%%%%%%%%%%%%%%%%%%%%%%%%%%%%%%%%%%%%%%%%%%
     Error in routine check_tempdir (1):
     temporary directory /home/STUDENTI/leonardo.razzai/WORK/surf_111/ cannot be created or accessed
 %%%%%%%%%%%%%%%%%%%%%%%%%%%%%%%%%%%%%%%%%%%%%%%%%%%%%%%%%%%%%%%%%%%%%%%%%%%%%%

     stopping ...
 %%%%%%%%%%%%%%%%%%%%%%%%%%%%%%%%%%%%%%%%%%%%%%%%%%%%%%%%%%%%%%%%%%%%%%%%%%%%%%
     Error in routine check_tempdir (1):
     temporary directory /home/STUDENTI/leonardo.razzai/WORK/surf_111/ cannot be created or accessed
 %%%%%%%%%%%%%%%%%%%%%%%%%%%%%%%%%%%%%%%%%%%%%%%%%%%%%%%%%%%%%%%%%%%%%%%%%%%%%%

     stopping ...
MPI startup(): shm:dapl fabric is unknown or has been removed from the product, please use ofi or shm:ofi instead.

     Program PWSCF v.6.7MaX starts on  5Apr2023 at 20: 3:11 

     This program is part of the open-source Quantum ESPRESSO suite
     for quantum simulation of materials; please cite
         "P. Giannozzi et al., J. Phys.:Condens. Matter 21 395502 (2009);
         "P. Giannozzi et al., J. Phys.:Condens. Matter 29 465901 (2017);
          URL http://www.quantum-espresso.org", 
     in publications or presentations arising from this work. More details at
     http://www.quantum-espresso.org/quote

     Parallel version (MPI), running on     8 processors

     MPI processes distributed on     1 nodes
     R & G space division:  proc/nbgrp/npool/nimage =       8
     Reading input from n_layers9.pwi

     Current dimensions of program PWSCF are:
     Max number of different atomic species (ntypx) = 10
     Max number of k-points (npk) =  40000
     Max angular momentum in pseudopotentials (lmaxx) =  3

     File /home/STUDENTI/leonardo.razzai/Rh_work/surf_111/9-L.update deleted, as requested

     File /home/STUDENTI/leonardo.razzai/Rh_work/surf_111/9-L.bfgs deleted, as requested

     Subspace diagonalization in iterative solution of the eigenvalue problem:
     a serial algorithm will be used

 
     Parallelization info
     --------------------
     sticks:   dense  smooth     PW     G-vecs:    dense   smooth      PW
     Min          63      31     11                12632     4451     972
     Max          65      32     12                12645     4494     987
     Sum         511     253     91               101117    35839    7825
 


     bravais-lattice index     =            4
     lattice parameter (alat)  =       5.1228  a.u.
     unit-cell volume          =    1276.0194 (a.u.)^3
     number of atoms/cell      =            9
     number of atomic types    =            1
     number of electrons       =       135.00
     number of Kohn-Sham states=           82
     kinetic-energy cutoff     =      35.0000  Ry
     charge density cutoff     =     280.0000  Ry
     scf convergence threshold =      1.0E-06
     mixing beta               =       0.4000
     number of iterations used =            8  local-TF  mixing
     energy convergence thresh.=      1.0E-04
     force convergence thresh. =      1.0E-03
     Exchange-correlation=  SLA  PW   PBX  PBC
                           (   1   4   3   4   0   0   0)
     nstep                     =           50


     celldm(1)=   5.122776  celldm(2)=   0.000000  celldm(3)=  10.960000
     celldm(4)=   0.000000  celldm(5)=   0.000000  celldm(6)=   0.000000

     crystal axes: (cart. coord. in units of alat)
               a(1) = (   1.000000   0.000000   0.000000 )  
               a(2) = (  -0.500000   0.866025   0.000000 )  
               a(3) = (   0.000000   0.000000  10.960000 )  

     reciprocal axes: (cart. coord. in units 2 pi/alat)
               b(1) = (  1.000000  0.577350  0.000000 )  
               b(2) = (  0.000000  1.154701  0.000000 )  
               b(3) = (  0.000000  0.000000  0.091241 )  


     PseudoPot. # 1 for Rh read from file:
     /home/software/materia/pseudo/rh_pbe_v1.4.uspp.F.UPF
     MD5 check sum: 761627e959a2e3a1f56b0b5fe687810e
     Pseudo is Ultrasoft + core correction, Zval = 15.0
     Generated by new atomic code, or converted to UPF format
     Using radial grid of  969 points,  7 beta functions with: 
                l(1) =   0
                l(2) =   0
                l(3) =   1
                l(4) =   1
                l(5) =   2
                l(6) =   2
                l(7) =   2
     Q(r) pseudized with  8 coefficients,  rinner =    1.200   1.200   1.200
                                                       1.200   1.200

     atomic species   valence    mass     pseudopotential
        Rh            15.00   102.90500     Rh( 1.00)

     Starting magnetic structure 
     atomic species   magnetization
        Rh           0.010

      6 Sym. Ops. (no inversion) found



   Cartesian axes

     site n.     atom                  positions (alat units)
         1           Rh  tau(   1) = (   0.0000000   0.0000000   0.0000000  )
         2           Rh  tau(   2) = (   0.5000001  -0.2886752   0.8164967  )
         3           Rh  tau(   3) = (   0.5000001   0.2886752   1.6329934  )
         4           Rh  tau(   4) = (   0.0000000   0.0000000   2.4494902  )
         5           Rh  tau(   5) = (   0.5000001  -0.2886752   3.2659869  )
         6           Rh  tau(   6) = (   0.5000001   0.2886752   4.0824836  )
         7           Rh  tau(   7) = (   0.0000000   0.0000000   4.8989803  )
         8           Rh  tau(   8) = (   0.5000001  -0.2886752   5.7154770  )
         9           Rh  tau(   9) = (   0.5000001   0.2886752   6.5319738  )

     number of k points=    25  Gaussian smearing, width (Ry)=  0.0200
                       cart. coord. in units 2pi/alat
        k(    1) = (   0.0555556   0.0962250   0.0000000), wk =   0.0246914
        k(    2) = (   0.0555556   0.2245251   0.0000000), wk =   0.0493827
        k(    3) = (   0.0555556   0.3528252   0.0000000), wk =   0.0493827
        k(    4) = (   0.0555556   0.4811252   0.0000000), wk =   0.0493827
        k(    5) = (   0.0555556  -0.5452753   0.0000000), wk =   0.0493827
        k(    6) = (   0.0555556  -0.4169752   0.0000000), wk =   0.0493827
        k(    7) = (   0.0555556  -0.2886751   0.0000000), wk =   0.0493827
        k(    8) = (   0.0555556  -0.1603751   0.0000000), wk =   0.0493827
        k(    9) = (   0.0555556  -0.0320750   0.0000000), wk =   0.0246914
        k(   10) = (   0.1666667   0.2886751   0.0000000), wk =   0.0246914
        k(   11) = (   0.1666667   0.4169752   0.0000000), wk =   0.0493827
        k(   12) = (   0.1666667   0.5452753   0.0000000), wk =   0.0493827
        k(   13) = (   0.1666667  -0.4811252   0.0000000), wk =   0.0493827
        k(   14) = (   0.1666667  -0.3528252   0.0000000), wk =   0.0493827
        k(   15) = (   0.1666667  -0.2245251   0.0000000), wk =   0.0493827
        k(   16) = (   0.1666667  -0.0962250   0.0000000), wk =   0.0246914
        k(   17) = (   0.2777778   0.4811252   0.0000000), wk =   0.0246914
        k(   18) = (   0.2777778   0.6094253   0.0000000), wk =   0.0493827
        k(   19) = (   0.2777778  -0.4169752   0.0000000), wk =   0.0493827
        k(   20) = (   0.2777778  -0.2886751   0.0000000), wk =   0.0493827
        k(   21) = (   0.2777778  -0.1603751   0.0000000), wk =   0.0246914
        k(   22) = (   0.3888889   0.6735753   0.0000000), wk =   0.0246914
        k(   23) = (   0.3888889  -0.3528252   0.0000000), wk =   0.0493827
        k(   24) = (   0.3888889  -0.2245251   0.0000000), wk =   0.0246914
        k(   25) = (  -0.5000000  -0.8660254   0.0000000), wk =   0.0123457

     Dense  grid:   101117 G-vectors     FFT dimensions: (  27,  27, 300)

     Smooth grid:    35839 G-vectors     FFT dimensions: (  20,  20, 216)

     Estimated max dynamical RAM per process >     112.35 MB

     Estimated total dynamical RAM >     898.82 MB
     Generating pointlists ...
     new r_m :   0.4125 (alat units)  2.1131 (a.u.) for type    1

     Initial potential from superposition of free atoms

     starting charge  130.49911, renormalised to  135.00000

     negative rho (up, down):  2.540E-01 2.490E-01
     Starting wfcs are  108 randomized atomic wfcs

     total cpu time spent up to now is        6.1 secs

     Self-consistent Calculation

     iteration #  1     ecut=    35.00 Ry     beta= 0.40
     Davidson diagonalization with overlap
     ethr =  1.00E-02,  avg # of iterations =  3.0

     negative rho (up, down):  2.535E-01 2.511E-01

     total cpu time spent up to now is       20.2 secs

     total energy              =   -1540.89974369 Ry
     estimated scf accuracy    <       6.73958682 Ry

     total magnetization       =     0.49 Bohr mag/cell
     absolute magnetization    =     0.50 Bohr mag/cell

     iteration #  2     ecut=    35.00 Ry     beta= 0.40
     Davidson diagonalization with overlap
     ethr =  4.99E-03,  avg # of iterations =  1.0

     negative rho (up, down):  2.570E-01 2.567E-01

     total cpu time spent up to now is       30.6 secs

     total energy              =   -1540.50573038 Ry
     estimated scf accuracy    <       1.74509847 Ry

     total magnetization       =     0.45 Bohr mag/cell
     absolute magnetization    =     0.47 Bohr mag/cell

     iteration #  3     ecut=    35.00 Ry     beta= 0.40
     Davidson diagonalization with overlap
     ethr =  1.29E-03,  avg # of iterations =  2.0

     negative rho (up, down):  2.601E-01 2.613E-01

     total cpu time spent up to now is       42.6 secs

     total energy              =   -1540.56730619 Ry
     estimated scf accuracy    <       0.50470126 Ry

     total magnetization       =     0.38 Bohr mag/cell
     absolute magnetization    =     0.40 Bohr mag/cell

     iteration #  4     ecut=    35.00 Ry     beta= 0.40
     Davidson diagonalization with overlap
     ethr =  3.74E-04,  avg # of iterations =  2.0

     negative rho (up, down):  2.619E-01 2.631E-01

     total cpu time spent up to now is       54.7 secs

     total energy              =   -1540.61694987 Ry
     estimated scf accuracy    <       0.09573802 Ry

     total magnetization       =     0.31 Bohr mag/cell
     absolute magnetization    =     0.32 Bohr mag/cell

     iteration #  5     ecut=    35.00 Ry     beta= 0.40
     Davidson diagonalization with overlap
     ethr =  7.09E-05,  avg # of iterations =  5.5

     negative rho (up, down):  2.638E-01 2.650E-01

     total cpu time spent up to now is       67.4 secs

     total energy              =   -1540.61871500 Ry
     estimated scf accuracy    <       0.00418138 Ry

     total magnetization       =     0.27 Bohr mag/cell
     absolute magnetization    =     0.29 Bohr mag/cell

     iteration #  6     ecut=    35.00 Ry     beta= 0.40
     Davidson diagonalization with overlap
     c_bands:  1 eigenvalues not converged
     c_bands:  1 eigenvalues not converged
     ethr =  3.10E-06,  avg # of iterations =  7.7

     negative rho (up, down):  2.642E-01 2.653E-01

     total cpu time spent up to now is       82.2 secs

     total energy              =   -1540.61806817 Ry
     estimated scf accuracy    <       0.00622328 Ry

     total magnetization       =     0.21 Bohr mag/cell
     absolute magnetization    =     0.23 Bohr mag/cell

     iteration #  7     ecut=    35.00 Ry     beta= 0.40
     Davidson diagonalization with overlap
     ethr =  3.10E-06,  avg # of iterations =  3.8

     negative rho (up, down):  2.632E-01 2.640E-01

     total cpu time spent up to now is       94.9 secs

     total energy              =   -1540.61849496 Ry
     estimated scf accuracy    <       0.00053889 Ry

     total magnetization       =     0.16 Bohr mag/cell
     absolute magnetization    =     0.17 Bohr mag/cell

     iteration #  8     ecut=    35.00 Ry     beta= 0.40
     Davidson diagonalization with overlap
     ethr =  3.99E-07,  avg # of iterations =  7.0

     negative rho (up, down):  2.601E-01 2.602E-01

     total cpu time spent up to now is      111.8 secs

     total energy              =   -1540.61806892 Ry
     estimated scf accuracy    <       0.00255151 Ry

     total magnetization       =     0.10 Bohr mag/cell
     absolute magnetization    =     0.11 Bohr mag/cell

     iteration #  9     ecut=    35.00 Ry     beta= 0.40
     Davidson diagonalization with overlap
     c_bands:  1 eigenvalues not converged
     ethr =  3.99E-07,  avg # of iterations =  8.7

     negative rho (up, down):  2.592E-01 2.590E-01

     total cpu time spent up to now is      127.8 secs

     total energy              =   -1540.61790463 Ry
     estimated scf accuracy    <       0.00072118 Ry

     total magnetization       =     0.02 Bohr mag/cell
     absolute magnetization    =     0.06 Bohr mag/cell

     iteration # 10     ecut=    35.00 Ry     beta= 0.40
     Davidson diagonalization with overlap
     ethr =  3.99E-07,  avg # of iterations =  4.0

     negative rho (up, down):  2.584E-01 2.582E-01

     total cpu time spent up to now is      140.3 secs

     total energy              =   -1540.61783090 Ry
     estimated scf accuracy    <       0.00018344 Ry

     total magnetization       =    -0.00 Bohr mag/cell
     absolute magnetization    =     0.05 Bohr mag/cell

     iteration # 11     ecut=    35.00 Ry     beta= 0.40
     Davidson diagonalization with overlap
     ethr =  1.36E-07,  avg # of iterations =  5.0

     negative rho (up, down):  2.584E-01 2.582E-01

     total cpu time spent up to now is      155.6 secs

     total energy              =   -1540.61785442 Ry
     estimated scf accuracy    <       0.00003988 Ry

     total magnetization       =    -0.02 Bohr mag/cell
     absolute magnetization    =     0.04 Bohr mag/cell

     iteration # 12     ecut=    35.00 Ry     beta= 0.40
     Davidson diagonalization with overlap
     ethr =  2.95E-08,  avg # of iterations =  1.2

     negative rho (up, down):  2.583E-01 2.582E-01

     total cpu time spent up to now is      166.2 secs

     total energy              =   -1540.61784953 Ry
     estimated scf accuracy    <       0.00002964 Ry

     total magnetization       =    -0.02 Bohr mag/cell
     absolute magnetization    =     0.04 Bohr mag/cell

     iteration # 13     ecut=    35.00 Ry     beta= 0.40
     Davidson diagonalization with overlap
     ethr =  2.20E-08,  avg # of iterations =  1.3

     negative rho (up, down):  2.584E-01 2.582E-01

     total cpu time spent up to now is      176.9 secs

     total energy              =   -1540.61785161 Ry
     estimated scf accuracy    <       0.00000237 Ry

     total magnetization       =    -0.02 Bohr mag/cell
     absolute magnetization    =     0.02 Bohr mag/cell

     iteration # 14     ecut=    35.00 Ry     beta= 0.40
     Davidson diagonalization with overlap
     ethr =  1.76E-09,  avg # of iterations =  1.9

     negative rho (up, down):  2.584E-01 2.583E-01
 
     Magnetic moment per site:
     atom:    1    charge:   13.1753    magn:   -0.0001    constr:    0.0000
     atom:    2    charge:   13.2364    magn:   -0.0014    constr:    0.0000
     atom:    3    charge:   13.2472    magn:   -0.0026    constr:    0.0000
     atom:    4    charge:   13.2496    magn:   -0.0030    constr:    0.0000
     atom:    5    charge:   13.2483    magn:   -0.0028    constr:    0.0000
     atom:    6    charge:   13.2493    magn:   -0.0030    constr:    0.0000
     atom:    7    charge:   13.2475    magn:   -0.0026    constr:    0.0000
     atom:    8    charge:   13.2358    magn:   -0.0014    constr:    0.0000
     atom:    9    charge:   13.1754    magn:   -0.0001    constr:    0.0000

     total cpu time spent up to now is      187.8 secs

     End of self-consistent calculation

 ------ SPIN UP ------------


          k = 0.0556 0.0962 0.0000 (  4451 PWs)   bands (ev):

   -34.7942 -34.7494 -34.6494 -34.5339 -34.4195 -34.3188 -34.2956 -34.2941
   -34.2772 -34.2730 -34.2616 -34.2610 -34.2418 -34.2398 -34.2364 -34.2203
   -34.2079 -34.2060 -34.1860 -34.1836 -34.1719 -33.8858 -33.8852 -33.8616
   -33.8613 -33.8295 -33.8294   4.8214   5.1430   5.6356   6.1827   6.5416
     6.5956   6.6223   6.9682   6.9853   8.7099   8.7248   8.9326   8.9661
     8.9754   9.0792   9.1901   9.2769   9.3434   9.4232   9.4289   9.4867
     9.5034   9.5478   9.5578   9.5810   9.6444   9.6626   9.7409   9.7802
     9.8092   9.8599  10.0892  10.1052  10.2526  10.8293  10.8705  10.8707
    11.0459  11.0984  11.2617  11.3148  11.3893  11.4510  11.5580  11.6257
    11.8282  11.9379  12.2410  12.3693  12.5377  12.6693  12.9315  13.6289
    14.3052  14.7080

          k = 0.0556 0.2245 0.0000 (  4420 PWs)   bands (ev):

   -34.7399 -34.7098 -34.6350 -34.5571 -34.4889 -34.4392 -34.4133 -34.4009
   -34.3775 -34.3693 -34.3400 -34.3077 -34.3058 -34.2956 -34.2799 -34.2613
   -34.2532 -34.2402 -34.2230 -34.2049 -34.1924 -33.9883 -33.9879 -33.8734
   -33.8731 -33.8626 -33.8625   5.7447   6.0080   6.4151   6.8781   7.1258
     7.1907   7.3635   7.6178   7.6782   8.0158   8.2578   8.3930   8.4104
     8.5273   8.6381   8.7111   8.7877   9.1408   9.3288   9.4138   9.5009
     9.5643   9.6661   9.6830   9.7139   9.8217   9.8447  10.0023  10.1283
    10.1649  10.2467  10.3971  10.4701  10.5464  10.5685  10.6271  10.7315
    10.8400  10.9342  11.0563  11.1538  11.4539  11.5611  11.6002  11.7833
    12.0055  12.1790  12.5143  12.5199  12.6862  13.2485  14.1652  15.1632
    16.0848  16.8018

          k = 0.0556 0.3528 0.0000 (  4467 PWs)   bands (ev):

   -34.7017 -34.6815 -34.6682 -34.6558 -34.6132 -34.5992 -34.5679 -34.5451
   -34.5110 -34.4473 -34.3890 -34.3620 -34.3576 -34.3383 -34.3311 -34.3109
   -34.2959 -34.2756 -34.2622 -34.2381 -34.2236 -34.1439 -34.1437 -33.9067
   -33.9066 -33.8621 -33.8618   6.5476   6.7590   6.8593   6.9166   6.9871
     7.1493   7.2020   7.3757   7.4582   7.6831   7.7895   7.9536   8.0883
     8.4493   8.7041   8.8825   9.0562   9.2074   9.3542   9.4596   9.5309
     9.5570   9.5781   9.8105   9.8522  10.1680  10.1862  10.4275  10.5744
    10.6109  10.7178  10.9000  11.1008  11.2477  11.3531  11.4034  11.5217
    11.6859  11.7379  11.8017  11.9600  12.1021  12.1494  12.2873  12.3364
    12.3787  12.4275  12.5952  12.7801  13.2191  14.2860  15.4696  16.6946
    17.8532  18.8545

          k = 0.0556 0.4811 0.0000 (  4463 PWs)   bands (ev):

   -34.7876 -34.7704 -34.7564 -34.7392 -34.7254 -34.7003 -34.6813 -34.5320
   -34.5063 -34.4500 -34.4122 -34.4039 -34.3933 -34.3833 -34.3649 -34.3462
   -34.3334 -34.3045 -34.2928 -34.2640 -34.2589 -34.2451 -34.2418 -33.9398
   -33.9397 -33.8537 -33.8532   6.3736   6.4815   6.5578   6.6975   6.7203
     6.8265   6.9024   7.0252   7.1242   7.2576   7.4921   7.5194   7.7799
     8.2631   8.6059   8.9206   9.0843   9.2571   9.3186   9.5447   9.5677
     9.7262   9.9727  10.2438  10.2945  10.4926  10.8959  10.9841  11.1174
    11.5411  11.6380  11.9135  11.9652  12.0801  12.3068  12.3891  12.4229
    12.4639  12.5071  12.5316  12.6205  12.6617  12.8070  12.8940  13.0167
    13.3713  13.8024  14.1871  14.3091  14.6152  15.4631  16.5604  17.7057
    18.7517  20.2296

          k = 0.0556-0.5453 0.0000 (  4486 PWs)   bands (ev):

   -34.8156 -34.7981 -34.7782 -34.7603 -34.7554 -34.7219 -34.7153 -34.5048
   -34.4968 -34.4448 -34.4200 -34.4132 -34.4060 -34.3982 -34.3749 -34.3535
   -34.3442 -34.3118 -34.3012 -34.2731 -34.2717 -34.2611 -34.2573 -33.9475
   -33.9473 -33.8520 -33.8515   6.2527   6.4312   6.4600   6.5967   6.6676
     6.7472   6.8004   6.9832   7.0300   7.1649   7.4066   7.4309   7.7081
     8.2256   8.5925   8.8353   9.0145   9.1867   9.2696   9.5137   9.7080
     9.8024   9.9530  10.4337  10.4587  10.4715  11.0541  11.1877  11.2583
    11.6719  11.8848  12.1280  12.2125  12.3492  12.4258  12.5736  12.6533
    12.6926  12.7255  12.7682  12.8136  12.8451  12.9540  13.0523  13.1255
    13.9707  14.5859  15.2388  15.6867  15.7402  15.9002  16.4226  17.0013
    17.4046  20.0578

          k = 0.0556-0.4170 0.0000 (  4465 PWs)   bands (ev):

   -34.7364 -34.7275 -34.7168 -34.7023 -34.6734 -34.6543 -34.6234 -34.5680
   -34.5185 -34.4518 -34.4005 -34.3862 -34.3792 -34.3614 -34.3494 -34.3315
   -34.3162 -34.2915 -34.2796 -34.2532 -34.2413 -34.2049 -34.2044 -33.9259
   -33.9258 -33.8572 -33.8568   6.5518   6.5933   6.7342   6.7834   6.8980
     6.9624   7.0695   7.1106   7.2739   7.4384   7.6138   7.7142   7.9078
     8.3479   8.6413   8.9958   9.2389   9.2943   9.3750   9.4104   9.5401
     9.6589   9.7892  10.0560  10.0810  10.3023  10.5375  10.6349  10.9881
    11.0905  11.2815  11.4078  11.4976  11.7649  11.8530  11.9428  12.0128
    12.0784  12.1557  12.2498  12.3181  12.4825  12.5046  12.6466  12.7348
    12.8731  12.9845  13.0943  13.1715  13.7896  14.8740  16.1045  17.3855
    18.6332  19.7468

          k = 0.0556-0.2887 0.0000 (  4439 PWs)   bands (ev):

   -34.7084 -34.6886 -34.6399 -34.5984 -34.5557 -34.5211 -34.4921 -34.4725
   -34.4529 -34.4233 -34.3720 -34.3339 -34.3322 -34.3177 -34.3065 -34.2852
   -34.2746 -34.2583 -34.2427 -34.2209 -34.2066 -34.0679 -34.0677 -33.8845
   -33.8844 -33.8673 -33.8672   6.2717   6.4728   6.7504   7.0204   7.1199
     7.2822   7.5130   7.5685   7.7928   7.8376   8.0487   8.0918   8.2869
     8.4836   8.4938   8.7144   8.8858   8.9351   9.2185   9.4454   9.5521
     9.6133   9.6482   9.7049   9.8176   9.8805   9.9911  10.0626  10.1729
    10.3489  10.5714  10.6029  10.6585  10.7759  10.9167  10.9569  11.1127
    11.1656  11.2071  11.4464  11.5402  11.6305  11.8167  11.8458  11.9244
    12.1391  12.2505  12.5352  12.7234  12.8315  13.7477  14.8164  15.9394
    16.9850  17.8596

          k = 0.0556-0.1604 0.0000 (  4443 PWs)   bands (ev):

   -34.7712 -34.7320 -34.6415 -34.5396 -34.4430 -34.3678 -34.3459 -34.3366
   -34.3208 -34.3111 -34.2885 -34.2816 -34.2785 -34.2716 -34.2550 -34.2420
   -34.2321 -34.2209 -34.2033 -34.1919 -34.1815 -33.9178 -33.9176 -33.8787
   -33.8784 -33.8437 -33.8435   5.2181   5.5220   5.9914   6.5229   6.8536
     6.8966   6.9546   7.2860   7.3088   8.3894   8.5188   8.6525   8.7117
     8.7932   8.8384   8.9226   9.0472   9.2911   9.3433   9.4980   9.5693
     9.5809   9.6146   9.7069   9.7161   9.7522   9.8023   9.8280   9.8601
     9.9636  10.0226  10.0970  10.2282  10.3668  10.3840  10.7083  10.7691
    10.8693  10.9600  10.9726  11.1430  11.3544  11.4250  11.5366  11.7442
    11.8214  12.2032  12.2287  12.5119  12.6554  12.7932  13.5246  14.3799
    15.1734  15.7239

          k = 0.0556-0.0321 0.0000 (  4465 PWs)   bands (ev):

   -34.8064 -34.7589 -34.6547 -34.5331 -34.4119 -34.2994 -34.2711 -34.2684
   -34.2618 -34.2592 -34.2477 -34.2385 -34.2315 -34.2221 -34.2141 -34.2039
   -34.2028 -34.1837 -34.1817 -34.1758 -34.1646 -33.8878 -33.8875 -33.8334
   -33.8333 -33.8222 -33.8219   4.6117   4.9396   5.4394   5.9896   6.3633
     6.4143   6.4478   6.7860   6.8005   8.8782   8.9076   9.0949   9.1136
     9.1216   9.2105   9.2688   9.2951   9.3259   9.3359   9.3547   9.3616
     9.4486   9.4869   9.4978   9.5527   9.5868   9.6023   9.6230   9.7660
     9.8590   9.9549   9.9570   9.9592  10.6183  11.0018  11.0034  11.1565
    11.1652  11.2763  11.2957  11.3606  11.4018  11.4827  11.6431  11.7757
    11.9627  11.9861  12.0738  12.3331  12.4265  12.5807  12.7199  13.0288
    13.6358  13.9349

          k = 0.1667 0.2887 0.0000 (  4425 PWs)   bands (ev):

   -34.6822 -34.6791 -34.6489 -34.6172 -34.5813 -34.5542 -34.5332 -34.5067
   -34.4920 -34.4491 -34.3915 -34.3579 -34.3494 -34.3347 -34.3167 -34.3141
   -34.2974 -34.2813 -34.2765 -34.2630 -34.2098 -34.1001 -34.1000 -33.9175
   -33.9174 -33.8630 -33.8629   6.7600   6.8534   7.0234   7.2556   7.5292
     7.7267   7.7324   7.7833   7.8447   7.8787   7.9755   8.0125   8.1241
     8.2585   8.3485   8.4099   8.8496   8.9005   8.9321   9.0343   9.2020
     9.3379   9.4068   9.4187   9.4413   9.4995  10.0667  10.0743  10.2385
    10.3203  10.4694  10.5274  10.9150  10.9488  11.0016  11.1891  11.4298
    11.5195  11.6495  11.8047  12.0188  12.1101  12.2061  12.3446  12.3545
    12.3966  12.4707  12.5649  12.5820  13.3231  14.2942  15.3697  16.5142
    17.6084  19.2343

          k = 0.1667 0.4170 0.0000 (  4459 PWs)   bands (ev):

   -34.7197 -34.7071 -34.7015 -34.6873 -34.6636 -34.6430 -34.6269 -34.5762
   -34.5270 -34.4653 -34.4275 -34.4227 -34.4078 -34.3892 -34.3759 -34.3692
   -34.3436 -34.3434 -34.3118 -34.2906 -34.2431 -34.1967 -34.1965 -33.9802
   -33.9800 -33.8539 -33.8536   6.9241   6.9840   7.0872   7.1904   7.2863
     7.3373   7.5031   7.5313   7.6003   7.7584   7.8134   8.0603   8.1451
     8.3627   8.4721   8.6729   8.8594   8.8975   9.0373   9.1609   9.2496
     9.4576   9.5977   9.8024   9.8764  10.0169  10.0762  10.2455  10.3795
    10.5140  10.7887  11.0038  11.1066  11.1576  11.3321  11.3826  11.6676
    11.7462  12.0293  12.5009  12.5935  12.7224  12.7912  12.8386  12.9961
    13.9986  14.1339  14.2292  14.4780  15.0353  15.9189  16.9934  18.1639
    19.3298  20.3931

          k = 0.1667 0.5453 0.0000 (  4490 PWs)   bands (ev):

   -34.7784 -34.7619 -34.7370 -34.7236 -34.7210 -34.6885 -34.6851 -34.5205
   -34.5087 -34.4816 -34.4722 -34.4658 -34.4466 -34.4247 -34.3963 -34.3862
   -34.3748 -34.3522 -34.3350 -34.3011 -34.2744 -34.2425 -34.2424 -34.0143
   -34.0142 -33.8489 -33.8487   6.6123   6.8403   6.9003   7.0542   7.1159
     7.1732   7.2295   7.4430   7.5162   7.5525   7.7930   7.9076   8.0409
     8.2607   8.3596   8.5345   8.6609   9.0061   9.2581   9.3709   9.5198
     9.7245   9.8255   9.8577  10.1842  10.2405  10.2923  10.6688  10.7689
    11.0994  11.1281  11.2186  11.4778  11.7574  11.9202  12.0275  12.1342
    12.2041  12.3446  12.4952  12.5565  12.6327  12.7848  12.9010  12.9977
    15.8295  16.1465  16.5014  16.8064  17.1225  17.5154  17.9212  18.2225
    18.3880  20.3518

          k = 0.1667-0.4811 0.0000 (  4476 PWs)   bands (ev):

   -34.7576 -34.7408 -34.7253 -34.7109 -34.7007 -34.6720 -34.6653 -34.5470
   -34.5176 -34.4697 -34.4533 -34.4493 -34.4322 -34.4139 -34.3892 -34.3868
   -34.3603 -34.3521 -34.3235 -34.2999 -34.2611 -34.2270 -34.2269 -34.0024
   -34.0023 -33.8505 -33.8505   6.7233   6.9238   6.9311   7.1456   7.1545
     7.1979   7.3494   7.4822   7.5445   7.6281   7.8100   7.9623   8.0819
     8.2688   8.4410   8.6445   8.7543   8.8869   9.1930   9.2912   9.5490
     9.6267   9.7414   9.9137   9.9856  10.0451  10.3059  10.5092  10.6808
    10.8668  10.9084  11.0586  11.3746  11.5853  11.6596  11.7143  11.8248
    11.8765  12.1569  12.5298  12.6523  12.7496  12.8487  12.9531  13.0918
    14.9558  15.1636  15.3752  15.6571  16.1513  16.8900  17.8022  18.7738
    19.6260  20.5846

          k = 0.1667-0.3528 0.0000 (  4458 PWs)   bands (ev):

   -34.6845 -34.6799 -34.6635 -34.6600 -34.6241 -34.6050 -34.5832 -34.5728
   -34.5229 -34.4624 -34.4053 -34.3904 -34.3816 -34.3607 -34.3492 -34.3350
   -34.3279 -34.3203 -34.2979 -34.2769 -34.2255 -34.1534 -34.1532 -33.9505
   -33.9503 -33.8585 -33.8584   7.0156   7.1087   7.1805   7.2537   7.3816
     7.4726   7.5640   7.6494   7.7043   7.8259   7.9891   8.1114   8.2041
     8.3069   8.4356   8.5981   8.7075   8.8172   8.9887   9.1756   9.2206
     9.2510   9.3491   9.5419   9.7002   9.7448   9.9895  10.0034  10.2075
    10.4850  10.5947  10.7007  10.8904  11.0909  11.1497  11.2893  11.5717
    11.6399  11.8801  12.3003  12.3622  12.4851  12.5303  12.5975  12.7705
    13.1034  13.1777  13.2426  13.4109  14.0348  15.0107  16.1244  17.3100
    18.4632  19.5051

          k = 0.1667-0.2245 0.0000 (  4433 PWs)   bands (ev):

   -34.7125 -34.6926 -34.6368 -34.5819 -34.5326 -34.4956 -34.4687 -34.4500
   -34.4329 -34.4185 -34.3727 -34.3307 -34.3235 -34.3144 -34.2975 -34.2836
   -34.2683 -34.2577 -34.2493 -34.2352 -34.1991 -34.0430 -34.0428 -33.8871
   -33.8870 -33.8684 -33.8683   6.2229   6.4307   6.7545   7.1380   7.4076
     7.4875   7.6276   7.7531   7.8696   7.9634   8.0781   8.1570   8.2025
     8.3345   8.4469   8.5791   8.6562   8.8893   9.1433   9.1953   9.2939
     9.4067   9.4688   9.5945   9.6632   9.6822   9.8939  10.0120  10.1938
    10.4239  10.4455  10.5485  10.6115  10.7230  10.8704  10.9135  11.0431
    11.1662  11.2029  11.4888  11.5365  11.5866  11.8552  11.8920  11.8996
    12.0584  12.2091  12.3937  12.5544  12.8724  13.7322  14.7245  15.7965
    16.8068  17.6522

          k = 0.1667-0.0962 0.0000 (  4427 PWs)   bands (ev):

   -34.7611 -34.7243 -34.6385 -34.5443 -34.4580 -34.3943 -34.3737 -34.3574
   -34.3421 -34.3249 -34.3019 -34.2949 -34.2914 -34.2761 -34.2691 -34.2493
   -34.2419 -34.2283 -34.2053 -34.1946 -34.1837 -33.9438 -33.9437 -33.8770
   -33.8766 -33.8483 -33.8482   5.3984   5.6899   6.1400   6.6481   6.9454
     6.9730   7.1161   7.4079   7.4435   8.1994   8.4526   8.5479   8.6070
     8.7051   8.7929   8.8472   8.9428   9.3459   9.3872   9.4836   9.5956
     9.6041   9.6452   9.7163   9.7791   9.8423   9.8492   9.9353   9.9877
    10.0435  10.0514  10.0816  10.2240  10.3720  10.4761  10.5466  10.7287
    10.7411  10.9066  11.0120  11.1401  11.2797  11.5001  11.5145  11.7083
    12.0156  12.0873  12.3588  12.6193  12.7738  12.8419  13.7239  14.6605
    15.5070  16.1180

          k = 0.2778 0.4811 0.0000 (  4485 PWs)   bands (ev):

   -34.7128 -34.7119 -34.6985 -34.6951 -34.6646 -34.6563 -34.6176 -34.6020
   -34.5724 -34.5296 -34.5012 -34.4954 -34.4716 -34.4573 -34.4265 -34.4216
   -34.3774 -34.3563 -34.3382 -34.3164 -34.2814 -34.2046 -34.2045 -34.0742
   -34.0740 -33.8478 -33.8475   7.1552   7.1596   7.3112   7.3355   7.4480
     7.6298   7.8129   7.8743   7.9386   7.9518   8.0841   8.1028   8.2326
     8.2602   8.3804   8.4219   8.6931   8.7805   8.9440   9.0598   9.2245
     9.3662   9.5613   9.6483   9.9060   9.9089  10.1376  10.1381  10.5747
    10.6565  10.7236  10.8429  11.0793  11.1115  11.2779  11.3023  11.6241
    11.8777  12.2061  12.4911  12.6675  12.6925  12.6946  12.8239  12.9885
    16.3193  16.4532  16.7265  17.1456  17.7247  18.4698  19.3404  20.2317
    20.6968  20.7802

          k = 0.2778 0.6094 0.0000 (  4491 PWs)   bands (ev):

   -34.7136 -34.6976 -34.6854 -34.6753 -34.6572 -34.6523 -34.6352 -34.5972
   -34.5754 -34.5627 -34.5455 -34.5223 -34.5193 -34.4794 -34.4253 -34.4213
   -34.3679 -34.3569 -34.3394 -34.3214 -34.3012 -34.1961 -34.1959 -34.1069
   -34.1067 -33.8462 -33.8458   7.1156   7.3155   7.3752   7.5199   7.5732
     7.6383   7.7606   7.8497   7.9254   7.9320   8.0768   8.1369   8.1864
     8.2199   8.3392   8.4967   8.5868   8.9071   8.9670   9.1855   9.2793
     9.3734   9.4382   9.6520   9.8352   9.8744  10.1852  10.1929  10.5475
    10.6607  10.8212  10.9504  11.0481  11.1593  11.2962  11.3505  11.9463
    12.0927  12.2754  12.3644  12.4779  12.5316  12.5811  12.6345  12.7652
    17.5194  17.7052  18.0128  18.3852  18.7278  19.0359  19.3925  19.7972
    20.2222  20.3384

          k = 0.2778-0.4170 0.0000 (  4462 PWs)   bands (ev):

   -34.7234 -34.7106 -34.7058 -34.6938 -34.6708 -34.6570 -34.6338 -34.5795
   -34.5424 -34.4911 -34.4599 -34.4564 -34.4398 -34.4201 -34.4125 -34.3927
   -34.3790 -34.3554 -34.3332 -34.3026 -34.2604 -34.2062 -34.2061 -34.0282
   -34.0279 -33.8501 -33.8499   7.0042   7.1409   7.1769   7.3191   7.3647
     7.5032   7.6066   7.7049   7.7834   7.8935   8.0854   8.1162   8.2087
     8.3365   8.5445   8.5578   8.5887   8.7377   8.9642   9.0122   9.2559
     9.3854   9.5358   9.7738   9.9238   9.9523  10.1520  10.1746  10.3363
    10.5187  10.7560  10.9035  11.0680  11.1792  11.3095  11.3593  11.5204
    11.6887  12.1166  12.5302  12.7450  12.7794  12.8437  12.9311  13.0941
    15.1527  15.2411  15.4284  15.7754  16.3418  17.1463  18.1265  19.1992
    20.2591  21.1529

          k = 0.2778-0.2887 0.0000 (  4463 PWs)   bands (ev):

   -34.7034 -34.7020 -34.6829 -34.6791 -34.6397 -34.6259 -34.5937 -34.5793
   -34.5216 -34.4548 -34.4019 -34.3883 -34.3832 -34.3600 -34.3463 -34.3399
   -34.3243 -34.3001 -34.2819 -34.2707 -34.2309 -34.1754 -34.1753 -33.9380
   -33.9379 -33.8578 -33.8577   6.7625   6.8923   6.9781   7.0085   7.1737
     7.1830   7.2837   7.3790   7.4985   7.6435   7.8018   8.0079   8.0502
     8.3473   8.5479   8.8669   8.9098   9.1579   9.1946   9.2907   9.3936
     9.5216   9.6366   9.7330   9.8490  10.0686  10.1935  10.3597  10.5246
    10.5534  10.7666  10.9880  11.1627  11.2364  11.2800  11.4545  11.7691
    11.7807  12.0742  12.2196  12.3642  12.4258  12.5373  12.6169  12.7969
    12.9462  13.1405  13.1711  13.3217  13.9384  14.9449  16.1026  17.3290
    18.5204  19.5798

          k = 0.2778-0.1604 0.0000 (  4458 PWs)   bands (ev):

   -34.7035 -34.6818 -34.6491 -34.6263 -34.5876 -34.5603 -34.5289 -34.5030
   -34.4868 -34.4355 -34.3791 -34.3450 -34.3401 -34.3291 -34.3156 -34.2913
   -34.2808 -34.2666 -34.2404 -34.2230 -34.2162 -34.1054 -34.1052 -33.8893
   -33.8891 -33.8653 -33.8650   6.3791   6.5796   6.7934   6.8954   6.9745
     7.1640   7.3374   7.4295   7.5748   7.7373   7.8912   7.9692   8.2081
     8.5195   8.7260   8.8646   9.0499   9.1865   9.3413   9.4723   9.5552
     9.6037   9.6589   9.8007   9.9018  10.1178  10.1655  10.3542  10.4627
    10.4685  10.6113  10.7071  10.8925  11.0773  11.1079  11.2099  11.2528
    11.2948  11.3933  11.4504  11.6191  11.7387  11.8417  11.9445  11.9553
    12.0911  12.3850  12.6647  12.8307  12.8440  13.8959  15.0521  16.2366
    17.3382  18.2687

          k = 0.3889 0.6736 0.0000 (  4511 PWs)   bands (ev):

   -34.7506 -34.7336 -34.7048 -34.6981 -34.6928 -34.6693 -34.6626 -34.5507
   -34.5415 -34.5250 -34.5157 -34.5068 -34.4769 -34.4418 -34.4226 -34.4120
   -34.3687 -34.3681 -34.3423 -34.3097 -34.2898 -34.2227 -34.2226 -34.0643
   -34.0643 -33.8472 -33.8471   6.8383   7.0613   7.2256   7.3767   7.3980
     7.4304   7.5687   7.6404   7.7280   7.8220   8.0229   8.0477   8.1944
     8.3296   8.3652   8.4042   8.5325   8.7586   9.0334   9.2206   9.4643
     9.5940   9.7041   9.8153   9.9002  10.1436  10.2409  10.3825  10.6297
    10.6707  10.6942  11.0153  11.2684  11.4550  11.6003  11.7042  12.1268
    12.1759  12.2633  12.3527  12.5064  12.5229  12.6925  12.7834  12.8076
    17.0401  17.2533  17.5031  17.7406  17.9827  18.2581  18.5701  18.8797
    19.1452  20.4853

          k = 0.3889-0.3528 0.0000 (  4485 PWs)   bands (ev):

   -34.7916 -34.7744 -34.7548 -34.7390 -34.7320 -34.7012 -34.6926 -34.5188
   -34.5010 -34.4532 -34.4376 -34.4330 -34.4169 -34.3940 -34.3878 -34.3695
   -34.3537 -34.3240 -34.3134 -34.2879 -34.2640 -34.2496 -34.2482 -33.9710
   -33.9709 -33.8514 -33.8511   6.4525   6.6381   6.6638   6.8005   6.8718
     6.9523   7.0007   7.2043   7.2792   7.3158   7.6173   7.6701   7.8329
     8.2260   8.4995   8.7455   8.9083   9.2369   9.3370   9.4565   9.5188
     9.6520   9.9071  10.0910  10.2205  10.4858  10.6676  10.8005  11.0661
    11.2918  11.5625  11.5944  11.7063  11.9770  12.1724  12.2280  12.2581
    12.2892  12.3660  12.5666  12.6294  12.7343  12.8319  12.9714  13.0945
    14.5579  14.9387  15.3228  15.5566  15.8421  16.4125  17.1792  17.9520
    18.5220  20.2830

          k = 0.3889-0.2245 0.0000 (  4444 PWs)   bands (ev):

   -34.7675 -34.7511 -34.7438 -34.7246 -34.7045 -34.6832 -34.6559 -34.5495
   -34.5126 -34.4508 -34.4037 -34.3877 -34.3814 -34.3682 -34.3552 -34.3278
   -34.3200 -34.2999 -34.2717 -34.2586 -34.2458 -34.2301 -34.2281 -33.9248
   -33.9246 -33.8557 -33.8550   6.4120   6.4521   6.5746   6.6841   6.7423
     6.8232   6.9431   6.9803   7.1270   7.3073   7.4820   7.5314   7.8208
     8.3194   8.6695   9.0128   9.1862   9.2650   9.3531   9.5692   9.5781
     9.7218   9.9556  10.1619  10.3402  10.4330  10.8268  10.9635  11.1215
    11.4906  11.6204  11.9325  11.9585  12.1721  12.2337  12.2741  12.3233
    12.3754  12.4155  12.4745  12.5193  12.5876  12.6577  12.7721  12.8576
    12.8855  12.9537  13.2439  13.2816  13.8304  14.9628  16.2193  17.5068
    18.7619  19.9997

          k =-0.5000-0.8660 0.0000 (  4492 PWs)   bands (ev):

   -34.8234 -34.8074 -34.7876 -34.7666 -34.7659 -34.7263 -34.7258 -34.5016
   -34.4967 -34.4386 -34.4142 -34.4063 -34.4058 -34.3982 -34.3708 -34.3442
   -34.3420 -34.3131 -34.2856 -34.2844 -34.2714 -34.2594 -34.2577 -33.9390
   -33.9389 -33.8525 -33.8519   6.1781   6.3605   6.3837   6.5320   6.5932
     6.6660   6.7430   6.9057   6.9378   7.1156   7.3229   7.3476   7.6708
     8.2172   8.6277   8.8704   9.0466   9.1340   9.2443   9.4791   9.8771
     9.9040   9.9472  10.3850  10.5805  10.6400  10.9612  11.4411  11.4858
    11.5576  12.0947  12.3133  12.3538  12.4746  12.6694  12.7557  12.7706
    12.8096  12.8590  12.9123  12.9328  12.9819  13.0830  13.2540  13.2575
    13.4586  14.3551  15.1731  15.6535  15.8272  16.0879  16.2672  16.4205
    16.4811  19.9737

 ------ SPIN DOWN ----------


          k = 0.0556 0.0962 0.0000 (  4451 PWs)   bands (ev):

   -34.7979 -34.7526 -34.6524 -34.5370 -34.4226 -34.3219 -34.2985 -34.2978
   -34.2806 -34.2760 -34.2646 -34.2645 -34.2453 -34.2433 -34.2403 -34.2237
   -34.2121 -34.2097 -34.1901 -34.1876 -34.1761 -33.8861 -33.8855 -33.8617
   -33.8614 -33.8296 -33.8295   4.8216   5.1431   5.6356   6.1826   6.5402
     6.5944   6.6209   6.9679   6.9849   8.7075   8.7224   8.9308   8.9633
     8.9729   9.0767   9.1883   9.2748   9.3414   9.4202   9.4258   9.4845
     9.5010   9.5455   9.5554   9.5787   9.6423   9.6609   9.7382   9.7774
     9.8081   9.8592  10.0886  10.1047  10.2517  10.8278  10.8674  10.8675
    11.0430  11.0960  11.2598  11.3117  11.3879  11.4488  11.5563  11.6238
    11.8264  11.9354  12.2394  12.3666  12.5364  12.6663  12.9294  13.6274
    14.3044  14.7070

          k = 0.0556 0.2245 0.0000 (  4420 PWs)   bands (ev):

   -34.7436 -34.7130 -34.6383 -34.5603 -34.4920 -34.4419 -34.4165 -34.4045
   -34.3811 -34.3727 -34.3437 -34.3110 -34.3091 -34.2989 -34.2834 -34.2647
   -34.2570 -34.2437 -34.2270 -34.2090 -34.1965 -33.9884 -33.9880 -33.8737
   -33.8733 -33.8627 -33.8625   5.7448   6.0080   6.4149   6.8777   7.1240
     7.1894   7.3623   7.6172   7.6774   8.0137   8.2559   8.3907   8.4082
     8.5252   8.6366   8.7089   8.7860   9.1391   9.3268   9.4127   9.4994
     9.5628   9.6634   9.6805   9.7119   9.8199   9.8422  10.0002  10.1258
    10.1625  10.2442  10.3949  10.4681  10.5445  10.5664  10.6251  10.7293
    10.8378  10.9323  11.0550  11.1521  11.4516  11.5588  11.5975  11.7811
    12.0029  12.1773  12.5128  12.5173  12.6833  13.2465  14.1635  15.1620
    16.0840  16.8008

          k = 0.0556 0.3528 0.0000 (  4467 PWs)   bands (ev):

   -34.7053 -34.6848 -34.6720 -34.6591 -34.6166 -34.6020 -34.5707 -34.5490
   -34.5142 -34.4506 -34.3923 -34.3653 -34.3606 -34.3420 -34.3344 -34.3144
   -34.2995 -34.2791 -34.2662 -34.2422 -34.2277 -34.1441 -34.1439 -33.9068
   -33.9067 -33.8623 -33.8620   6.5466   6.7583   6.8575   6.9153   6.9860
     7.1476   7.2002   7.3740   7.4568   7.6815   7.7885   7.9524   8.0867
     8.4479   8.7023   8.8810   9.0544   9.2062   9.3522   9.4573   9.5291
     9.5545   9.5762   9.8084   9.8505  10.1662  10.1845  10.4263  10.5730
    10.6094  10.7164  10.8979  11.0987  11.2456  11.3501  11.4013  11.5197
    11.6828  11.7350  11.7996  11.9578  12.0999  12.1477  12.2845  12.3345
    12.3767  12.4256  12.5934  12.7770  13.2174  14.2846  15.4683  16.6935
    17.8524  18.8539

          k = 0.0556 0.4811 0.0000 (  4463 PWs)   bands (ev):

   -34.7912 -34.7734 -34.7601 -34.7421 -34.7288 -34.7037 -34.6851 -34.5350
   -34.5088 -34.4530 -34.4154 -34.4073 -34.3965 -34.3872 -34.3682 -34.3497
   -34.3368 -34.3079 -34.2966 -34.2680 -34.2622 -34.2459 -34.2433 -33.9399
   -33.9398 -33.8539 -33.8533   6.3717   6.4798   6.5561   6.6954   6.7188
     6.8250   6.9007   7.0237   7.1226   7.2560   7.4915   7.5185   7.7786
     8.2617   8.6041   8.9188   9.0822   9.2548   9.3161   9.5428   9.5657
     9.7243   9.9707  10.2426  10.2929  10.4906  10.8947  10.9822  11.1158
    11.5391  11.6363  11.9119  11.9634  12.0783  12.3046  12.3866  12.4200
    12.4616  12.5040  12.5280  12.6177  12.6591  12.8050  12.8924  13.0138
    13.3698  13.8010  14.1856  14.3075  14.6146  15.4625  16.5597  17.7050
    18.7508  20.2291

          k = 0.0556-0.5453 0.0000 (  4486 PWs)   bands (ev):

   -34.8193 -34.8011 -34.7817 -34.7634 -34.7587 -34.7256 -34.7191 -34.5072
   -34.4988 -34.4484 -34.4233 -34.4167 -34.4098 -34.4017 -34.3781 -34.3570
   -34.3474 -34.3153 -34.3047 -34.2758 -34.2743 -34.2633 -34.2599 -33.9476
   -33.9474 -33.8522 -33.8517   6.2508   6.4295   6.4584   6.5944   6.6662
     6.7457   6.7986   6.9817   7.0283   7.1632   7.4058   7.4304   7.7069
     8.2241   8.5906   8.8334   9.0126   9.1844   9.2672   9.5114   9.7061
     9.8005   9.9510  10.4319  10.4574  10.4696  11.0520  11.1861  11.2571
    11.6700  11.8830  12.1261  12.2107  12.3473  12.4236  12.5703  12.6501
    12.6894  12.7225  12.7651  12.8108  12.8421  12.9518  13.0511  13.1234
    13.9698  14.5849  15.2377  15.6859  15.7389  15.8997  16.4221  17.0005
    17.4034  20.0569

          k = 0.0556-0.4170 0.0000 (  4465 PWs)   bands (ev):

   -34.7400 -34.7310 -34.7201 -34.7054 -34.6767 -34.6575 -34.6273 -34.5711
   -34.5214 -34.4548 -34.4037 -34.3895 -34.3823 -34.3651 -34.3527 -34.3350
   -34.3196 -34.2950 -34.2835 -34.2573 -34.2454 -34.2053 -34.2049 -33.9260
   -33.9259 -33.8574 -33.8570   6.5504   6.5914   6.7326   6.7823   6.8958
     6.9609   7.0684   7.1087   7.2725   7.4369   7.6132   7.7132   7.9064
     8.3465   8.6397   8.9942   9.2367   9.2920   9.3728   9.4079   9.5383
     9.6566   9.7880  10.0544  10.0790  10.3011  10.5354  10.6335  10.9861
    11.0891  11.2801  11.4059  11.4960  11.7628  11.8509  11.9400  12.0109
    12.0757  12.1525  12.2477  12.3154  12.4804  12.5016  12.6445  12.7328
    12.8702  12.9826  13.0919  13.1705  13.7885  14.8729  16.1035  17.3846
    18.6325  19.7463

          k = 0.0556-0.2887 0.0000 (  4439 PWs)   bands (ev):

   -34.7121 -34.6920 -34.6434 -34.6017 -34.5588 -34.5237 -34.4950 -34.4765
   -34.4565 -34.4268 -34.3754 -34.3372 -34.3353 -34.3212 -34.3100 -34.2887
   -34.2784 -34.2618 -34.2467 -34.2250 -34.2107 -34.0680 -34.0679 -33.8845
   -33.8845 -33.8676 -33.8675   6.2715   6.4726   6.7500   7.0194   7.1182
     7.2808   7.5116   7.5665   7.7911   7.8363   8.0475   8.0901   8.2852
     8.4820   8.4919   8.7130   8.8841   8.9335   9.2168   9.4435   9.5502
     9.6113   9.6454   9.7028   9.8157   9.8788   9.9892  10.0615  10.1717
    10.3471  10.5683  10.6011  10.6565  10.7735  10.9142  10.9545  11.1102
    11.1629  11.2042  11.4447  11.5387  11.6289  11.8141  11.8443  11.9219
    12.1367  12.2483  12.5335  12.7203  12.8294  13.7460  14.8148  15.9382
    16.9842  17.8588

          k = 0.0556-0.1604 0.0000 (  4443 PWs)   bands (ev):

   -34.7749 -34.7352 -34.6446 -34.5428 -34.4461 -34.3706 -34.3492 -34.3402
   -34.3241 -34.3145 -34.2919 -34.2852 -34.2816 -34.2753 -34.2585 -34.2457
   -34.2357 -34.2245 -34.2074 -34.1960 -34.1856 -33.9179 -33.9177 -33.8789
   -33.8787 -33.8437 -33.8435   5.2182   5.5221   5.9914   6.5227   6.8519
     6.8954   6.9533   7.2856   7.3084   8.3871   8.5165   8.6506   8.7089
     8.7911   8.8361   8.9209   9.0452   9.2896   9.3413   9.4965   9.5667
     9.5783   9.6123   9.7045   9.7137   9.7502   9.8003   9.8262   9.8584
     9.9616  10.0201  10.0941  10.2264  10.3658  10.3832  10.7056  10.7664
    10.8678  10.9577  10.9717  11.1412  11.3515  11.4227  11.5341  11.7420
    11.8191  12.2015  12.2262  12.5104  12.6523  12.7911  13.5227  14.3786
    15.1726  15.7229

          k = 0.0556-0.0321 0.0000 (  4465 PWs)   bands (ev):

   -34.8101 -34.7620 -34.6577 -34.5362 -34.4150 -34.3029 -34.2744 -34.2714
   -34.2650 -34.2621 -34.2512 -34.2420 -34.2348 -34.2255 -34.2178 -34.2074
   -34.2068 -34.1877 -34.1858 -34.1800 -34.1688 -33.8881 -33.8878 -33.8335
   -33.8334 -33.8223 -33.8220   4.6118   4.9397   5.4394   5.9895   6.3622
     6.4129   6.4464   6.7857   6.8002   8.8757   8.9052   9.0928   9.1106
     9.1194   9.2080   9.2657   9.2930   9.3229   9.3340   9.3522   9.3592
     9.4462   9.4845   9.4956   9.5504   9.5842   9.5996   9.6200   9.7653
     9.8585   9.9545   9.9565   9.9588  10.6176  10.9985  11.0001  11.1537
    11.1624  11.2734  11.2926  11.3593  11.3993  11.4804  11.6408  11.7742
    11.9620  11.9838  12.0725  12.3313  12.4241  12.5790  12.7169  13.0272
    13.6352  13.9340

          k = 0.1667 0.2887 0.0000 (  4425 PWs)   bands (ev):

   -34.6858 -34.6825 -34.6526 -34.6207 -34.5845 -34.5567 -34.5359 -34.5106
   -34.4957 -34.4525 -34.3948 -34.3608 -34.3519 -34.3385 -34.3199 -34.3177
   -34.3013 -34.2855 -34.2807 -34.2667 -34.2140 -34.1003 -34.1002 -33.9176
   -33.9175 -33.8632 -33.8632   6.7598   6.8529   7.0226   7.2546   7.5279
     7.7246   7.7304   7.7820   7.8426   7.8771   7.9735   8.0110   8.1227
     8.2570   8.3469   8.4077   8.8483   8.8991   8.9303   9.0330   9.2006
     9.3366   9.4061   9.4174   9.4388   9.4968  10.0647  10.0725  10.2359
    10.3180  10.4677  10.5253  10.9122  10.9465  10.9990  11.1865  11.4279
    11.5178  11.6473  11.8021  12.0161  12.1081  12.2034  12.3427  12.3523
    12.3946  12.4685  12.5636  12.5790  13.3214  14.2925  15.3682  16.5131
    17.6076  19.2342

          k = 0.1667 0.4170 0.0000 (  4459 PWs)   bands (ev):

   -34.7233 -34.7103 -34.7050 -34.6907 -34.6669 -34.6465 -34.6306 -34.5794
   -34.5301 -34.4685 -34.4302 -34.4251 -34.4111 -34.3930 -34.3795 -34.3729
   -34.3475 -34.3469 -34.3159 -34.2944 -34.2472 -34.1970 -34.1968 -33.9803
   -33.9801 -33.8541 -33.8538   6.9221   6.9823   7.0855   7.1890   7.2846
     7.3352   7.5017   7.5299   7.5989   7.7570   7.8120   8.0586   8.1437
     8.3615   8.4709   8.6714   8.8575   8.8956   9.0353   9.1592   9.2481
     9.4559   9.5963   9.8010   9.8744  10.0149  10.0744  10.2442  10.3783
    10.5127  10.7868  11.0012  11.1033  11.1550  11.3297  11.3808  11.6662
    11.7441  12.0273  12.4989  12.5904  12.7197  12.7883  12.8363  12.9929
    13.9962  14.1316  14.2277  14.4771  15.0344  15.9179  16.9925  18.1630
    19.3291  20.3927

          k = 0.1667 0.5453 0.0000 (  4490 PWs)   bands (ev):

   -34.7821 -34.7650 -34.7404 -34.7268 -34.7243 -34.6922 -34.6889 -34.5235
   -34.5115 -34.4847 -34.4761 -34.4684 -34.4497 -34.4280 -34.3996 -34.3898
   -34.3785 -34.3560 -34.3388 -34.3051 -34.2785 -34.2430 -34.2429 -34.0144
   -34.0143 -33.8491 -33.8489   6.6102   6.8386   6.8985   7.0520   7.1145
     7.1716   7.2278   7.4416   7.5145   7.5509   7.7912   7.9062   8.0403
     8.2594   8.3579   8.5325   8.6584   9.0044   9.2564   9.3695   9.5184
     9.7228   9.8229   9.8562  10.1822  10.2387  10.2905  10.6667  10.7671
    11.0977  11.1271  11.2174  11.4755  11.7550  11.9180  12.0247  12.1314
    12.2025  12.3427  12.4924  12.5539  12.6297  12.7825  12.8981  12.9944
    15.8281  16.1453  16.5003  16.8053  17.1217  17.5147  17.9204  18.2217
    18.3869  20.3432

          k = 0.1667-0.4811 0.0000 (  4476 PWs)   bands (ev):

   -34.7612 -34.7439 -34.7289 -34.7141 -34.7039 -34.6757 -34.6690 -34.5503
   -34.5205 -34.4731 -34.4559 -34.4517 -34.4358 -34.4176 -34.3925 -34.3904
   -34.3639 -34.3560 -34.3274 -34.3038 -34.2652 -34.2274 -34.2274 -34.0025
   -34.0024 -33.8507 -33.8507   6.7212   6.9221   6.9294   7.1442   7.1524
     7.1962   7.3477   7.4809   7.5429   7.6265   7.8085   7.9606   8.0810
     8.2677   8.4395   8.6425   8.7517   8.8853   9.1912   9.2898   9.5477
     9.6250   9.7397   9.9112   9.9838  10.0433  10.3039  10.5074  10.6790
    10.8660  10.9072  11.0564  11.3721  11.5825  11.6568  11.7128  11.8227
    11.8741  12.1549  12.5278  12.6490  12.7468  12.8464  12.9505  13.0885
    14.9538  15.1619  15.3738  15.6561  16.1505  16.8893  17.8015  18.7731
    19.6251  20.5820

          k = 0.1667-0.3528 0.0000 (  4458 PWs)   bands (ev):

   -34.6880 -34.6833 -34.6672 -34.6635 -34.6277 -34.6079 -34.5859 -34.5766
   -34.5264 -34.4657 -34.4085 -34.3931 -34.3842 -34.3643 -34.3529 -34.3383
   -34.3318 -34.3244 -34.3021 -34.2807 -34.2296 -34.1536 -34.1535 -33.9506
   -33.9504 -33.8587 -33.8586   7.0143   7.1071   7.1795   7.2525   7.3801
     7.4710   7.5621   7.6480   7.7026   7.8245   7.9874   8.1096   8.2022
     8.3055   8.4340   8.5965   8.7061   8.8162   8.9873   9.1738   9.2184
     9.2483   9.3475   9.5404   9.6996   9.7438   9.9877  10.0020  10.2053
    10.4831  10.5918  10.6985  10.8880  11.0879  11.1473  11.2869  11.5704
    11.6381  11.8781  12.2977  12.3601  12.4821  12.5274  12.5955  12.7673
    13.1009  13.1748  13.2410  13.4102  14.0336  15.0094  16.1232  17.3091
    18.4624  19.5046

          k = 0.1667-0.2245 0.0000 (  4433 PWs)   bands (ev):

   -34.7162 -34.6959 -34.6402 -34.5852 -34.5357 -34.4982 -34.4715 -34.4540
   -34.4365 -34.4221 -34.3763 -34.3339 -34.3264 -34.3178 -34.3009 -34.2870
   -34.2722 -34.2614 -34.2534 -34.2393 -34.2032 -34.0431 -34.0429 -33.8872
   -33.8870 -33.8687 -33.8686   6.2228   6.4306   6.7541   7.1375   7.4059
     7.4862   7.6262   7.7514   7.8681   7.9621   8.0761   8.1548   8.2007
     8.3329   8.4453   8.5769   8.6547   8.8879   9.1415   9.1934   9.2929
     9.4057   9.4673   9.5926   9.6606   9.6797   9.8913  10.0099  10.1918
    10.4222  10.4439  10.5466  10.6087  10.7203  10.8677  10.9112  11.0409
    11.1635  11.2003  11.4874  11.5348  11.5845  11.8529  11.8892  11.8983
    12.0562  12.2069  12.3918  12.5514  12.8703  13.7303  14.7229  15.7953
    16.8059  17.6513

          k = 0.1667-0.0962 0.0000 (  4427 PWs)   bands (ev):

   -34.7648 -34.7276 -34.6417 -34.5474 -34.4611 -34.3970 -34.3771 -34.3609
   -34.3455 -34.3282 -34.3059 -34.2982 -34.2944 -34.2799 -34.2725 -34.2526
   -34.2458 -34.2317 -34.2093 -34.1987 -34.1879 -33.9439 -33.9437 -33.8773
   -33.8768 -33.8484 -33.8483   5.3985   5.6900   6.1400   6.6478   6.9436
     6.9719   7.1149   7.4075   7.4430   8.1971   8.4507   8.5456   8.6044
     8.7030   8.7912   8.8452   8.9411   9.3444   9.3851   9.4822   9.5933
     9.6011   9.6429   9.7151   9.7767   9.8410   9.8461   9.9327   9.9857
    10.0412  10.0496  10.0791  10.2210  10.3704  10.4749  10.5444  10.7276
    10.7390  10.9052  11.0099  11.1380  11.2774  11.4974  11.5124  11.7057
    12.0132  12.0852  12.3568  12.6175  12.7707  12.8399  13.7222  14.6592
    15.5061  16.1169

          k = 0.2778 0.4811 0.0000 (  4485 PWs)   bands (ev):

   -34.7163 -34.7153 -34.7018 -34.6983 -34.6683 -34.6595 -34.6211 -34.6056
   -34.5757 -34.5327 -34.5044 -34.4980 -34.4753 -34.4608 -34.4295 -34.4246
   -34.3812 -34.3600 -34.3421 -34.3205 -34.2856 -34.2049 -34.2048 -34.0744
   -34.0741 -33.8479 -33.8477   7.1531   7.1574   7.3095   7.3334   7.4464
     7.6284   7.8116   7.8725   7.9366   7.9497   8.0823   8.1009   8.2313
     8.2588   8.3788   8.4203   8.6917   8.7788   8.9426   9.0584   9.2231
     9.3647   9.5594   9.6464   9.9054   9.9082  10.1373  10.1377  10.5716
    10.6538  10.7209  10.8403  11.0763  11.1081  11.2765  11.3008  11.6214
    11.8760  12.2043  12.4891  12.6655  12.6890  12.6910  12.8217  12.9852
    16.3173  16.4517  16.7255  17.1448  17.7239  18.4691  19.3397  20.2310
    20.6959  20.7776

          k = 0.2778 0.6094 0.0000 (  4491 PWs)   bands (ev):

   -34.7173 -34.7006 -34.6891 -34.6784 -34.6607 -34.6559 -34.6387 -34.6004
   -34.5786 -34.5661 -34.5488 -34.5252 -34.5232 -34.4831 -34.4278 -34.4239
   -34.3717 -34.3606 -34.3435 -34.3255 -34.3054 -34.1964 -34.1962 -34.1071
   -34.1069 -33.8463 -33.8460   7.1134   7.3136   7.3730   7.5179   7.5715
     7.6363   7.7589   7.8477   7.9235   7.9305   8.0756   8.1353   8.1849
     8.2182   8.3377   8.4952   8.5854   8.9054   8.9654   9.1840   9.2778
     9.3719   9.4363   9.6505   9.8347   9.8735  10.1850  10.1927  10.5443
    10.6580  10.8185  10.9475  11.0449  11.1565  11.2949  11.3486  11.9438
    12.0913  12.2737  12.3616  12.4755  12.5286  12.5780  12.6318  12.7620
    17.5178  17.7040  18.0119  18.3844  18.7270  19.0351  19.3918  19.7965
    20.2214  20.3375

          k = 0.2778-0.4170 0.0000 (  4462 PWs)   bands (ev):

   -34.7269 -34.7136 -34.7093 -34.6973 -34.6739 -34.6608 -34.6373 -34.5829
   -34.5457 -34.4943 -34.4623 -34.4587 -34.4432 -34.4238 -34.4162 -34.3963
   -34.3828 -34.3592 -34.3370 -34.3065 -34.2645 -34.2066 -34.2064 -34.0283
   -34.0280 -33.8503 -33.8501   7.0020   7.1389   7.1751   7.3176   7.3628
     7.5016   7.6047   7.7035   7.7819   7.8921   8.0836   8.1148   8.2069
     8.3348   8.5428   8.5564   8.5871   8.7359   8.9627   9.0108   9.2544
     9.3838   9.5340   9.7723   9.9229   9.9511  10.1511  10.1734  10.3339
    10.5167  10.7538  10.9006  11.0648  11.1766  11.3067  11.3580  11.5185
    11.6869  12.1147  12.5282  12.7423  12.7763  12.8405  12.9289  13.0908
    15.1503  15.2392  15.4272  15.7745  16.3410  17.1455  18.1257  19.1984
    20.2585  21.1522

          k = 0.2778-0.2887 0.0000 (  4463 PWs)   bands (ev):

   -34.7070 -34.7056 -34.6862 -34.6824 -34.6431 -34.6290 -34.5975 -34.5823
   -34.5248 -34.4580 -34.4051 -34.3911 -34.3863 -34.3637 -34.3498 -34.3436
   -34.3276 -34.3040 -34.2856 -34.2749 -34.2350 -34.1757 -34.1756 -33.9381
   -33.9380 -33.8581 -33.8579   6.7611   6.8904   6.9770   7.0068   7.1720
     7.1812   7.2826   7.3773   7.4972   7.6418   7.8007   8.0062   8.0490
     8.3460   8.5465   8.8653   8.9080   9.1560   9.1928   9.2884   9.3917
     9.5201   9.6345   9.7311   9.8471  10.0669  10.1917  10.3583  10.5230
    10.5523  10.7648  10.9858  11.1603  11.2340  11.2771  11.4526  11.7672
    11.7787  12.0720  12.2165  12.3623  12.4230  12.5344  12.6149  12.7937
    12.9439  13.1377  13.1694  13.3209  13.9372  14.9437  16.1015  17.3281
    18.5197  19.5793

          k = 0.2778-0.1604 0.0000 (  4458 PWs)   bands (ev):

   -34.7072 -34.6850 -34.6528 -34.6296 -34.5907 -34.5630 -34.5318 -34.5070
   -34.4902 -34.4389 -34.3825 -34.3485 -34.3431 -34.3326 -34.3190 -34.2947
   -34.2847 -34.2700 -34.2444 -34.2271 -34.2204 -34.1056 -34.1054 -33.8894
   -33.8892 -33.8656 -33.8653   6.3785   6.5791   6.7927   6.8939   6.9731
     7.1625   7.3354   7.4281   7.5731   7.7361   7.8900   7.9679   8.2066
     8.5180   8.7240   8.8631   9.0485   9.1851   9.3399   9.4703   9.5527
     9.6006   9.6569   9.7982   9.9001  10.1155  10.1643  10.3535  10.4603
    10.4679  10.6102  10.7045  10.8901  11.0749  11.1058  11.2078  11.2498
    11.2915  11.3910  11.4478  11.6172  11.7374  11.8401  11.9425  11.9528
    12.0884  12.3830  12.6626  12.8289  12.8408  13.8943  15.0507  16.2355
    17.3374  18.2680

          k = 0.3889 0.6736 0.0000 (  4511 PWs)   bands (ev):

   -34.7543 -34.7367 -34.7081 -34.7014 -34.6962 -34.6731 -34.6663 -34.5538
   -34.5443 -34.5287 -34.5198 -34.5097 -34.4798 -34.4447 -34.4254 -34.4154
   -34.3724 -34.3721 -34.3461 -34.3138 -34.2940 -34.2230 -34.2230 -34.0644
   -34.0644 -33.8474 -33.8473   6.8362   7.0595   7.2236   7.3750   7.3965
     7.4283   7.5669   7.6387   7.7263   7.8204   8.0215   8.0462   8.1927
     8.3278   8.3634   8.4023   8.5315   8.7569   9.0320   9.2191   9.4632
     9.5925   9.7032   9.8133   9.8989  10.1405  10.2389  10.3801  10.6294
    10.6701  10.6918  11.0128  11.2656  11.4525  11.5984  11.7015  12.1247
    12.1744  12.2605  12.3504  12.5042  12.5196  12.6904  12.7797  12.8047
    17.0389  17.2522  17.5020  17.7395  17.9817  18.2572  18.5694  18.8791
    19.1443  20.4787

          k = 0.3889-0.3528 0.0000 (  4485 PWs)   bands (ev):

   -34.7952 -34.7775 -34.7583 -34.7420 -34.7354 -34.7048 -34.6964 -34.5217
   -34.5035 -34.4563 -34.4405 -34.4363 -34.4206 -34.3978 -34.3911 -34.3730
   -34.3568 -34.3278 -34.3170 -34.2919 -34.2678 -34.2503 -34.2492 -33.9711
   -33.9709 -33.8516 -33.8513   6.4505   6.6363   6.6621   6.7982   6.8704
     6.9506   6.9991   7.2029   7.2775   7.3141   7.6163   7.6692   7.8320
     8.2245   8.4977   8.7435   8.9058   9.2350   9.3352   9.4548   9.5167
     9.6496   9.9052  10.0895  10.2188  10.4839  10.6661  10.7988  11.0641
    11.2902  11.5614  11.5924  11.7048  11.9750  12.1700  12.2251  12.2558
    12.2869  12.3634  12.5644  12.6258  12.7315  12.8298  12.9691  13.0912
    14.5563  14.9375  15.3214  15.5552  15.8413  16.4119  17.1786  17.9513
    18.5209  20.2823

          k = 0.3889-0.2245 0.0000 (  4444 PWs)   bands (ev):

   -34.7712 -34.7542 -34.7475 -34.7276 -34.7080 -34.6865 -34.6598 -34.5526
   -34.5153 -34.4538 -34.4070 -34.3913 -34.3845 -34.3718 -34.3585 -34.3311
   -34.3237 -34.3033 -34.2756 -34.2623 -34.2500 -34.2306 -34.2290 -33.9249
   -33.9246 -33.8559 -33.8551   6.4100   6.4505   6.5729   6.6829   6.7401
     6.8217   6.9417   6.9786   7.1255   7.3057   7.4816   7.5305   7.8195
     8.3180   8.6678   9.0111   9.1843   9.2625   9.3501   9.5678   9.5756
     9.7201   9.9534  10.1608  10.3389  10.4308  10.8258  10.9613  11.1204
    11.4883  11.6188  11.9302  11.9570  12.1713  12.2313  12.2705  12.3203
    12.3730  12.4127  12.4717  12.5162  12.5838  12.6557  12.7710  12.8568
    12.8836  12.9511  13.2427  13.2798  13.8295  14.9619  16.2184  17.5060
    18.7612  19.9992

          k =-0.5000-0.8660 0.0000 (  4492 PWs)   bands (ev):

   -34.8271 -34.8104 -34.7910 -34.7698 -34.7692 -34.7300 -34.7296 -34.5038
   -34.4987 -34.4425 -34.4181 -34.4099 -34.4094 -34.4013 -34.3741 -34.3476
   -34.3453 -34.3164 -34.2883 -34.2876 -34.2723 -34.2620 -34.2618 -33.9391
   -33.9390 -33.8526 -33.8521   6.1761   6.3588   6.3820   6.5298   6.5918
     6.6645   6.7412   6.9042   6.9360   7.1140   7.3222   7.3472   7.6695
     8.2158   8.6258   8.8686   9.0452   9.1315   9.2413   9.4767   9.8750
     9.9022   9.9455  10.3828  10.5794  10.6385  10.9590  11.4400  11.4845
    11.5554  12.0928  12.3119  12.3513  12.4724  12.6660  12.7520  12.7674
    12.8065  12.8557  12.9091  12.9299  12.9786  13.0794  13.2539  13.2572
    13.4586  14.3542  15.1721  15.6536  15.8263  16.0873  16.2663  16.4192
    16.4799  19.9730

     the Fermi energy is    12.2021 ev

!    total energy              =   -1540.61785311 Ry
     estimated scf accuracy    <       0.00000070 Ry
     smearing contrib. (-TS)   =      -0.03867939 Ry
     internal energy E=F+TS    =   -1540.57917372 Ry

     The total energy is F=E-TS. E is the sum of the following terms:
     one-electron contribution =  -10633.12077545 Ry
     hartree contribution      =    5394.43497592 Ry
     xc contribution           =    -269.21137695 Ry
     ewald contribution        =    3967.31800277 Ry

     total magnetization       =    -0.02 Bohr mag/cell
     absolute magnetization    =     0.02 Bohr mag/cell

     convergence has been achieved in  14 iterations

     negative rho (up, down):  2.584E-01 2.583E-01

     Forces acting on atoms (cartesian axes, Ry/au):

     atom    1 type  1   force =     0.00000000    0.00000000    0.01195969
     atom    2 type  1   force =     0.00000000    0.00000000   -0.00730903
     atom    3 type  1   force =     0.00000000    0.00000000   -0.00651649
     atom    4 type  1   force =     0.00000000    0.00000000    0.00087751
     atom    5 type  1   force =     0.00000000    0.00000000   -0.00002271
     atom    6 type  1   force =     0.00000000    0.00000000   -0.00089868
     atom    7 type  1   force =     0.00000000    0.00000000    0.00653349
     atom    8 type  1   force =     0.00000000    0.00000000    0.00733209
     atom    9 type  1   force =     0.00000000    0.00000000   -0.01195586

     Total force =     0.021906     Total SCF correction =     0.004227
     SCF correction compared to forces is large: reduce conv_thr to get better values

     BFGS Geometry Optimization
     Energy error            =      0.0E+00
     Gradient error          =      1.2E-02

     number of scf cycles    =   1
     number of bfgs steps    =   0

     energy   new            =   -1540.6178531087 Ry

     new trust radius        =       0.0119596931 bohr
     new conv_thr            =       0.0000010000 Ry


ATOMIC_POSITIONS (angstrom)
Rh            0.0000000000        0.0000000000        0.0063287970
Rh            1.3554284000       -0.7825569000        2.2095375274
Rh            1.3554284000        0.7825569000        4.4233622213
Rh            0.0000000000        0.0000000000        6.6406802563
Rh            1.3554284000       -0.7825569000        8.8536091801
Rh            1.3554284000        0.7825569000       11.0665508366
Rh            0.0000000000        0.0000000000       13.2838890728
Rh            1.3554284000       -0.7825569000       15.4977169747
Rh            1.3554284000        0.7825569000       17.7009155338



     Writing output data file /home/STUDENTI/leonardo.razzai/Rh_work/surf_111/9-L.save/
     NEW-OLD atomic charge density approx. for the potential

     negative rho (up, down):  2.576E-01 2.575E-01
     Generating pointlists ...

     total cpu time spent up to now is      190.8 secs

     Self-consistent Calculation

     iteration #  1     ecut=    35.00 Ry     beta= 0.40
     Davidson diagonalization with overlap
     ethr =  1.00E-06,  avg # of iterations =  6.4

     negative rho (up, down):  2.576E-01 2.575E-01

     total cpu time spent up to now is      213.6 secs

     total energy              =   -1540.61785738 Ry
     estimated scf accuracy    <       0.02677941 Ry

     total magnetization       =    -0.01 Bohr mag/cell
     absolute magnetization    =     0.01 Bohr mag/cell

     iteration #  2     ecut=    35.00 Ry     beta= 0.40
     Davidson diagonalization with overlap
     ethr =  1.98E-05,  avg # of iterations =  1.0

     negative rho (up, down):  2.576E-01 2.575E-01

     total cpu time spent up to now is      224.1 secs

     total energy              =   -1540.61817539 Ry
     estimated scf accuracy    <       0.01487336 Ry

     total magnetization       =    -0.01 Bohr mag/cell
     absolute magnetization    =     0.01 Bohr mag/cell

     iteration #  3     ecut=    35.00 Ry     beta= 0.40
     Davidson diagonalization with overlap
     ethr =  1.10E-05,  avg # of iterations =  1.0

     negative rho (up, down):  2.576E-01 2.575E-01

     total cpu time spent up to now is      234.5 secs

     total energy              =   -1540.61827661 Ry
     estimated scf accuracy    <       0.00054986 Ry

     total magnetization       =    -0.01 Bohr mag/cell
     absolute magnetization    =     0.01 Bohr mag/cell

     iteration #  4     ecut=    35.00 Ry     beta= 0.40
     Davidson diagonalization with overlap
     ethr =  4.07E-07,  avg # of iterations =  1.0

     negative rho (up, down):  2.576E-01 2.575E-01

     total cpu time spent up to now is      244.9 secs

     total energy              =   -1540.61826647 Ry
     estimated scf accuracy    <       0.00024425 Ry

     total magnetization       =    -0.01 Bohr mag/cell
     absolute magnetization    =     0.01 Bohr mag/cell

     iteration #  5     ecut=    35.00 Ry     beta= 0.40
     Davidson diagonalization with overlap
     ethr =  1.81E-07,  avg # of iterations =  1.0

     negative rho (up, down):  2.576E-01 2.575E-01

     total cpu time spent up to now is      255.4 secs

     total energy              =   -1540.61827066 Ry
     estimated scf accuracy    <       0.00001331 Ry

     total magnetization       =    -0.00 Bohr mag/cell
     absolute magnetization    =     0.00 Bohr mag/cell

     iteration #  6     ecut=    35.00 Ry     beta= 0.40
     Davidson diagonalization with overlap
     ethr =  9.86E-09,  avg # of iterations =  1.4

     negative rho (up, down):  2.576E-01 2.575E-01

     total cpu time spent up to now is      266.0 secs

     total energy              =   -1540.61827112 Ry
     estimated scf accuracy    <       0.00000233 Ry

     total magnetization       =    -0.00 Bohr mag/cell
     absolute magnetization    =     0.00 Bohr mag/cell

     iteration #  7     ecut=    35.00 Ry     beta= 0.40
     Davidson diagonalization with overlap
     ethr =  1.73E-09,  avg # of iterations =  1.5

     negative rho (up, down):  2.575E-01 2.575E-01

     total cpu time spent up to now is      276.9 secs

     total energy              =   -1540.61827119 Ry
     estimated scf accuracy    <       0.00000328 Ry

     total magnetization       =    -0.00 Bohr mag/cell
     absolute magnetization    =     0.00 Bohr mag/cell

     iteration #  8     ecut=    35.00 Ry     beta= 0.40
     Davidson diagonalization with overlap
     ethr =  1.73E-09,  avg # of iterations =  1.0

     negative rho (up, down):  2.575E-01 2.575E-01

     total cpu time spent up to now is      287.5 secs

     total energy              =   -1540.61827136 Ry
     estimated scf accuracy    <       0.00000398 Ry

     total magnetization       =    -0.00 Bohr mag/cell
     absolute magnetization    =     0.00 Bohr mag/cell

     iteration #  9     ecut=    35.00 Ry     beta= 0.40
     Davidson diagonalization with overlap
     ethr =  1.73E-09,  avg # of iterations =  1.1

     negative rho (up, down):  2.575E-01 2.575E-01
 
     Magnetic moment per site:
     atom:    1    charge:   13.1785    magn:   -0.0000    constr:    0.0000
     atom:    2    charge:   13.2394    magn:   -0.0000    constr:    0.0000
     atom:    3    charge:   13.2462    magn:   -0.0000    constr:    0.0000
     atom:    4    charge:   13.2486    magn:   -0.0000    constr:    0.0000
     atom:    5    charge:   13.2485    magn:   -0.0000    constr:    0.0000
     atom:    6    charge:   13.2483    magn:   -0.0000    constr:    0.0000
     atom:    7    charge:   13.2465    magn:   -0.0000    constr:    0.0000
     atom:    8    charge:   13.2386    magn:   -0.0000    constr:    0.0000
     atom:    9    charge:   13.1783    magn:   -0.0000    constr:    0.0000

     total cpu time spent up to now is      297.9 secs

     End of self-consistent calculation

 ------ SPIN UP ------------


          k = 0.0556 0.0962 0.0000 (  4451 PWs)   bands (ev):

   -34.7935 -34.7504 -34.6561 -34.5390 -34.4237 -34.3223 -34.2996 -34.2946
   -34.2801 -34.2758 -34.2660 -34.2627 -34.2426 -34.2424 -34.2365 -34.2215
   -34.2085 -34.2067 -34.1859 -34.1841 -34.1726 -33.8959 -33.8954 -33.8699
   -33.8697 -33.8379 -33.8379   4.8236   5.1410   5.6269   6.1774   6.5431
     6.5944   6.6251   6.9519   6.9700   8.7067   8.7269   8.9259   8.9668
     8.9797   9.0781   9.1800   9.2683   9.3420   9.4233   9.4304   9.4836
     9.5007   9.5432   9.5565   9.5790   9.6365   9.6624   9.7357   9.7773
     9.8018   9.8538  10.0754  10.0903  10.2494  10.8249  10.8702  10.8711
    11.0446  11.0952  11.2556  11.3102  11.3843  11.4478  11.5546  11.6259
    11.8204  11.9365  12.2393  12.3654  12.5403  12.6686  12.9289  13.6312
    14.3115  14.7102

          k = 0.0556 0.2245 0.0000 (  4420 PWs)   bands (ev):

   -34.7393 -34.7104 -34.6403 -34.5609 -34.4932 -34.4453 -34.4172 -34.4020
   -34.3781 -34.3718 -34.3404 -34.3099 -34.3085 -34.2985 -34.2826 -34.2630
   -34.2539 -34.2414 -34.2226 -34.2054 -34.1930 -33.9965 -33.9962 -33.8837
   -33.8834 -33.8710 -33.8709   5.7469   6.0065   6.4074   6.8725   7.1274
     7.1889   7.3593   7.6039   7.6672   8.0149   8.2547   8.3927   8.4062
     8.5247   8.6244   8.7107   8.7763   9.1366   9.3231   9.4095   9.4966
     9.5631   9.6653   9.6818   9.7128   9.8188   9.8427   9.9967  10.1247
    10.1605  10.2434  10.3878  10.4625  10.5392  10.5655  10.6243  10.7272
    10.8356  10.9284  11.0534  11.1502  11.4516  11.5605  11.5971  11.7789
    12.0041  12.1788  12.5174  12.5194  12.6857  13.2484  14.1655  15.1675
    16.0913  16.8036

          k = 0.0556 0.3528 0.0000 (  4467 PWs)   bands (ev):

   -34.7014 -34.6825 -34.6680 -34.6574 -34.6171 -34.6055 -34.5721 -34.5463
   -34.5145 -34.4516 -34.3920 -34.3643 -34.3606 -34.3397 -34.3347 -34.3123
   -34.2970 -34.2766 -34.2621 -34.2386 -34.2242 -34.1514 -34.1512 -33.9151
   -33.9150 -33.8730 -33.8728   6.5495   6.7572   6.8613   6.9183   6.9780
     7.1434   7.1991   7.3692   7.4501   7.6727   7.7784   7.9461   8.0793
     8.4427   8.7014   8.8749   9.0544   9.2034   9.3510   9.4587   9.5298
     9.5561   9.5768   9.8035   9.8500  10.1563  10.1796  10.4204  10.5661
    10.6037  10.7143  10.8925  11.0960  11.2489  11.3506  11.4048  11.5162
    11.6847  11.7360  11.7978  11.9556  12.0979  12.1499  12.2855  12.3339
    12.3807  12.4243  12.5983  12.7794  13.2203  14.2887  15.4735  16.6982
    17.8579  18.8579

          k = 0.0556 0.4811 0.0000 (  4463 PWs)   bands (ev):

   -34.7882 -34.7731 -34.7566 -34.7424 -34.7268 -34.7030 -34.6823 -34.5369
   -34.5143 -34.4547 -34.4141 -34.4057 -34.3952 -34.3844 -34.3682 -34.3472
   -34.3351 -34.3054 -34.2931 -34.2648 -34.2617 -34.2511 -34.2460 -33.9481
   -33.9480 -33.8652 -33.8647   6.3755   6.4830   6.5554   6.6967   6.7196
     6.8167   6.8982   7.0203   7.1168   7.2457   7.4780   7.5087   7.7697
     8.2568   8.6004   8.9191   9.0856   9.2558   9.3181   9.5426   9.5600
     9.7261   9.9568  10.2429  10.2904  10.4810  10.8912  10.9791  11.1118
    11.5377  11.6317  11.9097  11.9657  12.0803  12.3071  12.3866  12.4223
    12.4619  12.5046  12.5319  12.6181  12.6624  12.8027  12.8918  13.0153
    13.3700  13.7994  14.1840  14.3084  14.6151  15.4656  16.5656  17.7078
    18.7512  20.2319

          k = 0.0556-0.5453 0.0000 (  4486 PWs)   bands (ev):

   -34.8164 -34.8008 -34.7799 -34.7626 -34.7570 -34.7238 -34.7162 -34.5135
   -34.5069 -34.4449 -34.4206 -34.4149 -34.4072 -34.3997 -34.3787 -34.3540
   -34.3464 -34.3129 -34.3021 -34.2768 -34.2757 -34.2639 -34.2598 -33.9558
   -33.9556 -33.8636 -33.8632   6.2545   6.4327   6.4572   6.5982   6.6645
     6.7358   6.7983   6.9766   7.0243   7.1537   7.3943   7.4174   7.6974
     8.2183   8.5867   8.8349   9.0162   9.1855   9.2695   9.5073   9.7040
     9.8007   9.9391  10.4276  10.4587  10.4611  11.0464  11.1818  11.2566
    11.6691  11.8830  12.1260  12.2113  12.3494  12.4270  12.5723  12.6504
    12.6895  12.7241  12.7668  12.8126  12.8438  12.9503  13.0484  13.1232
    13.9701  14.5828  15.2354  15.6864  15.7395  15.9017  16.4273  17.0032
    17.4042  20.0527

          k = 0.0556-0.4170 0.0000 (  4465 PWs)   bands (ev):

   -34.7370 -34.7288 -34.7174 -34.7042 -34.6764 -34.6581 -34.6245 -34.5714
   -34.5242 -34.4574 -34.4034 -34.3883 -34.3818 -34.3630 -34.3525 -34.3328
   -34.3175 -34.2924 -34.2795 -34.2537 -34.2423 -34.2118 -34.2111 -33.9343
   -33.9341 -33.8685 -33.8681   6.5535   6.5951   6.7328   6.7804   6.8990
     6.9554   7.0605   7.1084   7.2648   7.4267   7.6006   7.7048   7.8984
     8.3424   8.6365   8.9922   9.2386   9.2906   9.3731   9.4098   9.5401
     9.6530   9.7856  10.0496  10.0697  10.3001  10.5263  10.6305  10.9807
    11.0831  11.2757  11.4030  11.4947  11.7653  11.8543  11.9408  12.0114
    12.0762  12.1535  12.2472  12.3188  12.4786  12.5054  12.6468  12.7334
    12.8722  12.9819  13.0931  13.1678  13.7900  14.8771  16.1096  17.3885
    18.6358  19.7508

          k = 0.0556-0.2887 0.0000 (  4439 PWs)   bands (ev):

   -34.7078 -34.6890 -34.6430 -34.6010 -34.5603 -34.5276 -34.4966 -34.4733
   -34.4548 -34.4252 -34.3742 -34.3365 -34.3351 -34.3199 -34.3097 -34.2868
   -34.2753 -34.2595 -34.2425 -34.2214 -34.2072 -34.0758 -34.0757 -33.8929
   -33.8928 -33.8780 -33.8779   6.2739   6.4719   6.7448   7.0167   7.1191
     7.2763   7.5075   7.5626   7.7880   7.8291   8.0443   8.0848   8.2812
     8.4706   8.4902   8.7056   8.8874   8.9285   9.2158   9.4441   9.5497
     9.6096   9.6483   9.7014   9.8144   9.8718   9.9870  10.0550  10.1710
    10.3386  10.5715  10.5932  10.6524  10.7735  10.9139  10.9516  11.1108
    11.1633  11.2065  11.4398  11.5330  11.6270  11.8148  11.8449  11.9225
    12.1380  12.2518  12.5392  12.7226  12.8321  13.7491  14.8186  15.9436
    16.9909  17.8619

          k = 0.0556-0.1604 0.0000 (  4443 PWs)   bands (ev):

   -34.7706 -34.7329 -34.6477 -34.5443 -34.4472 -34.3731 -34.3493 -34.3374
   -34.3227 -34.3133 -34.2903 -34.2828 -34.2812 -34.2731 -34.2579 -34.2429
   -34.2335 -34.2217 -34.2030 -34.1925 -34.1821 -33.9264 -33.9262 -33.8886
   -33.8884 -33.8521 -33.8519   5.2202   5.5202   5.9830   6.5173   6.8555
     6.8964   6.9547   7.2696   7.2938   8.3888   8.5160   8.6510   8.7130
     8.7925   8.8366   8.9117   9.0374   9.2823   9.3382   9.4969   9.5675
     9.5808   9.6131   9.7053   9.7144   9.7511   9.7980   9.8250   9.8563
     9.9549  10.0180  10.0945  10.2256  10.3539  10.3700  10.7067  10.7687
    10.8645  10.9577  10.9677  11.1410  11.3512  11.4239  11.5334  11.7391
    11.8181  12.2023  12.2262  12.5144  12.6540  12.7925  13.5231  14.3836
    15.1800  15.7257

          k = 0.0556-0.0321 0.0000 (  4465 PWs)   bands (ev):

   -34.8057 -34.7599 -34.6616 -34.5384 -34.4161 -34.3012 -34.2738 -34.2716
   -34.2646 -34.2628 -34.2509 -34.2414 -34.2330 -34.2236 -34.2149 -34.2051
   -34.2028 -34.1832 -34.1821 -34.1765 -34.1652 -33.8978 -33.8975 -33.8418
   -33.8417 -33.8306 -33.8304   4.6138   4.9375   5.4306   5.9844   6.3642
     6.4138   6.4507   6.7699   6.7853   8.8758   8.9087   9.0929   9.1131
     9.1219   9.2089   9.2692   9.2904   9.3267   9.3362   9.3518   9.3564
     9.4462   9.4799   9.4995   9.5493   9.5824   9.5976   9.6207   9.7590
     9.8466   9.9400   9.9444   9.9534  10.6140  11.0020  11.0034  11.1553
    11.1636  11.2724  11.2923  11.3548  11.3962  11.4784  11.6351  11.7693
    11.9628  11.9793  12.0754  12.3330  12.4224  12.5821  12.7191  13.0297
    13.6418  13.9376

          k = 0.1667 0.2887 0.0000 (  4425 PWs)   bands (ev):

   -34.6817 -34.6790 -34.6508 -34.6192 -34.5855 -34.5612 -34.5380 -34.5077
   -34.4935 -34.4518 -34.3941 -34.3624 -34.3551 -34.3363 -34.3197 -34.3141
   -34.2970 -34.2808 -34.2779 -34.2634 -34.2104 -34.1079 -34.1077 -33.9259
   -33.9258 -33.8738 -33.8738   6.7627   6.8538   7.0197   7.2504   7.5222
     7.7270   7.7331   7.7748   7.8466   7.8754   7.9721   8.0017   8.1100
     8.2443   8.3389   8.4079   8.8440   8.8936   8.9285   9.0275   9.1974
     9.3335   9.3931   9.4056   9.4449   9.5023  10.0650  10.0727  10.2341
    10.3159  10.4656  10.5226  10.9137  10.9430  10.9983  11.1908  11.4222
    11.5141  11.6490  11.8018  12.0172  12.1094  12.2035  12.3461  12.3523
    12.3969  12.4690  12.5612  12.5807  13.3242  14.2966  15.3732  16.5178
    17.6137  18.5749

          k = 0.1667 0.4170 0.0000 (  4459 PWs)   bands (ev):

   -34.7205 -34.7094 -34.7020 -34.6878 -34.6669 -34.6466 -34.6280 -34.5792
   -34.5311 -34.4703 -34.4334 -34.4291 -34.4107 -34.3885 -34.3770 -34.3704
   -34.3453 -34.3432 -34.3126 -34.2906 -34.2437 -34.2037 -34.2035 -33.9884
   -33.9882 -33.8653 -33.8650   6.9261   6.9859   7.0863   7.1886   7.2810
     7.3379   7.4962   7.5199   7.5909   7.7471   7.8066   8.0521   8.1381
     8.3542   8.4630   8.6640   8.8549   8.8943   9.0356   9.1564   9.2476
     9.4551   9.5895   9.7988   9.8741  10.0103  10.0705  10.2369  10.3745
    10.5053  10.7846  11.0025  11.1045  11.1565  11.3290  11.3842  11.6704
    11.7467  12.0303  12.5018  12.5925  12.7209  12.7891  12.8383  12.9947
    13.9980  14.1329  14.2262  14.4740  15.0341  15.9208  16.9976  18.1663
    19.3324  20.3973

          k = 0.1667 0.5453 0.0000 (  4490 PWs)   bands (ev):

   -34.7791 -34.7645 -34.7394 -34.7246 -34.7232 -34.6907 -34.6858 -34.5251
   -34.5147 -34.4848 -34.4738 -34.4713 -34.4510 -34.4273 -34.3978 -34.3874
   -34.3756 -34.3520 -34.3352 -34.3013 -34.2749 -34.2493 -34.2491 -34.0224
   -34.0223 -33.8606 -33.8604   6.6142   6.8377   6.9020   7.0558   7.1132
     7.1636   7.2248   7.4317   7.5067   7.5438   7.7865   7.8981   8.0272
     8.2517   8.3493   8.5338   8.6633   8.9991   9.2544   9.3615   9.5151
     9.7210   9.8204   9.8594  10.1749  10.2350  10.2916  10.6630  10.7635
    11.0941  11.1213  11.2148  11.4766  11.7579  11.9200  12.0272  12.1337
    12.2060  12.3467  12.4947  12.5565  12.6314  12.7845  12.9008  12.9965
    15.8293  16.1447  16.4988  16.8044  17.1210  17.5153  17.9237  18.2235
    18.3875  20.3488

          k = 0.1667-0.4811 0.0000 (  4476 PWs)   bands (ev):

   -34.7583 -34.7436 -34.7264 -34.7117 -34.7039 -34.6745 -34.6662 -34.5500
   -34.5226 -34.4740 -34.4591 -34.4557 -34.4340 -34.4144 -34.3904 -34.3886
   -34.3617 -34.3519 -34.3241 -34.2999 -34.2617 -34.2338 -34.2337 -34.0106
   -34.0105 -33.8621 -33.8620   6.7252   6.9219   6.9329   7.1432   7.1556
     7.1910   7.3421   7.4720   7.5336   7.6195   7.8024   7.9544   8.0702
     8.2597   8.4308   8.6429   8.7567   8.8786   9.1921   9.2799   9.5451
     9.6234   9.7394   9.9085   9.9845  10.0395  10.2975  10.5040  10.6745
    10.8592  10.9020  11.0562  11.3734  11.5847  11.6579  11.7164  11.8267
    11.8777  12.1581  12.5306  12.6515  12.7487  12.8473  12.9530  13.0905
    14.9554  15.1619  15.3723  15.6544  16.1500  16.8911  17.8055  18.7752
    19.6256  20.5845

          k = 0.1667-0.3528 0.0000 (  4458 PWs)   bands (ev):

   -34.6846 -34.6810 -34.6632 -34.6611 -34.6265 -34.6112 -34.5885 -34.5740
   -34.5256 -34.4668 -34.4090 -34.3961 -34.3870 -34.3622 -34.3483 -34.3372
   -34.3277 -34.3209 -34.2986 -34.2772 -34.2260 -34.1608 -34.1606 -33.9588
   -33.9586 -33.8696 -33.8695   7.0177   7.1105   7.1803   7.2528   7.3775
     7.4658   7.5621   7.6399   7.6971   7.8170   7.9810   8.1059   8.1963
     8.2964   8.4270   8.5920   8.7011   8.8120   8.9849   9.1675   9.2207
     9.2518   9.3409   9.5354   9.6908   9.7385   9.9868  10.0007  10.2029
    10.4789  10.5914  10.6996  10.8867  11.0890  11.1473  11.2883  11.5712
    11.6377  11.8807  12.2999  12.3607  12.4844  12.5291  12.5964  12.7689
    13.1029  13.1769  13.2401  13.4055  14.0345  15.0134  16.1287  17.3131
    18.4673  19.5089

          k = 0.1667-0.2245 0.0000 (  4433 PWs)   bands (ev):

   -34.7119 -34.6930 -34.6407 -34.5849 -34.5370 -34.5022 -34.4734 -34.4503
   -34.4349 -34.4195 -34.3745 -34.3337 -34.3276 -34.3173 -34.3002 -34.2846
   -34.2686 -34.2582 -34.2495 -34.2356 -34.1996 -34.0510 -34.0508 -33.8955
   -33.8954 -33.8789 -33.8788   6.2251   6.4297   6.7480   7.1322   7.4087
     7.4834   7.6244   7.7459   7.8627   7.9572   8.0767   8.1528   8.1959
     8.3228   8.4393   8.5771   8.6479   8.8829   9.1381   9.1910   9.2875
     9.4031   9.4649   9.5870   9.6624   9.6815   9.8913  10.0102  10.1896
    10.4192  10.4382  10.5401  10.6123  10.7202  10.8712  10.9068  11.0367
    11.1634  11.2008  11.4813  11.5305  11.5822  11.8537  11.8910  11.8985
    12.0586  12.2094  12.3952  12.5540  12.8733  13.7335  14.7266  15.8005
    16.8128  17.6543

          k = 0.1667-0.0962 0.0000 (  4427 PWs)   bands (ev):

   -34.7606 -34.7252 -34.6444 -34.5487 -34.4622 -34.3999 -34.3766 -34.3591
   -34.3436 -34.3273 -34.3014 -34.2971 -34.2946 -34.2769 -34.2725 -34.2510
   -34.2428 -34.2297 -34.2050 -34.1952 -34.1843 -33.9522 -33.9521 -33.8871
   -33.8867 -33.8568 -33.8566   5.4005   5.6882   6.1318   6.6425   6.9477
     6.9722   7.1139   7.3923   7.4301   8.1991   8.4477   8.5492   8.6077
     8.7021   8.7840   8.8433   8.9289   9.3407   9.3817   9.4826   9.5937
     9.6059   9.6422   9.7163   9.7759   9.8389   9.8500   9.9328   9.9859
    10.0328  10.0495  10.0731  10.2215  10.3585  10.4634  10.5442  10.7229
    10.7378  10.9040  11.0095  11.1422  11.2743  11.4961  11.5137  11.7037
    12.0113  12.0857  12.3607  12.6217  12.7730  12.8403  13.7227  14.6646
    15.5135  16.1197

          k = 0.2778 0.4811 0.0000 (  4485 PWs)   bands (ev):

   -34.7143 -34.7137 -34.6986 -34.6967 -34.6667 -34.6592 -34.6197 -34.6030
   -34.5740 -34.5346 -34.5050 -34.5010 -34.4744 -34.4600 -34.4305 -34.4250
   -34.3782 -34.3563 -34.3391 -34.3156 -34.2820 -34.2118 -34.2117 -34.0821
   -34.0819 -33.8594 -33.8592   7.1562   7.1627   7.3084   7.3375   7.4399
     7.6184   7.8020   7.8709   7.9359   7.9535   8.0787   8.0989   8.2142
     8.2447   8.3715   8.4139   8.6862   8.7766   8.9352   9.0541   9.2182
     9.3647   9.5582   9.6471   9.8987   9.9025  10.1269  10.1278  10.5723
    10.6532  10.7222  10.8415  11.0778  11.1106  11.2817  11.3062  11.6253
    11.8796  12.2068  12.4922  12.6688  12.6915  12.6928  12.8246  12.9871
    16.3193  16.4518  16.7233  17.1434  17.7238  18.4704  19.3425  20.2326
    20.6958  20.7797

          k = 0.2778 0.6094 0.0000 (  4491 PWs)   bands (ev):

   -34.7144 -34.7004 -34.6852 -34.6775 -34.6598 -34.6536 -34.6369 -34.5999
   -34.5790 -34.5662 -34.5472 -34.5262 -34.5206 -34.4821 -34.4329 -34.4279
   -34.3672 -34.3561 -34.3400 -34.3207 -34.3019 -34.2036 -34.2034 -34.1146
   -34.1144 -33.8579 -33.8576   7.1176   7.3136   7.3771   7.5206   7.5636
     7.6360   7.7533   7.8511   7.9200   7.9264   8.0572   8.1222   8.1786
     8.2173   8.3309   8.4864   8.5752   8.9026   8.9586   9.1797   9.2723
     9.3720   9.4381   9.6475   9.8272   9.8684  10.1754  10.1836  10.5448
    10.6567  10.8207  10.9490  11.0460  11.1601  11.3022  11.3549  11.9468
    12.0947  12.2768  12.3643  12.4787  12.5309  12.5803  12.6345  12.7639
    17.5194  17.7039  18.0103  18.3838  18.7268  19.0345  19.3930  19.7970
    20.2212  20.3378

          k = 0.2778-0.4170 0.0000 (  4462 PWs)   bands (ev):

   -34.7244 -34.7137 -34.7065 -34.6935 -34.6745 -34.6587 -34.6360 -34.5814
   -34.5451 -34.4957 -34.4671 -34.4645 -34.4426 -34.4212 -34.4119 -34.3936
   -34.3802 -34.3561 -34.3344 -34.3021 -34.2609 -34.2133 -34.2132 -34.0363
   -34.0360 -33.8617 -33.8614   7.0061   7.1425   7.1762   7.3160   7.3622
     7.4967   7.6017   7.6936   7.7743   7.8851   8.0834   8.1061   8.1990
     8.3275   8.5386   8.5470   8.5830   8.7330   8.9563   9.0084   9.2518
     9.3824   9.5332   9.7681   9.9184   9.9475  10.1421  10.1670  10.3329
    10.5133  10.7546  10.9017  11.0667  11.1774  11.3091  11.3602  11.5235
    11.6918  12.1175  12.5312  12.7447  12.7784  12.8426  12.9312  13.0927
    15.1524  15.2399  15.4249  15.7724  16.3406  17.1474  18.1297  19.2010
    20.2609  21.1554

          k = 0.2778-0.2887 0.0000 (  4463 PWs)   bands (ev):

   -34.7037 -34.7028 -34.6841 -34.6801 -34.6429 -34.6305 -34.5953 -34.5827
   -34.5259 -34.4599 -34.4054 -34.3925 -34.3862 -34.3622 -34.3472 -34.3409
   -34.3265 -34.2999 -34.2822 -34.2713 -34.2316 -34.1826 -34.1826 -33.9463
   -33.9462 -33.8690 -33.8688   6.7644   6.8944   6.9759   7.0083   7.1702
     7.1825   7.2739   7.3733   7.4875   7.6329   7.7906   7.9998   8.0421
     8.3419   8.5401   8.8592   8.9075   9.1534   9.1928   9.2906   9.3915
     9.5164   9.6344   9.7285   9.8434  10.0648  10.1821  10.3522  10.5205
    10.5460  10.7591  10.9837  11.1620  11.2357  11.2786  11.4538  11.7670
    11.7809  12.0716  12.2208  12.3625  12.4256  12.5351  12.6168  12.7955
    12.9452  13.1393  13.1691  13.3168  13.9383  14.9477  16.1072  17.3321
    18.5240  19.5837

          k = 0.2778-0.1604 0.0000 (  4458 PWs)   bands (ev):

   -34.7030 -34.6822 -34.6501 -34.6285 -34.5926 -34.5667 -34.5332 -34.5043
   -34.4891 -34.4386 -34.3819 -34.3467 -34.3429 -34.3309 -34.3194 -34.2934
   -34.2809 -34.2682 -34.2403 -34.2235 -34.2169 -34.1132 -34.1129 -33.8977
   -33.8975 -33.8761 -33.8759   6.3811   6.5784   6.7901   6.8955   6.9695
     7.1565   7.3370   7.4198   7.5705   7.7273   7.8825   7.9619   8.1995
     8.5107   8.7233   8.8588   9.0461   9.1844   9.3372   9.4721   9.5536
     9.6058   9.6573   9.7975   9.8988  10.1028  10.1609  10.3464  10.4531
    10.4615  10.6094  10.7005  10.8840  11.0702  11.1081  11.2105  11.2494
    11.2937  11.3958  11.4457  11.6117  11.7327  11.8386  11.9450  11.9533
    12.0891  12.3891  12.6679  12.8315  12.8432  13.8977  15.0550  16.2407
    17.3437  18.2715

          k = 0.3889 0.6736 0.0000 (  4511 PWs)   bands (ev):

   -34.7513 -34.7361 -34.7079 -34.6989 -34.6945 -34.6712 -34.6635 -34.5540
   -34.5464 -34.5255 -34.5182 -34.5100 -34.4826 -34.4480 -34.4272 -34.4132
   -34.3683 -34.3681 -34.3426 -34.3094 -34.2904 -34.2298 -34.2297 -34.0722
   -34.0722 -33.8589 -33.8588   6.8403   7.0587   7.2275   7.3755   7.3859
     7.4321   7.5671   7.6334   7.7199   7.8106   8.0091   8.0344   8.1857
     8.3238   8.3616   8.4008   8.5234   8.7517   9.0280   9.2112   9.4587
     9.5909   9.6978   9.8164   9.8963  10.1399  10.2372  10.3755  10.6204
    10.6633  10.6924  11.0144  11.2676  11.4560  11.6019  11.7048  12.1273
    12.1791  12.2636  12.3533  12.5070  12.5214  12.6935  12.7813  12.8072
    17.0400  17.2523  17.5018  17.7386  17.9799  18.2555  18.5720  18.8813
    19.1445  20.4791

          k = 0.3889-0.3528 0.0000 (  4485 PWs)   bands (ev):

   -34.7923 -34.7771 -34.7562 -34.7414 -34.7336 -34.7035 -34.6935 -34.5244
   -34.5094 -34.4571 -34.4407 -34.4355 -34.4178 -34.3951 -34.3900 -34.3706
   -34.3561 -34.3240 -34.3135 -34.2889 -34.2656 -34.2559 -34.2534 -33.9792
   -33.9791 -33.8630 -33.8627   6.4544   6.6397   6.6613   6.8017   6.8687
     6.9455   6.9938   7.1957   7.2724   7.3054   7.6060   7.6589   7.8214
     8.2192   8.4916   8.7452   8.9109   9.2305   9.3326   9.4545   9.5156
     9.6486   9.8961  10.0895  10.2149  10.4765  10.6653  10.7959  11.0599
    11.2857  11.5581  11.5911  11.7034  11.9790  12.1723  12.2258  12.2582
    12.2880  12.3668  12.5663  12.6287  12.7331  12.8299  12.9706  13.0933
    14.5574  14.9363  15.3196  15.5552  15.8412  16.4136  17.1829  17.9534
    18.5214  20.2813

          k = 0.3889-0.2245 0.0000 (  4444 PWs)   bands (ev):

   -34.7682 -34.7539 -34.7432 -34.7275 -34.7065 -34.6864 -34.6570 -34.5534
   -34.5196 -34.4563 -34.4057 -34.3892 -34.3840 -34.3691 -34.3592 -34.3300
   -34.3197 -34.3017 -34.2716 -34.2602 -34.2465 -34.2367 -34.2338 -33.9331
   -33.9329 -33.8671 -33.8664   6.4137   6.4536   6.5724   6.6808   6.7442
     6.8141   6.9367   6.9776   7.1191   7.2952   7.4682   7.5209   7.8110
     8.3132   8.6651   9.0104   9.1860   9.2637   9.3551   9.5658   9.5744
     9.7212   9.9390  10.1603  10.3363  10.4206  10.8225  10.9541  11.1197
    11.4843  11.6147  11.9316  11.9552  12.1728  12.2303  12.2755  12.3215
    12.3751  12.4105  12.4760  12.5173  12.5864  12.6553  12.7654  12.8551
    12.8831  12.9525  13.2424  13.2808  13.8315  14.9661  16.2249  17.5095
    18.7628  20.0038

          k =-0.5000-0.8660 0.0000 (  4492 PWs)   bands (ev):

   -34.8241 -34.8100 -34.7894 -34.7687 -34.7677 -34.7287 -34.7263 -34.5114
   -34.5074 -34.4367 -34.4131 -34.4087 -34.4071 -34.4007 -34.3749 -34.3443
   -34.3441 -34.3149 -34.2902 -34.2844 -34.2775 -34.2617 -34.2583 -33.9473
   -33.9472 -33.8641 -33.8636   6.1798   6.3620   6.3807   6.5336   6.5902
     6.6545   6.7411   6.8991   6.9329   7.1042   7.3104   7.3336   7.6603
     8.2098   8.6225   8.8698   9.0471   9.1331   9.2463   9.4752   9.8600
     9.9025   9.9456  10.3725  10.5803  10.6349  10.9519  11.4395  11.4816
    11.5525  12.0977  12.3120  12.3518  12.4761  12.6679  12.7555  12.7695
    12.8059  12.8564  12.9099  12.9316  12.9804  13.0807  13.2468  13.2505
    13.4587  14.3520  15.1698  15.6545  15.8297  16.0885  16.2707  16.4212
    16.4819  19.9673

 ------ SPIN DOWN ----------


          k = 0.0556 0.0962 0.0000 (  4451 PWs)   bands (ev):

   -34.7936 -34.7504 -34.6561 -34.5390 -34.4237 -34.3223 -34.2996 -34.2946
   -34.2801 -34.2758 -34.2661 -34.2627 -34.2426 -34.2425 -34.2365 -34.2215
   -34.2085 -34.2067 -34.1859 -34.1841 -34.1727 -33.8960 -33.8954 -33.8700
   -33.8697 -33.8380 -33.8379   4.8236   5.1410   5.6269   6.1774   6.5431
     6.5944   6.6251   6.9519   6.9700   8.7067   8.7269   8.9259   8.9667
     8.9796   9.0781   9.1799   9.2683   9.3420   9.4233   9.4304   9.4836
     9.5007   9.5431   9.5565   9.5790   9.6365   9.6624   9.7357   9.7773
     9.8018   9.8537  10.0753  10.0903  10.2494  10.8249  10.8702  10.8711
    11.0446  11.0952  11.2556  11.3102  11.3843  11.4478  11.5546  11.6259
    11.8204  11.9365  12.2393  12.3654  12.5402  12.6685  12.9289  13.6312
    14.3115  14.7102

          k = 0.0556 0.2245 0.0000 (  4420 PWs)   bands (ev):

   -34.7393 -34.7105 -34.6403 -34.5610 -34.4932 -34.4454 -34.4173 -34.4021
   -34.3781 -34.3718 -34.3404 -34.3100 -34.3085 -34.2986 -34.2827 -34.2630
   -34.2539 -34.2415 -34.2227 -34.2054 -34.1931 -33.9965 -33.9962 -33.8838
   -33.8835 -33.8711 -33.8709   5.7469   6.0065   6.4074   6.8725   7.1274
     7.1889   7.3593   7.6038   7.6672   8.0148   8.2547   8.3927   8.4062
     8.5247   8.6244   8.7107   8.7762   9.1366   9.3231   9.4095   9.4966
     9.5630   9.6652   9.6818   9.7128   9.8188   9.8427   9.9967  10.1247
    10.1604  10.2434  10.3878  10.4625  10.5391  10.5654  10.6243  10.7272
    10.8356  10.9284  11.0534  11.1501  11.4516  11.5605  11.5971  11.7789
    12.0040  12.1788  12.5174  12.5193  12.6857  13.2484  14.1655  15.1675
    16.0913  16.8036

          k = 0.0556 0.3528 0.0000 (  4467 PWs)   bands (ev):

   -34.7014 -34.6826 -34.6681 -34.6574 -34.6172 -34.6055 -34.5721 -34.5464
   -34.5145 -34.4516 -34.3921 -34.3643 -34.3606 -34.3398 -34.3348 -34.3124
   -34.2970 -34.2766 -34.2621 -34.2386 -34.2243 -34.1514 -34.1512 -33.9151
   -33.9150 -33.8731 -33.8729   6.5495   6.7572   6.8613   6.9183   6.9780
     7.1434   7.1991   7.3691   7.4500   7.6727   7.7783   7.9461   8.0793
     8.4427   8.7014   8.8749   9.0544   9.2033   9.3509   9.4587   9.5298
     9.5561   9.5768   9.8034   9.8500  10.1563  10.1796  10.4204  10.5660
    10.6036  10.7143  10.8924  11.0960  11.2488  11.3506  11.4048  11.5162
    11.6846  11.7359  11.7977  11.9555  12.0979  12.1498  12.2855  12.3339
    12.3807  12.4242  12.5983  12.7794  13.2202  14.2887  15.4735  16.6982
    17.8579  18.8578

          k = 0.0556 0.4811 0.0000 (  4463 PWs)   bands (ev):

   -34.7883 -34.7732 -34.7566 -34.7424 -34.7268 -34.7030 -34.6823 -34.5369
   -34.5143 -34.4548 -34.4141 -34.4057 -34.3952 -34.3845 -34.3683 -34.3472
   -34.3352 -34.3055 -34.2931 -34.2649 -34.2618 -34.2512 -34.2461 -33.9482
   -33.9480 -33.8653 -33.8648   6.3755   6.4830   6.5554   6.6967   6.7196
     6.8167   6.8982   7.0203   7.1168   7.2457   7.4780   7.5087   7.7697
     8.2567   8.6004   8.9191   9.0856   9.2558   9.3181   9.5426   9.5600
     9.7261   9.9568  10.2429  10.2903  10.4810  10.8912  10.9791  11.1117
    11.5377  11.6317  11.9096  11.9656  12.0803  12.3070  12.3866  12.4223
    12.4619  12.5045  12.5318  12.6181  12.6624  12.8027  12.8918  13.0153
    13.3700  13.7994  14.1839  14.3083  14.6150  15.4655  16.5656  17.7078
    18.7512  20.2319

          k = 0.0556-0.5453 0.0000 (  4486 PWs)   bands (ev):

   -34.8164 -34.8008 -34.7799 -34.7627 -34.7570 -34.7239 -34.7163 -34.5136
   -34.5070 -34.4449 -34.4206 -34.4149 -34.4073 -34.3997 -34.3787 -34.3540
   -34.3465 -34.3129 -34.3021 -34.2769 -34.2757 -34.2639 -34.2598 -33.9559
   -33.9556 -33.8637 -33.8632   6.2545   6.4327   6.4572   6.5981   6.6645
     6.7358   6.7982   6.9766   7.0243   7.1537   7.3943   7.4174   7.6974
     8.2183   8.5867   8.8348   9.0162   9.1855   9.2695   9.5073   9.7040
     9.8007   9.9391  10.4275  10.4587  10.4611  11.0464  11.1818  11.2566
    11.6691  11.8830  12.1260  12.2113  12.3494  12.4269  12.5722  12.6503
    12.6894  12.7240  12.7668  12.8126  12.8438  12.9502  13.0484  13.1232
    13.9701  14.5828  15.2354  15.6864  15.7395  15.9017  16.4273  17.0032
    17.4042  20.0519

          k = 0.0556-0.4170 0.0000 (  4465 PWs)   bands (ev):

   -34.7371 -34.7288 -34.7174 -34.7043 -34.6765 -34.6581 -34.6246 -34.5714
   -34.5243 -34.4574 -34.4035 -34.3883 -34.3818 -34.3630 -34.3525 -34.3328
   -34.3175 -34.2924 -34.2796 -34.2538 -34.2423 -34.2118 -34.2111 -33.9343
   -33.9341 -33.8685 -33.8681   6.5535   6.5951   6.7328   6.7804   6.8990
     6.9554   7.0605   7.1083   7.2647   7.4267   7.6006   7.7047   7.8984
     8.3424   8.6365   8.9922   9.2386   9.2906   9.3730   9.4098   9.5401
     9.6529   9.7856  10.0496  10.0696  10.3001  10.5263  10.6305  10.9807
    11.0830  11.2757  11.4030  11.4947  11.7652  11.8543  11.9408  12.0113
    12.0761  12.1535  12.2471  12.3188  12.4785  12.5054  12.6468  12.7334
    12.8722  12.9819  13.0931  13.1678  13.7900  14.8771  16.1095  17.3885
    18.6358  19.7508

          k = 0.0556-0.2887 0.0000 (  4439 PWs)   bands (ev):

   -34.7078 -34.6890 -34.6430 -34.6010 -34.5604 -34.5277 -34.4966 -34.4734
   -34.4549 -34.4253 -34.3743 -34.3365 -34.3351 -34.3199 -34.3098 -34.2869
   -34.2754 -34.2596 -34.2425 -34.2214 -34.2072 -34.0759 -34.0757 -33.8929
   -33.8929 -33.8780 -33.8779   6.2739   6.4719   6.7448   7.0167   7.1191
     7.2762   7.5075   7.5626   7.7880   7.8291   8.0443   8.0848   8.2812
     8.4706   8.4902   8.7056   8.8874   8.9285   9.2158   9.4441   9.5497
     9.6096   9.6483   9.7014   9.8144   9.8717   9.9870  10.0549  10.1709
    10.3386  10.5715  10.5932  10.6524  10.7735  10.9139  10.9516  11.1108
    11.1633  11.2064  11.4398  11.5330  11.6269  11.8148  11.8449  11.9225
    12.1380  12.2518  12.5392  12.7225  12.8321  13.7491  14.8185  15.9435
    16.9908  17.8619

          k = 0.0556-0.1604 0.0000 (  4443 PWs)   bands (ev):

   -34.7707 -34.7329 -34.6477 -34.5444 -34.4472 -34.3731 -34.3493 -34.3374
   -34.3228 -34.3134 -34.2903 -34.2828 -34.2812 -34.2731 -34.2579 -34.2429
   -34.2336 -34.2217 -34.2030 -34.1925 -34.1822 -33.9264 -33.9262 -33.8887
   -33.8885 -33.8521 -33.8519   5.2202   5.5202   5.9830   6.5173   6.8555
     6.8964   6.9547   7.2696   7.2938   8.3888   8.5160   8.6510   8.7129
     8.7925   8.8366   8.9116   9.0374   9.2823   9.3382   9.4968   9.5674
     9.5808   9.6131   9.7053   9.7143   9.7511   9.7979   9.8250   9.8563
     9.9548  10.0180  10.0944  10.2256  10.3539  10.3700  10.7066  10.7687
    10.8645  10.9577  10.9677  11.1410  11.3511  11.4239  11.5333  11.7391
    11.8180  12.2022  12.2261  12.5144  12.6540  12.7925  13.5231  14.3836
    15.1800  15.7257

          k = 0.0556-0.0321 0.0000 (  4465 PWs)   bands (ev):

   -34.8058 -34.7599 -34.6616 -34.5384 -34.4161 -34.3012 -34.2739 -34.2716
   -34.2646 -34.2628 -34.2509 -34.2415 -34.2330 -34.2236 -34.2149 -34.2052
   -34.2029 -34.1833 -34.1821 -34.1765 -34.1653 -33.8979 -33.8976 -33.8419
   -33.8418 -33.8307 -33.8304   4.6138   4.9375   5.4306   5.9844   6.3642
     6.4138   6.4507   6.7698   6.7853   8.8758   8.9087   9.0929   9.1131
     9.1218   9.2089   9.2692   9.2904   9.3267   9.3362   9.3518   9.3564
     9.4462   9.4799   9.4995   9.5493   9.5824   9.5976   9.6207   9.7590
     9.8465   9.9400   9.9444   9.9534  10.6139  11.0020  11.0033  11.1553
    11.1635  11.2724  11.2923  11.3547  11.3962  11.4784  11.6351  11.7693
    11.9628  11.9792  12.0754  12.3330  12.4223  12.5820  12.7190  13.0296
    13.6417  13.9376

          k = 0.1667 0.2887 0.0000 (  4425 PWs)   bands (ev):

   -34.6817 -34.6791 -34.6509 -34.6193 -34.5855 -34.5612 -34.5380 -34.5078
   -34.4936 -34.4519 -34.3942 -34.3624 -34.3551 -34.3364 -34.3197 -34.3141
   -34.2970 -34.2808 -34.2780 -34.2634 -34.2105 -34.1079 -34.1078 -33.9260
   -33.9258 -33.8738 -33.8738   6.7627   6.8538   7.0197   7.2504   7.5221
     7.7270   7.7331   7.7748   7.8466   7.8754   7.9720   8.0017   8.1100
     8.2442   8.3389   8.4079   8.8440   8.8936   8.9285   9.0275   9.1974
     9.3335   9.3931   9.4056   9.4449   9.5022  10.0650  10.0727  10.2341
    10.3159  10.4656  10.5226  10.9137  10.9430  10.9982  11.1908  11.4222
    11.5141  11.6490  11.8017  12.0171  12.1094  12.2035  12.3461  12.3523
    12.3968  12.4690  12.5612  12.5807  13.3241  14.2966  15.3731  16.5178
    17.6137  18.5749

          k = 0.1667 0.4170 0.0000 (  4459 PWs)   bands (ev):

   -34.7205 -34.7094 -34.7020 -34.6878 -34.6670 -34.6466 -34.6280 -34.5793
   -34.5311 -34.4704 -34.4334 -34.4291 -34.4108 -34.3886 -34.3770 -34.3705
   -34.3453 -34.3432 -34.3127 -34.2906 -34.2437 -34.2038 -34.2035 -33.9885
   -33.9882 -33.8654 -33.8650   6.9261   6.9859   7.0863   7.1886   7.2809
     7.3379   7.4962   7.5199   7.5909   7.7471   7.8066   8.0521   8.1380
     8.3542   8.4630   8.6640   8.8549   8.8943   9.0356   9.1563   9.2476
     9.4550   9.5895   9.7988   9.8741  10.0103  10.0704  10.2369  10.3745
    10.5052  10.7846  11.0025  11.1045  11.1564  11.3290  11.3842  11.6704
    11.7467  12.0303  12.5018  12.5924  12.7208  12.7891  12.8382  12.9946
    13.9980  14.1329  14.2262  14.4740  15.0341  15.9208  16.9976  18.1663
    19.3324  20.3973

          k = 0.1667 0.5453 0.0000 (  4490 PWs)   bands (ev):

   -34.7792 -34.7645 -34.7394 -34.7246 -34.7232 -34.6907 -34.6858 -34.5251
   -34.5147 -34.4849 -34.4739 -34.4714 -34.4510 -34.4274 -34.3979 -34.3874
   -34.3757 -34.3521 -34.3352 -34.3014 -34.2749 -34.2493 -34.2491 -34.0224
   -34.0223 -33.8606 -33.8605   6.6142   6.8377   6.9020   7.0558   7.1132
     7.1635   7.2247   7.4317   7.5067   7.5437   7.7865   7.8981   8.0272
     8.2516   8.3493   8.5338   8.6633   8.9991   9.2544   9.3615   9.5151
     9.7210   9.8204   9.8594  10.1749  10.2350  10.2916  10.6630  10.7634
    11.0941  11.1212  11.2148  11.4765  11.7579  11.9200  12.0272  12.1337
    12.2059  12.3467  12.4947  12.5565  12.6314  12.7844  12.9008  12.9965
    15.8293  16.1447  16.4987  16.8044  17.1210  17.5153  17.9237  18.2235
    18.3875  20.3405

          k = 0.1667-0.4811 0.0000 (  4476 PWs)   bands (ev):

   -34.7584 -34.7436 -34.7264 -34.7117 -34.7039 -34.6745 -34.6662 -34.5500
   -34.5227 -34.4740 -34.4592 -34.4557 -34.4340 -34.4144 -34.3905 -34.3887
   -34.3617 -34.3519 -34.3241 -34.2999 -34.2618 -34.2338 -34.2337 -34.0106
   -34.0105 -33.8622 -33.8621   6.7252   6.9219   6.9329   7.1432   7.1556
     7.1910   7.3421   7.4720   7.5336   7.6195   7.8024   7.9544   8.0702
     8.2597   8.4308   8.6429   8.7566   8.8786   9.1921   9.2798   9.5451
     9.6234   9.7394   9.9084   9.9844  10.0395  10.2975  10.5040  10.6744
    10.8592  10.9019  11.0562  11.3734  11.5847  11.6579  11.7164  11.8267
    11.8777  12.1581  12.5306  12.6515  12.7486  12.8473  12.9530  13.0904
    14.9554  15.1619  15.3723  15.6544  16.1500  16.8911  17.8055  18.7752
    19.6256  20.5833

          k = 0.1667-0.3528 0.0000 (  4458 PWs)   bands (ev):

   -34.6846 -34.6810 -34.6632 -34.6612 -34.6266 -34.6112 -34.5885 -34.5740
   -34.5257 -34.4669 -34.4090 -34.3961 -34.3870 -34.3623 -34.3483 -34.3372
   -34.3277 -34.3209 -34.2986 -34.2772 -34.2261 -34.1608 -34.1606 -33.9588
   -33.9586 -33.8696 -33.8696   7.0177   7.1105   7.1803   7.2528   7.3775
     7.4658   7.5621   7.6399   7.6971   7.8170   7.9810   8.1059   8.1962
     8.2963   8.4270   8.5920   8.7011   8.8120   8.9849   9.1674   9.2207
     9.2518   9.3408   9.5354   9.6908   9.7385   9.9868  10.0007  10.2029
    10.4789  10.5914  10.6996  10.8867  11.0890  11.1472  11.2883  11.5712
    11.6377  11.8806  12.2998  12.3607  12.4844  12.5290  12.5964  12.7688
    13.1028  13.1768  13.2401  13.4055  14.0345  15.0133  16.1287  17.3131
    18.4672  19.5089

          k = 0.1667-0.2245 0.0000 (  4433 PWs)   bands (ev):

   -34.7119 -34.6930 -34.6407 -34.5850 -34.5371 -34.5023 -34.4734 -34.4503
   -34.4350 -34.4195 -34.3745 -34.3337 -34.3276 -34.3173 -34.3002 -34.2846
   -34.2686 -34.2583 -34.2495 -34.2357 -34.1997 -34.0510 -34.0509 -33.8956
   -33.8955 -33.8790 -33.8789   6.2251   6.4297   6.7480   7.1322   7.4087
     7.4834   7.6244   7.7459   7.8627   7.9572   8.0767   8.1528   8.1959
     8.3228   8.4393   8.5770   8.6478   8.8829   9.1381   9.1910   9.2875
     9.4031   9.4648   9.5869   9.6624   9.6815   9.8913  10.0101  10.1895
    10.4192  10.4382  10.5401  10.6123  10.7202  10.8712  10.9067  11.0367
    11.1633  11.2007  11.4812  11.5305  11.5822  11.8537  11.8910  11.8984
    12.0586  12.2094  12.3952  12.5540  12.8733  13.7335  14.7265  15.8005
    16.8127  17.6543

          k = 0.1667-0.0962 0.0000 (  4427 PWs)   bands (ev):

   -34.7606 -34.7252 -34.6445 -34.5487 -34.4622 -34.3999 -34.3767 -34.3592
   -34.3436 -34.3273 -34.3014 -34.2972 -34.2946 -34.2769 -34.2725 -34.2511
   -34.2429 -34.2297 -34.2050 -34.1952 -34.1844 -33.9523 -33.9521 -33.8871
   -33.8868 -33.8568 -33.8567   5.4005   5.6882   6.1318   6.6425   6.9477
     6.9722   7.1139   7.3923   7.4301   8.1991   8.4477   8.5491   8.6077
     8.7021   8.7840   8.8433   8.9289   9.3407   9.3817   9.4826   9.5936
     9.6059   9.6422   9.7162   9.7759   9.8388   9.8500   9.9328   9.9859
    10.0327  10.0495  10.0731  10.2215  10.3585  10.4634  10.5441  10.7229
    10.7378  10.9040  11.0095  11.1422  11.2742  11.4960  11.5136  11.7037
    12.0112  12.0857  12.3607  12.6217  12.7730  12.8402  13.7227  14.6646
    15.5135  16.1197

          k = 0.2778 0.4811 0.0000 (  4485 PWs)   bands (ev):

   -34.7144 -34.7138 -34.6987 -34.6968 -34.6668 -34.6593 -34.6197 -34.6031
   -34.5740 -34.5347 -34.5050 -34.5010 -34.4744 -34.4600 -34.4305 -34.4250
   -34.3783 -34.3564 -34.3391 -34.3156 -34.2820 -34.2119 -34.2118 -34.0822
   -34.0819 -33.8595 -33.8592   7.1562   7.1627   7.3084   7.3375   7.4398
     7.6184   7.8020   7.8708   7.9359   7.9535   8.0786   8.0988   8.2142
     8.2447   8.3715   8.4139   8.6862   8.7766   8.9352   9.0541   9.2182
     9.3647   9.5582   9.6471   9.8986   9.9025  10.1269  10.1278  10.5723
    10.6532  10.7221  10.8415  11.0778  11.1105  11.2816  11.3061  11.6252
    11.8796  12.2067  12.4921  12.6688  12.6914  12.6928  12.8245  12.9871
    16.3193  16.4518  16.7232  17.1434  17.7237  18.4704  19.3424  20.2326
    20.6958  20.7788

          k = 0.2778 0.6094 0.0000 (  4491 PWs)   bands (ev):

   -34.7144 -34.7004 -34.6852 -34.6775 -34.6598 -34.6537 -34.6369 -34.6000
   -34.5790 -34.5663 -34.5472 -34.5263 -34.5206 -34.4821 -34.4329 -34.4280
   -34.3672 -34.3561 -34.3401 -34.3208 -34.3020 -34.2036 -34.2034 -34.1146
   -34.1144 -33.8579 -33.8576   7.1176   7.3136   7.3771   7.5206   7.5636
     7.6360   7.7533   7.8511   7.9200   7.9263   8.0572   8.1221   8.1785
     8.2173   8.3309   8.4864   8.5752   8.9026   8.9586   9.1797   9.2723
     9.3720   9.4381   9.6474   9.8272   9.8684  10.1754  10.1835  10.5447
    10.6567  10.8207  10.9490  11.0460  11.1601  11.3021  11.3549  11.9467
    12.0947  12.2767  12.3642  12.4786  12.5309  12.5802  12.6344  12.7639
    17.5194  17.7039  18.0103  18.3838  18.7268  19.0345  19.3930  19.7970
    20.2212  20.3378

          k = 0.2778-0.4170 0.0000 (  4462 PWs)   bands (ev):

   -34.7245 -34.7137 -34.7065 -34.6935 -34.6746 -34.6587 -34.6360 -34.5815
   -34.5451 -34.4957 -34.4672 -34.4646 -34.4426 -34.4212 -34.4119 -34.3936
   -34.3802 -34.3561 -34.3344 -34.3021 -34.2610 -34.2134 -34.2132 -34.0363
   -34.0360 -33.8617 -33.8615   7.0061   7.1425   7.1762   7.3160   7.3622
     7.4967   7.6017   7.6935   7.7743   7.8851   8.0834   8.1060   8.1990
     8.3275   8.5386   8.5469   8.5830   8.7330   8.9563   9.0084   9.2518
     9.3824   9.5332   9.7680   9.9183   9.9474  10.1421  10.1670  10.3328
    10.5132  10.7546  10.9016  11.0666  11.1774  11.3090  11.3601  11.5235
    11.6917  12.1174  12.5312  12.7446  12.7783  12.8425  12.9311  13.0926
    15.1524  15.2399  15.4249  15.7724  16.3406  17.1474  18.1297  19.2010
    20.2609  21.1553

          k = 0.2778-0.2887 0.0000 (  4463 PWs)   bands (ev):

   -34.7038 -34.7028 -34.6841 -34.6801 -34.6429 -34.6306 -34.5953 -34.5828
   -34.5260 -34.4599 -34.4054 -34.3926 -34.3863 -34.3622 -34.3472 -34.3409
   -34.3265 -34.3000 -34.2823 -34.2713 -34.2316 -34.1826 -34.1826 -33.9464
   -33.9463 -33.8691 -33.8689   6.7643   6.8944   6.9759   7.0083   7.1702
     7.1824   7.2739   7.3733   7.4874   7.6328   7.7906   7.9998   8.0421
     8.3419   8.5400   8.8592   8.9075   9.1534   9.1928   9.2906   9.3915
     9.5164   9.6343   9.7285   9.8434  10.0647  10.1821  10.3521  10.5204
    10.5460  10.7591  10.9837  11.1620  11.2357  11.2786  11.4538  11.7670
    11.7809  12.0716  12.2208  12.3625  12.4256  12.5351  12.6168  12.7955
    12.9452  13.1393  13.1690  13.3168  13.9383  14.9476  16.1072  17.3321
    18.5240  19.5837

          k = 0.2778-0.1604 0.0000 (  4458 PWs)   bands (ev):

   -34.7031 -34.6823 -34.6502 -34.6285 -34.5926 -34.5668 -34.5332 -34.5044
   -34.4891 -34.4386 -34.3819 -34.3468 -34.3429 -34.3309 -34.3194 -34.2934
   -34.2810 -34.2682 -34.2403 -34.2236 -34.2169 -34.1132 -34.1130 -33.8977
   -33.8975 -33.8762 -33.8759   6.3811   6.5784   6.7901   6.8955   6.9695
     7.1565   7.3370   7.4198   7.5705   7.7272   7.8825   7.9619   8.1995
     8.5107   8.7233   8.8588   9.0461   9.1844   9.3371   9.4721   9.5535
     9.6057   9.6572   9.7975   9.8988  10.1028  10.1609  10.3463  10.4530
    10.4615  10.6094  10.7005  10.8840  11.0702  11.1081  11.2105  11.2494
    11.2937  11.3957  11.4457  11.6117  11.7326  11.8385  11.9449  11.9533
    12.0891  12.3891  12.6678  12.8315  12.8432  13.8977  15.0550  16.2407
    17.3436  18.2715

          k = 0.3889 0.6736 0.0000 (  4511 PWs)   bands (ev):

   -34.7513 -34.7362 -34.7079 -34.6989 -34.6945 -34.6713 -34.6635 -34.5540
   -34.5464 -34.5255 -34.5183 -34.5100 -34.4826 -34.4481 -34.4272 -34.4133
   -34.3683 -34.3681 -34.3426 -34.3095 -34.2905 -34.2298 -34.2298 -34.0723
   -34.0722 -33.8590 -33.8589   6.8403   7.0587   7.2275   7.3755   7.3858
     7.4320   7.5671   7.6334   7.7199   7.8106   8.0091   8.0344   8.1857
     8.3238   8.3616   8.4008   8.5234   8.7517   9.0279   9.2111   9.4586
     9.5909   9.6978   9.8163   9.8962  10.1399  10.2372  10.3754  10.6204
    10.6632  10.6924  11.0144  11.2675  11.4560  11.6019  11.7047  12.1273
    12.1790  12.2636  12.3532  12.5070  12.5214  12.6935  12.7812  12.8071
    17.0400  17.2523  17.5018  17.7386  17.9799  18.2555  18.5720  18.8813
    19.1445  20.4781

          k = 0.3889-0.3528 0.0000 (  4485 PWs)   bands (ev):

   -34.7923 -34.7771 -34.7562 -34.7414 -34.7337 -34.7035 -34.6936 -34.5244
   -34.5094 -34.4571 -34.4407 -34.4356 -34.4178 -34.3951 -34.3901 -34.3706
   -34.3562 -34.3240 -34.3135 -34.2889 -34.2657 -34.2559 -34.2535 -33.9792
   -33.9791 -33.8630 -33.8628   6.4544   6.6396   6.6613   6.8016   6.8687
     6.9455   6.9938   7.1957   7.2724   7.3053   7.6060   7.6588   7.8214
     8.2192   8.4916   8.7452   8.9109   9.2305   9.3325   9.4544   9.5156
     9.6486   9.8960  10.0895  10.2149  10.4764  10.6653  10.7959  11.0599
    11.2857  11.5580  11.5911  11.7034  11.9790  12.1723  12.2257  12.2581
    12.2880  12.3667  12.5663  12.6286  12.7330  12.8299  12.9706  13.0933
    14.5574  14.9362  15.3196  15.5552  15.8412  16.4136  17.1829  17.9533
    18.5214  20.2811

          k = 0.3889-0.2245 0.0000 (  4444 PWs)   bands (ev):

   -34.7683 -34.7540 -34.7432 -34.7276 -34.7065 -34.6865 -34.6570 -34.5535
   -34.5197 -34.4563 -34.4058 -34.3892 -34.3840 -34.3692 -34.3592 -34.3301
   -34.3198 -34.3017 -34.2716 -34.2602 -34.2465 -34.2367 -34.2339 -33.9332
   -33.9329 -33.8671 -33.8664   6.4137   6.4536   6.5724   6.6808   6.7442
     6.8141   6.9367   6.9776   7.1190   7.2952   7.4682   7.5209   7.8110
     8.3132   8.6651   9.0104   9.1860   9.2637   9.3551   9.5658   9.5743
     9.7212   9.9389  10.1603  10.3363  10.4206  10.8225  10.9540  11.1196
    11.4843  11.6147  11.9315  11.9551  12.1728  12.2303  12.2755  12.3215
    12.3750  12.4105  12.4760  12.5173  12.5863  12.6552  12.7653  12.8551
    12.8831  12.9525  13.2424  13.2808  13.8315  14.9661  16.2249  17.5094
    18.7628  20.0038

          k =-0.5000-0.8660 0.0000 (  4492 PWs)   bands (ev):

   -34.8242 -34.8101 -34.7894 -34.7688 -34.7678 -34.7288 -34.7263 -34.5114
   -34.5074 -34.4367 -34.4132 -34.4088 -34.4072 -34.4007 -34.3749 -34.3443
   -34.3441 -34.3149 -34.2902 -34.2844 -34.2775 -34.2618 -34.2584 -33.9473
   -33.9472 -33.8642 -33.8636   6.1798   6.3620   6.3807   6.5336   6.5902
     6.6545   6.7410   6.8991   6.9329   7.1042   7.3104   7.3336   7.6603
     8.2098   8.6224   8.8697   9.0471   9.1331   9.2463   9.4752   9.8600
     9.9025   9.9456  10.3725  10.5803  10.6348  10.9519  11.4395  11.4816
    11.5524  12.0977  12.3120  12.3518  12.4760  12.6679  12.7555  12.7695
    12.8058  12.8564  12.9099  12.9315  12.9804  13.0807  13.2468  13.2505
    13.4587  14.3520  15.1698  15.6545  15.8297  16.0885  16.2707  16.4212
    16.4819  19.9666

     the Fermi energy is    12.2027 ev

!    total energy              =   -1540.61827089 Ry
     estimated scf accuracy    <       0.00000082 Ry
     smearing contrib. (-TS)   =      -0.03861425 Ry
     internal energy E=F+TS    =   -1540.57965664 Ry

     The total energy is F=E-TS. E is the sum of the following terms:
     one-electron contribution =  -10637.72128080 Ry
     hartree contribution      =    5396.80708974 Ry
     xc contribution           =    -269.21687401 Ry
     ewald contribution        =    3969.55140843 Ry

     total magnetization       =    -0.00 Bohr mag/cell
     absolute magnetization    =     0.00 Bohr mag/cell

     convergence has been achieved in   9 iterations

     negative rho (up, down):  2.575E-01 2.575E-01

     Forces acting on atoms (cartesian axes, Ry/au):

     atom    1 type  1   force =     0.00000000    0.00000000    0.00923494
     atom    2 type  1   force =     0.00000000    0.00000000   -0.00442812
     atom    3 type  1   force =     0.00000000    0.00000000   -0.00525757
     atom    4 type  1   force =     0.00000000    0.00000000   -0.00006690
     atom    5 type  1   force =     0.00000000    0.00000000    0.00000437
     atom    6 type  1   force =     0.00000000    0.00000000    0.00007008
     atom    7 type  1   force =     0.00000000    0.00000000    0.00525036
     atom    8 type  1   force =     0.00000000    0.00000000    0.00442014
     atom    9 type  1   force =     0.00000000    0.00000000   -0.00922730

     Total force =     0.016272     Total SCF correction =     0.008798
     SCF correction compared to forces is large: reduce conv_thr to get better values
     Energy error            =      4.2E-04
     Gradient error          =      9.2E-03

     number of scf cycles    =   2
     number of bfgs steps    =   1

     energy   old            =   -1540.6178531087 Ry
     energy   new            =   -1540.6182708900 Ry

     CASE: energy  _new < energy  _old

     new trust radius        =       0.0131556624 bohr
     new conv_thr            =       0.0000004178 Ry


ATOMIC_POSITIONS (angstrom)
Rh            0.0000000000        0.0000000000        0.0132904737
Rh            1.3554284000       -0.7825569000        2.2061660163
Rh            1.3554284000        0.7825569000        4.4194050559
Rh            0.0000000000        0.0000000000        6.6406502868
Rh            1.3554284000       -0.7825569000        8.8536118734
Rh            1.3554284000        0.7825569000       11.0665826647
Rh            0.0000000000        0.0000000000       13.2878413598
Rh            1.3554284000       -0.7825569000       15.5010831773
Rh            1.3554284000        0.7825569000       17.6939594921



     Writing output data file /home/STUDENTI/leonardo.razzai/Rh_work/surf_111/9-L.save/
     NEW-OLD atomic charge density approx. for the potential

     negative rho (up, down):  2.564E-01 2.564E-01
     Generating pointlists ...

     total cpu time spent up to now is      300.7 secs

     Self-consistent Calculation

     iteration #  1     ecut=    35.00 Ry     beta= 0.40
     Davidson diagonalization with overlap
     ethr =  1.00E-06,  avg # of iterations =  6.0

     negative rho (up, down):  2.564E-01 2.564E-01

     total cpu time spent up to now is      323.3 secs

     total energy              =   -1540.61658384 Ry
     estimated scf accuracy    <       0.17262837 Ry

     total magnetization       =    -0.00 Bohr mag/cell
     absolute magnetization    =     0.00 Bohr mag/cell

     iteration #  2     ecut=    35.00 Ry     beta= 0.40
     Davidson diagonalization with overlap
     ethr =  1.28E-04,  avg # of iterations =  1.0

     negative rho (up, down):  2.564E-01 2.564E-01

     total cpu time spent up to now is      333.7 secs

     total energy              =   -1540.61792448 Ry
     estimated scf accuracy    <       0.10133106 Ry

     total magnetization       =    -0.00 Bohr mag/cell
     absolute magnetization    =     0.00 Bohr mag/cell

     iteration #  3     ecut=    35.00 Ry     beta= 0.40
     Davidson diagonalization with overlap
     ethr =  7.51E-05,  avg # of iterations =  1.0

     negative rho (up, down):  2.564E-01 2.564E-01

     total cpu time spent up to now is      344.1 secs

     total energy              =   -1540.61860429 Ry
     estimated scf accuracy    <       0.00395287 Ry

     total magnetization       =    -0.00 Bohr mag/cell
     absolute magnetization    =     0.00 Bohr mag/cell

     iteration #  4     ecut=    35.00 Ry     beta= 0.40
     Davidson diagonalization with overlap
     ethr =  2.93E-06,  avg # of iterations =  1.0

     negative rho (up, down):  2.564E-01 2.564E-01

     total cpu time spent up to now is      354.5 secs

     total energy              =   -1540.61857124 Ry
     estimated scf accuracy    <       0.00204487 Ry

     total magnetization       =    -0.00 Bohr mag/cell
     absolute magnetization    =     0.00 Bohr mag/cell

     iteration #  5     ecut=    35.00 Ry     beta= 0.40
     Davidson diagonalization with overlap
     ethr =  1.51E-06,  avg # of iterations =  1.0

     negative rho (up, down):  2.564E-01 2.564E-01

     total cpu time spent up to now is      364.9 secs

     total energy              =   -1540.61858983 Ry
     estimated scf accuracy    <       0.00000959 Ry

     total magnetization       =    -0.00 Bohr mag/cell
     absolute magnetization    =     0.00 Bohr mag/cell

     iteration #  6     ecut=    35.00 Ry     beta= 0.40
     Davidson diagonalization with overlap
     ethr =  7.10E-09,  avg # of iterations =  2.1

     negative rho (up, down):  2.564E-01 2.564E-01

     total cpu time spent up to now is      376.7 secs

     total energy              =   -1540.61859050 Ry
     estimated scf accuracy    <       0.00000063 Ry

     total magnetization       =    -0.00 Bohr mag/cell
     absolute magnetization    =     0.00 Bohr mag/cell

     iteration #  7     ecut=    35.00 Ry     beta= 0.40
     Davidson diagonalization with overlap
     ethr =  4.63E-10,  avg # of iterations =  2.0

     negative rho (up, down):  2.564E-01 2.564E-01
 
     Magnetic moment per site:
     atom:    1    charge:   13.1820    magn:   -0.0000    constr:    0.0000
     atom:    2    charge:   13.2428    magn:   -0.0000    constr:    0.0000
     atom:    3    charge:   13.2452    magn:   -0.0000    constr:    0.0000
     atom:    4    charge:   13.2473    magn:   -0.0000    constr:    0.0000
     atom:    5    charge:   13.2482    magn:   -0.0000    constr:    0.0000
     atom:    6    charge:   13.2470    magn:   -0.0000    constr:    0.0000
     atom:    7    charge:   13.2457    magn:   -0.0000    constr:    0.0000
     atom:    8    charge:   13.2419    magn:   -0.0000    constr:    0.0000
     atom:    9    charge:   13.1817    magn:   -0.0000    constr:    0.0000

     total cpu time spent up to now is      388.2 secs

     End of self-consistent calculation

 ------ SPIN UP ------------


          k = 0.0556 0.0962 0.0000 (  4451 PWs)   bands (ev):

   -34.7886 -34.7488 -34.6588 -34.5393 -34.4233 -34.3219 -34.3007 -34.2908
   -34.2786 -34.2754 -34.2664 -34.2590 -34.2396 -34.2378 -34.2312 -34.2174
   -34.2035 -34.2023 -34.1804 -34.1792 -34.1677 -33.9033 -33.9028 -33.8754
   -33.8752 -33.8435 -33.8435   4.8290   5.1407   5.6208   6.1752   6.5471
     6.5983   6.6305   6.9380   6.9575   8.7075   8.7334   8.9216   8.9719
     8.9883   9.0799   9.1734   9.2635   9.3447   9.4274   9.4365   9.4852
     9.4998   9.5417   9.5583   9.5810   9.6325   9.6666   9.7345   9.7794
     9.7986   9.8515  10.0647  10.0786  10.2500  10.8240  10.8746  10.8765
    11.0475  11.0955  11.2534  11.3100  11.3834  11.4490  11.5551  11.6297
    11.8167  11.9394  12.2413  12.3661  12.5470  12.6726  12.9304  13.6368
    14.3216  14.7162

          k = 0.0556 0.2245 0.0000 (  4420 PWs)   bands (ev):

   -34.7345 -34.7085 -34.6415 -34.5603 -34.4935 -34.4475 -34.4172 -34.3973
   -34.3743 -34.3687 -34.3359 -34.3092 -34.3080 -34.2964 -34.2796 -34.2590
   -34.2494 -34.2376 -34.2171 -34.2004 -34.1881 -34.0019 -34.0016 -33.8913
   -33.8910 -33.8766 -33.8764   5.7524   6.0068   6.4022   6.8699   7.1332
     7.1895   7.3581   7.5923   7.6594   8.0181   8.2543   8.3954   8.4070
     8.5253   8.6134   8.7135   8.7701   9.1363   9.3215   9.4085   9.4962
     9.5658   9.6682   9.6853   9.7157   9.8189   9.8438   9.9951  10.1240
    10.1610  10.2427  10.3825  10.4586  10.5367  10.5667  10.6256  10.7270
    10.8357  10.9269  11.0541  11.1501  11.4536  11.5638  11.5987  11.7789
    12.0070  12.1823  12.5205  12.5275  12.6902  13.2525  14.1697  15.1752
    16.1013  16.8092

          k = 0.0556 0.3528 0.0000 (  4467 PWs)   bands (ev):

   -34.6970 -34.6805 -34.6634 -34.6555 -34.6173 -34.6076 -34.5711 -34.5421
   -34.5132 -34.4511 -34.3902 -34.3634 -34.3606 -34.3360 -34.3331 -34.3083
   -34.2928 -34.2725 -34.2568 -34.2336 -34.2194 -34.1559 -34.1556 -33.9205
   -33.9204 -33.8813 -33.8811   6.5552   6.7571   6.8675   6.9231   6.9714
     7.1392   7.2010   7.3647   7.4455   7.6657   7.7707   7.9425   8.0742
     8.4396   8.7027   8.8706   9.0562   9.2022   9.3516   9.4616   9.5330
     9.5589   9.5800   9.7987   9.8514  10.1461  10.1785  10.4169  10.5614
    10.6002  10.7147  10.8889  11.0951  11.2542  11.3527  11.4100  11.5147
    11.6883  11.7385  11.7977  11.9553  12.0979  12.1541  12.2882  12.3355
    12.3865  12.4255  12.6062  12.7837  13.2254  14.2952  15.4814  16.7056
    17.8656  18.8645

          k = 0.0556 0.4811 0.0000 (  4463 PWs)   bands (ev):

   -34.7849 -34.7730 -34.7529 -34.7411 -34.7232 -34.7004 -34.6778 -34.5387
   -34.5194 -34.4541 -34.4117 -34.4041 -34.3933 -34.3800 -34.3661 -34.3431
   -34.3314 -34.3014 -34.2885 -34.2622 -34.2605 -34.2530 -34.2444 -33.9536
   -33.9534 -33.8741 -33.8736   6.3813   6.4885   6.5548   6.6984   6.7224
     6.8098   6.8962   7.0192   7.1135   7.2371   7.4671   7.5018   7.7635
     8.2543   8.5988   8.9211   9.0915   9.2589   9.3212   9.5431   9.5553
     9.7300   9.9444  10.2445  10.2899  10.4739  10.8902  10.9782  11.1101
    11.5384  11.6291  11.9095  11.9697  12.0844  12.3114  12.3882  12.4264
    12.4641  12.5068  12.5374  12.6204  12.6672  12.8027  12.8936  13.0187
    13.3727  13.7998  14.1848  14.3117  14.6184  15.4714  16.5744  17.7140
    18.7542  20.2363

          k = 0.0556-0.5453 0.0000 (  4486 PWs)   bands (ev):

   -34.8131 -34.8006 -34.7780 -34.7599 -34.7535 -34.7206 -34.7115 -34.5196
   -34.5143 -34.4398 -34.4177 -34.4128 -34.4030 -34.3963 -34.3771 -34.3497
   -34.3432 -34.3089 -34.2989 -34.2783 -34.2757 -34.2605 -34.2563 -33.9612
   -33.9610 -33.8726 -33.8722   6.2604   6.4381   6.4560   6.6036   6.6634
     6.7275   6.7982   6.9735   7.0230   7.1459   7.3855   7.4073   7.6907
     8.2149   8.5848   8.8381   9.0223   9.1887   9.2733   9.5022   9.7036
     9.8030   9.9292  10.4247  10.4546  10.4623  11.0429  11.1795  11.2589
    11.6699  11.8850  12.1279  12.2141  12.3536  12.4326  12.5756  12.6515
    12.6909  12.7277  12.7703  12.8161  12.8471  12.9507  13.0482  13.1253
    13.9731  14.5829  15.2359  15.6900  15.7427  15.9066  16.4353  17.0091
    17.4076  20.0494

          k = 0.0556-0.4170 0.0000 (  4465 PWs)   bands (ev):

   -34.7336 -34.7267 -34.7137 -34.7028 -34.6746 -34.6567 -34.6203 -34.5706
   -34.5264 -34.4582 -34.4016 -34.3871 -34.3812 -34.3593 -34.3502 -34.3288
   -34.3135 -34.2882 -34.2743 -34.2488 -34.2381 -34.2156 -34.2143 -33.9397
   -33.9395 -33.8771 -33.8767   6.5591   6.6010   6.7333   6.7793   6.9034
     6.9517   7.0548   7.1087   7.2594   7.4181   7.5907   7.6991   7.8930
     8.3408   8.6355   8.9922   9.2427   9.2908   9.3750   9.4131   9.5449
     9.6486   9.7845  10.0435  10.0650  10.3018  10.5196  10.6300  10.9773
    11.0794  11.2734  11.4020  11.4954  11.7694  11.8597  11.9433  12.0137
    12.0785  12.1558  12.2488  12.3237  12.4785  12.5111  12.6516  12.7364
    12.8763  12.9832  13.0965  13.1679  13.7941  14.8839  16.1184  17.3954
    18.6414  19.7577

          k = 0.0556-0.2887 0.0000 (  4439 PWs)   bands (ev):

   -34.7032 -34.6866 -34.6418 -34.5994 -34.5614 -34.5301 -34.4960 -34.4688
   -34.4515 -34.4223 -34.3716 -34.3359 -34.3350 -34.3175 -34.3070 -34.2829
   -34.2708 -34.2557 -34.2370 -34.2164 -34.2023 -34.0808 -34.0807 -33.8984
   -33.8984 -33.8859 -33.8858   6.2796   6.4728   6.7417   7.0161   7.1222
     7.2727   7.5040   7.5611   7.7860   7.8245   8.0432   8.0815   8.2790
     8.4601   8.4904   8.7005   8.8930   8.9262   9.2170   9.4469   9.5514
     9.6097   9.6525   9.7017   9.8144   9.8656   9.9867  10.0513  10.1727
    10.3312  10.5762  10.5866  10.6503  10.7752  10.9157  10.9504  11.1133
    11.1656  11.2106  11.4371  11.5297  11.6272  11.8173  11.8480  11.9251
    12.1411  12.2572  12.5477  12.7266  12.8371  13.7545  14.8247  15.9513
    17.0000  17.8679

          k = 0.0556-0.1604 0.0000 (  4443 PWs)   bands (ev):

   -34.7657 -34.7312 -34.6499 -34.5443 -34.4470 -34.3746 -34.3498 -34.3326
   -34.3199 -34.3104 -34.2892 -34.2824 -34.2772 -34.2689 -34.2549 -34.2383
   -34.2297 -34.2174 -34.1974 -34.1875 -34.1772 -33.9321 -33.9319 -33.8958
   -33.8956 -33.8577 -33.8575   5.2257   5.5201   5.9771   6.5149   6.8605
     6.9000   6.9581   7.2556   7.2816   8.3923   8.5169   8.6525   8.7189
     8.7948   8.8376   8.9048   9.0314   9.2775   9.3372   9.4994   9.5690
     9.5861   9.6157   9.7047   9.7183   9.7537   9.7971   9.8251   9.8561
     9.9502  10.0176  10.0972  10.2268  10.3448  10.3597  10.7095  10.7730
    10.8631  10.9594  10.9665  11.1423  11.3527  11.4266  11.5346  11.7380
    11.8191  12.2051  12.2280  12.5212  12.6575  12.7962  13.5256  14.3906
    15.1904  15.7314

          k = 0.0556-0.0321 0.0000 (  4465 PWs)   bands (ev):

   -34.8008 -34.7583 -34.6645 -34.5388 -34.4156 -34.2985 -34.2741 -34.2712
   -34.2648 -34.2637 -34.2480 -34.2383 -34.2288 -34.2193 -34.2105 -34.2012
   -34.1977 -34.1775 -34.1770 -34.1715 -34.1603 -33.9051 -33.9048 -33.8474
   -33.8473 -33.8362 -33.8360   4.6192   4.9372   5.4244   5.9824   6.3674
     6.4188   6.4564   6.7561   6.7728   8.8774   8.9146   9.0923   9.1170
     9.1283   9.2100   9.2741   9.2894   9.3314   9.3402   9.3515   9.3556
     9.4461   9.4774   9.5048   9.5505   9.5824   9.5974   9.6237   9.7552
     9.8375   9.9281   9.9327   9.9536  10.6133  11.0071  11.0081  11.1579
    11.1655  11.2728  11.2934  11.3525  11.3952  11.4784  11.6315  11.7670
    11.9663  11.9767  12.0807  12.3368  12.4225  12.5879  12.7231  13.0338
    13.6512  13.9441

          k = 0.1667 0.2887 0.0000 (  4425 PWs)   bands (ev):

   -34.6776 -34.6759 -34.6480 -34.6173 -34.5865 -34.5642 -34.5375 -34.5033
   -34.4899 -34.4498 -34.3919 -34.3636 -34.3575 -34.3328 -34.3174 -34.3089
   -34.2916 -34.2750 -34.2735 -34.2587 -34.2056 -34.1127 -34.1125 -33.9314
   -33.9313 -33.8819 -33.8819   6.7690   6.8566   7.0186   7.2481   7.5178
     7.7304   7.7373   7.7698   7.8515   7.8729   7.9740   7.9932   8.0982
     8.2338   8.3339   8.4111   8.8420   8.8899   8.9294   9.0244   9.1965
     9.3322   9.3814   9.3958   9.4527   9.5100  10.0677  10.0751  10.2336
    10.3155  10.4656  10.5220  10.9164  10.9409  11.0000  11.1963  11.4183
    11.5124  11.6527  11.8034  12.0199  12.1128  12.2053  12.3518  12.3543
    12.4016  12.4715  12.5613  12.5842  13.3293  14.3031  15.3806  16.5251
    17.6219  18.5812

          k = 0.1667 0.4170 0.0000 (  4459 PWs)   bands (ev):

   -34.7175 -34.7088 -34.6980 -34.6849 -34.6647 -34.6456 -34.6234 -34.5782
   -34.5317 -34.4707 -34.4355 -34.4321 -34.4088 -34.3828 -34.3729 -34.3662
   -34.3420 -34.3376 -34.3080 -34.2854 -34.2389 -34.2077 -34.2075 -33.9938
   -33.9935 -33.8740 -33.8737   6.9322   6.9918   7.0875   7.1889   7.2780
     7.3417   7.4922   7.5109   7.5849   7.7397   7.8039   8.0480   8.1348
     8.3491   8.4573   8.6585   8.8531   8.8948   9.0383   9.1552   9.2484
     9.4567   9.5847   9.7989   9.8761  10.0073  10.0689  10.2322  10.3732
    10.5002  10.7849  11.0056  11.1071  11.1599  11.3299  11.3898  11.6767
    11.7511  12.0355  12.5068  12.5962  12.7236  12.7914  12.8424  12.9981
    14.0018  14.1360  14.2269  14.4735  15.0365  15.9264  17.0055  18.1726
    19.3378  20.4041

          k = 0.1667 0.5453 0.0000 (  4490 PWs)   bands (ev):

   -34.7758 -34.7642 -34.7385 -34.7216 -34.7192 -34.6878 -34.6806 -34.5272
   -34.5182 -34.4844 -34.4742 -34.4696 -34.4494 -34.4244 -34.3944 -34.3833
   -34.3712 -34.3468 -34.3304 -34.2962 -34.2699 -34.2529 -34.2527 -34.0276
   -34.0275 -33.8696 -33.8695   6.6203   6.8366   6.9078   7.0614   7.1125
     7.1560   7.2227   7.4234   7.5005   7.5391   7.7845   7.8925   8.0169
     8.2462   8.3425   8.5361   8.6704   8.9955   9.2541   9.3552   9.5142
     9.7216   9.8192   9.8641  10.1698  10.2333  10.2956  10.6615  10.7619
    11.0922  11.1178  11.2149  11.4794  11.7626  11.9241  12.0316  12.1378
    12.2115  12.3527  12.4991  12.5609  12.6349  12.7884  12.9053  13.0002
    15.8329  16.1463  16.4997  16.8061  17.1231  17.5186  17.9297  18.2283
    18.3908  20.3481

          k = 0.1667-0.4811 0.0000 (  4476 PWs)   bands (ev):

   -34.7551 -34.7435 -34.7238 -34.7087 -34.7010 -34.6720 -34.6613 -34.5496
   -34.5249 -34.4737 -34.4611 -34.4587 -34.4306 -34.4094 -34.3867 -34.3850
   -34.3579 -34.3466 -34.3195 -34.2946 -34.2570 -34.2376 -34.2372 -34.0158
   -34.0157 -33.8710 -33.8709   6.7313   6.9218   6.9387   7.1428   7.1602
     7.1864   7.3373   7.4648   7.5262   7.6148   7.7990   7.9506   8.0622
     8.2543   8.4238   8.6442   8.7642   8.8732   9.1950   9.2712   9.5444
     9.6235   9.7415   9.9070   9.9872  10.0386  10.2931  10.5029  10.6722
    10.8551  10.8992  11.0579  11.3764  11.5885  11.6608  11.7224  11.8327
    11.8831  12.1635  12.5357  12.6555  12.7523  12.8501  12.9575  13.0940
    14.9592  15.1639  15.3731  15.6553  16.1523  16.8957  17.8124  18.7804
    19.6289  20.5882

          k = 0.1667-0.3528 0.0000 (  4458 PWs)   bands (ev):

   -34.6812 -34.6787 -34.6589 -34.6580 -34.6249 -34.6135 -34.5888 -34.5695
   -34.5237 -34.4665 -34.4084 -34.3984 -34.3884 -34.3583 -34.3426 -34.3344
   -34.3225 -34.3157 -34.2936 -34.2724 -34.2212 -34.1652 -34.1650 -33.9642
   -33.9640 -33.8780 -33.8779   7.0237   7.1161   7.1822   7.2544   7.3760
     7.4622   7.5615   7.6345   7.6933   7.8111   7.9765   8.1038   8.1925
     8.2887   8.4224   8.5900   8.6987   8.8104   8.9842   9.1622   9.2245
     9.2573   9.3362   9.5326   9.6847   9.7360   9.9882  10.0020  10.2019
    10.4770  10.5928  10.7030  10.8874  11.0913  11.1494  11.2914  11.5739
    11.6392  11.8854  12.3038  12.3633  12.4883  12.5324  12.5998  12.7721
    13.1067  13.1808  13.2413  13.4035  14.0380  15.0198  16.1369  17.3200
    18.4741  19.5158

          k = 0.1667-0.2245 0.0000 (  4433 PWs)   bands (ev):

   -34.7072 -34.6906 -34.6404 -34.5837 -34.5378 -34.5048 -34.4732 -34.4452
   -34.4317 -34.4157 -34.3713 -34.3334 -34.3288 -34.3153 -34.2972 -34.2801
   -34.2638 -34.2538 -34.2442 -34.2306 -34.1948 -34.0561 -34.0559 -33.9011
   -33.9010 -33.8867 -33.8866   6.2308   6.4307   6.7441   7.1294   7.4136
     7.4818   7.6238   7.7413   7.8589   7.9543   8.0782   8.1531   8.1929
     8.3145   8.4354   8.5794   8.6436   8.8800   9.1369   9.1904   9.2846
     9.4031   9.4644   9.5827   9.6652   9.6855   9.8931  10.0131  10.1887
    10.4179  10.4341  10.5359  10.6179  10.7209  10.8758  10.9044  11.0346
    11.1649  11.2035  11.4773  11.5284  11.5818  11.8566  11.8945  11.9013
    12.0629  12.2138  12.4012  12.5584  12.8785  13.7390  14.7326  15.8082
    16.8221  17.6601

          k = 0.1667-0.0962 0.0000 (  4427 PWs)   bands (ev):

   -34.7557 -34.7234 -34.6464 -34.5485 -34.4621 -34.4017 -34.3761 -34.3551
   -34.3404 -34.3242 -34.2965 -34.2960 -34.2950 -34.2725 -34.2700 -34.2471
   -34.2385 -34.2259 -34.1995 -34.1903 -34.1794 -33.9578 -33.9576 -33.8945
   -33.8941 -33.8623 -33.8622   5.4060   5.6882   6.1261   6.6401   6.9544
     6.9736   7.1149   7.3791   7.4196   8.2030   8.4455   8.5543   8.6132
     8.7020   8.7754   8.8460   8.9188   9.3392   9.3806   9.4852   9.5964
     9.6120   9.6431   9.7204   9.7740   9.8394   9.8554   9.9327   9.9884
    10.0254  10.0517  10.0686  10.2242  10.3492  10.4547  10.5459  10.7205
    10.7390  10.9053  11.0107  11.1480  11.2730  11.4968  11.5164  11.7038
    12.0111  12.0881  12.3665  12.6287  12.7772  12.8427  13.7253  14.6720
    15.5239  16.1254

          k = 0.2778 0.4811 0.0000 (  4485 PWs)   bands (ev):

   -34.7127 -34.7126 -34.6942 -34.6941 -34.6633 -34.6571 -34.6170 -34.5999
   -34.5720 -34.5351 -34.5052 -34.5027 -34.4725 -34.4572 -34.4299 -34.4233
   -34.3735 -34.3513 -34.3347 -34.3094 -34.2770 -34.2161 -34.2160 -34.0871
   -34.0869 -33.8684 -33.8682   7.1611   7.1700   7.3071   7.3424   7.4347
     7.6089   7.7929   7.8707   7.9375   7.9596   8.0761   8.0967   8.1994
     8.2334   8.3665   8.4100   8.6831   8.7766   8.9298   9.0524   9.2155
     9.3668   9.5594   9.6501   9.8944   9.8993  10.1193  10.1207  10.5746
    10.6548  10.7256  10.8449  11.0811  11.1146  11.2891  11.3138  11.6308
    11.8852  12.2114  12.4973  12.6741  12.6953  12.6959  12.8297  12.9905
    16.3235  16.4539  16.7235  17.1447  17.7262  18.4744  19.3479  20.2371
    20.6989  20.7832

          k = 0.2778 0.6094 0.0000 (  4491 PWs)   bands (ev):

   -34.7112 -34.7002 -34.6810 -34.6758 -34.6567 -34.6499 -34.6338 -34.5993
   -34.5791 -34.5646 -34.5437 -34.5258 -34.5165 -34.4799 -34.4362 -34.4299
   -34.3615 -34.3505 -34.3353 -34.3146 -34.2969 -34.2081 -34.2078 -34.1193
   -34.1191 -33.8670 -33.8667   7.1238   7.3130   7.3832   7.5238   7.5562
     7.6375   7.7484   7.8556   7.9112   7.9304   8.0394   8.1073   8.1784
     8.2191   8.3268   8.4797   8.5672   8.9022   8.9539   9.1778   9.2690
     9.3745   9.4423   9.6467   9.8223   9.8658  10.1685  10.1772  10.5467
    10.6578  10.8252  10.9524  11.0487  11.1652  11.3120  11.3635  11.9514
    12.1002  12.2819  12.3689  12.4837  12.5349  12.5842  12.6390  12.7674
    17.5236  17.7061  18.0112  18.3858  18.7292  19.0364  19.3967  19.8005
    20.2237  20.3409

          k = 0.2778-0.4170 0.0000 (  4462 PWs)   bands (ev):

   -34.7219 -34.7139 -34.7028 -34.6890 -34.6729 -34.6553 -34.6329 -34.5793
   -34.5443 -34.4956 -34.4710 -34.4690 -34.4402 -34.4169 -34.4067 -34.3897
   -34.3755 -34.3515 -34.3303 -34.2964 -34.2559 -34.2174 -34.2173 -34.0414
   -34.0411 -33.8706 -33.8703   7.0122   7.1478   7.1779   7.3144   7.3632
     7.4927   7.5994   7.6865   7.7674   7.8802   8.0854   8.0993   8.1932
     8.3220   8.5356   8.5400   8.5813   8.7324   8.9517   9.0085   9.2510
     9.3828   9.5351   9.7661   9.9162   9.9460  10.1357  10.1633  10.3336
    10.5123  10.7580  10.9044  11.0701  11.1800  11.3131  11.3647  11.5304
    11.6986  12.1223  12.5363  12.7487  12.7820  12.8461  12.9356  13.0961
    15.1567  15.2426  15.4249  15.7729  16.3428  17.1521  18.1364  19.2065
    20.2655  21.1608

          k = 0.2778-0.2887 0.0000 (  4463 PWs)   bands (ev):

   -34.7003 -34.6996 -34.6815 -34.6775 -34.6417 -34.6304 -34.5920 -34.5810
   -34.5261 -34.4603 -34.4044 -34.3936 -34.3858 -34.3587 -34.3429 -34.3366
   -34.3233 -34.2946 -34.2775 -34.2664 -34.2268 -34.1868 -34.1867 -33.9518
   -33.9516 -33.8775 -33.8773   6.7701   6.9005   6.9755   7.0105   7.1682
     7.1861   7.2673   7.3702   7.4800   7.6258   7.7832   7.9957   8.0378
     8.3403   8.5356   8.8544   8.9091   9.1519   9.1942   9.2950   9.3924
     9.5152   9.6362   9.7280   9.8412  10.0646  10.1746  10.3484  10.5205
    10.5419  10.7557  10.9836  11.1657  11.2395  11.2813  11.4571  11.7685
    11.7849  12.0731  12.2269  12.3647  12.4298  12.5372  12.6215  12.7990
    12.9485  13.1424  13.1711  13.3155  13.9419  14.9542  16.1156  17.3390
    18.5305  19.5906

          k = 0.2778-0.1604 0.0000 (  4458 PWs)   bands (ev):

   -34.6985 -34.6800 -34.6466 -34.6268 -34.5942 -34.5690 -34.5322 -34.5003
   -34.4863 -34.4369 -34.3798 -34.3452 -34.3428 -34.3277 -34.3175 -34.2898
   -34.2760 -34.2647 -34.2350 -34.2186 -34.2120 -34.1180 -34.1177 -33.9031
   -33.9030 -33.8842 -33.8840   6.3867   6.5792   6.7893   6.8992   6.9678
     7.1516   7.3403   7.4131   7.5691   7.7209   7.8769   7.9585   8.1944
     8.5053   8.7241   8.8568   9.0452   9.1862   9.3372   9.4762   9.5566
     9.6121   9.6599   9.7955   9.8997  10.0907  10.1597  10.3417  10.4477
    10.4577  10.6111  10.6980  10.8793  11.0673  11.1125  11.2155  11.2509
    11.2975  11.4023  11.4452  11.6084  11.7304  11.8394  11.9493  11.9558
    12.0915  12.3971  12.6760  12.8364  12.8474  13.9035  15.0618  16.2484
    17.3523  18.2777

          k = 0.3889 0.6736 0.0000 (  4511 PWs)   bands (ev):

   -34.7479 -34.7358 -34.7078 -34.6957 -34.6899 -34.6681 -34.6585 -34.5544
   -34.5483 -34.5215 -34.5172 -34.5071 -34.4838 -34.4496 -34.4269 -34.4094
   -34.3629 -34.3628 -34.3377 -34.3038 -34.2854 -34.2339 -34.2338 -34.0772
   -34.0772 -33.8680 -33.8679   6.8464   7.0577   7.2337   7.3763   7.3767
     7.4378   7.5671   7.6294   7.7158   7.8022   7.9983   8.0243   8.1811
     8.3212   8.3615   8.4030   8.5182   8.7485   9.0260   9.2049   9.4557
     9.5916   9.6950   9.8219   9.8960  10.1406  10.2379  10.3730  10.6142
    10.6591  10.6954  11.0179  11.2711  11.4613  11.6078  11.7099  12.1316
    12.1856  12.2686  12.3585  12.5120  12.5248  12.6988  12.7841  12.8114
    17.0437  17.2548  17.5040  17.7400  17.9806  18.2563  18.5771  18.8869
    19.1475  20.4807

          k = 0.3889-0.3528 0.0000 (  4485 PWs)   bands (ev):

   -34.7890 -34.7769 -34.7541 -34.7390 -34.7300 -34.7005 -34.6888 -34.5273
   -34.5150 -34.4559 -34.4403 -34.4344 -34.4135 -34.3907 -34.3867 -34.3667
   -34.3534 -34.3189 -34.3087 -34.2848 -34.2641 -34.2588 -34.2531 -33.9846
   -33.9844 -33.8719 -33.8717   6.4603   6.6452   6.6606   6.8067   6.8676
     6.9404   6.9903   7.1902   7.2701   7.2983   7.5982   7.6515   7.8136
     8.2163   8.4874   8.7480   8.9182   9.2269   9.3316   9.4567   9.5158
     9.6489   9.8891  10.0907  10.2131  10.4717  10.6669  10.7952  11.0580
    11.2833  11.5562  11.5923  11.7042  11.9852  12.1764  12.2281  12.2623
    12.2912  12.3722  12.5704  12.6329  12.7363  12.8321  12.9742  13.0970
    14.5608  14.9371  15.3202  15.5577  15.8439  16.4181  17.1902  17.9587
    18.5247  20.2821

          k = 0.3889-0.2245 0.0000 (  4444 PWs)   bands (ev):

   -34.7649 -34.7536 -34.7383 -34.7269 -34.7033 -34.6844 -34.6526 -34.5538
   -34.5235 -34.4567 -34.4027 -34.3871 -34.3836 -34.3650 -34.3577 -34.3267
   -34.3144 -34.2983 -34.2664 -34.2575 -34.2417 -34.2402 -34.2353 -33.9386
   -33.9383 -33.8758 -33.8752   6.4195   6.4591   6.5720   6.6794   6.7500
     6.8082   6.9325   6.9787   7.1150   7.2863   7.4576   7.5142   7.8052
     8.3109   8.6646   9.0118   9.1903   9.2669   9.3614   9.5659   9.5718
     9.7246   9.9253  10.1612  10.3357  10.4129  10.8217  10.9490  11.1215
    11.4820  11.6129  11.9344  11.9555  12.1768  12.2307  12.2820  12.3237
    12.3789  12.4102  12.4817  12.5202  12.5903  12.6570  12.7622  12.8568
    12.8846  12.9561  13.2451  13.2843  13.8363  14.9730  16.2342  17.5162
    18.7669  20.0103

          k =-0.5000-0.8660 0.0000 (  4492 PWs)   bands (ev):

   -34.8209 -34.8098 -34.7875 -34.7655 -34.7648 -34.7259 -34.7210 -34.5184
   -34.5152 -34.4295 -34.4074 -34.4053 -34.4048 -34.4002 -34.3736 -34.3411
   -34.3392 -34.3116 -34.2918 -34.2802 -34.2792 -34.2586 -34.2535 -33.9527
   -33.9526 -33.8731 -33.8727   6.1856   6.3674   6.3793   6.5393   6.5892
     6.6461   6.7410   6.8960   6.9326   7.0962   7.3014   7.3229   7.6538
     8.2063   8.6212   8.8730   9.0518   9.1368   9.2526   9.4724   9.8459
     9.9048   9.9479  10.3648  10.5829  10.6329  10.9471  11.4419  11.4807
    11.5512  12.1045  12.3146  12.3541  12.4821  12.6711  12.7600  12.7719
    12.8068  12.8590  12.9126  12.9348  12.9839  13.0834  13.2428  13.2469
    13.4617  14.3520  15.1702  15.6588  15.8356  16.0931  16.2778  16.4260
    16.4866  19.9626

 ------ SPIN DOWN ----------


          k = 0.0556 0.0962 0.0000 (  4451 PWs)   bands (ev):

   -34.7886 -34.7488 -34.6588 -34.5393 -34.4233 -34.3219 -34.3007 -34.2908
   -34.2786 -34.2754 -34.2664 -34.2590 -34.2396 -34.2378 -34.2312 -34.2174
   -34.2035 -34.2023 -34.1804 -34.1792 -34.1677 -33.9033 -33.9028 -33.8754
   -33.8752 -33.8435 -33.8435   4.8290   5.1407   5.6208   6.1752   6.5471
     6.5983   6.6305   6.9380   6.9575   8.7075   8.7334   8.9216   8.9719
     8.9883   9.0799   9.1734   9.2635   9.3447   9.4274   9.4365   9.4852
     9.4998   9.5416   9.5583   9.5810   9.6325   9.6666   9.7345   9.7794
     9.7986   9.8515  10.0647  10.0786  10.2500  10.8239  10.8746  10.8765
    11.0475  11.0955  11.2534  11.3100  11.3834  11.4490  11.5551  11.6297
    11.8167  11.9394  12.2413  12.3660  12.5470  12.6726  12.9304  13.6368
    14.3216  14.7162

          k = 0.0556 0.2245 0.0000 (  4420 PWs)   bands (ev):

   -34.7345 -34.7085 -34.6415 -34.5603 -34.4935 -34.4475 -34.4172 -34.3973
   -34.3743 -34.3688 -34.3359 -34.3093 -34.3080 -34.2964 -34.2796 -34.2590
   -34.2494 -34.2376 -34.2171 -34.2004 -34.1882 -34.0019 -34.0016 -33.8913
   -33.8910 -33.8766 -33.8764   5.7524   6.0068   6.4022   6.8699   7.1331
     7.1895   7.3581   7.5923   7.6594   8.0181   8.2543   8.3954   8.4070
     8.5253   8.6134   8.7135   8.7701   9.1363   9.3215   9.4085   9.4962
     9.5658   9.6682   9.6853   9.7157   9.8189   9.8438   9.9951  10.1240
    10.1610  10.2427  10.3824  10.4586  10.5367  10.5667  10.6256  10.7270
    10.8357  10.9269  11.0541  11.1501  11.4535  11.5638  11.5987  11.7789
    12.0070  12.1823  12.5205  12.5275  12.6902  13.2525  14.1697  15.1752
    16.1013  16.8092

          k = 0.0556 0.3528 0.0000 (  4467 PWs)   bands (ev):

   -34.6970 -34.6805 -34.6634 -34.6555 -34.6173 -34.6076 -34.5711 -34.5421
   -34.5132 -34.4511 -34.3902 -34.3634 -34.3606 -34.3360 -34.3331 -34.3083
   -34.2929 -34.2725 -34.2568 -34.2337 -34.2194 -34.1559 -34.1556 -33.9206
   -33.9204 -33.8813 -33.8812   6.5552   6.7571   6.8675   6.9231   6.9714
     7.1392   7.2010   7.3647   7.4455   7.6657   7.7707   7.9425   8.0741
     8.4396   8.7027   8.8706   9.0562   9.2022   9.3516   9.4616   9.5330
     9.5589   9.5800   9.7987   9.8514  10.1461  10.1785  10.4169  10.5613
    10.6002  10.7147  10.8889  11.0951  11.2542  11.3527  11.4100  11.5147
    11.6882  11.7385  11.7977  11.9552  12.0979  12.1541  12.2882  12.3355
    12.3865  12.4255  12.6062  12.7837  13.2254  14.2952  15.4814  16.7056
    17.8656  18.8645

          k = 0.0556 0.4811 0.0000 (  4463 PWs)   bands (ev):

   -34.7849 -34.7730 -34.7529 -34.7411 -34.7232 -34.7004 -34.6778 -34.5387
   -34.5194 -34.4541 -34.4117 -34.4041 -34.3933 -34.3800 -34.3662 -34.3431
   -34.3314 -34.3014 -34.2885 -34.2622 -34.2605 -34.2530 -34.2444 -33.9536
   -33.9534 -33.8741 -33.8736   6.3813   6.4885   6.5548   6.6984   6.7224
     6.8098   6.8961   7.0192   7.1135   7.2371   7.4671   7.5018   7.7635
     8.2543   8.5988   8.9210   9.0915   9.2589   9.3212   9.5431   9.5553
     9.7300   9.9444  10.2445  10.2899  10.4739  10.8901  10.9782  11.1101
    11.5383  11.6291  11.9094  11.9697  12.0844  12.3113  12.3882  12.4264
    12.4641  12.5067  12.5374  12.6204  12.6672  12.8026  12.8936  13.0187
    13.3726  13.7998  14.1848  14.3117  14.6184  15.4714  16.5744  17.7140
    18.7542  20.2363

          k = 0.0556-0.5453 0.0000 (  4486 PWs)   bands (ev):

   -34.8131 -34.8006 -34.7780 -34.7599 -34.7535 -34.7206 -34.7115 -34.5196
   -34.5143 -34.4398 -34.4177 -34.4128 -34.4030 -34.3963 -34.3771 -34.3497
   -34.3433 -34.3089 -34.2989 -34.2783 -34.2757 -34.2605 -34.2563 -33.9612
   -33.9610 -33.8727 -33.8722   6.2604   6.4381   6.4560   6.6036   6.6634
     6.7275   6.7982   6.9735   7.0230   7.1459   7.3855   7.4073   7.6907
     8.2149   8.5848   8.8381   9.0223   9.1887   9.2733   9.5022   9.7036
     9.8030   9.9292  10.4247  10.4546  10.4623  11.0429  11.1795  11.2589
    11.6699  11.8850  12.1279  12.2141  12.3535  12.4326  12.5756  12.6515
    12.6909  12.7277  12.7703  12.8161  12.8471  12.9506  13.0481  13.1253
    13.9731  14.5829  15.2359  15.6900  15.7427  15.9066  16.4353  17.0091
    17.4076  20.0487

          k = 0.0556-0.4170 0.0000 (  4465 PWs)   bands (ev):

   -34.7336 -34.7267 -34.7137 -34.7029 -34.6746 -34.6567 -34.6203 -34.5706
   -34.5264 -34.4582 -34.4016 -34.3871 -34.3812 -34.3593 -34.3502 -34.3288
   -34.3135 -34.2882 -34.2743 -34.2488 -34.2381 -34.2156 -34.2143 -33.9397
   -33.9396 -33.8771 -33.8768   6.5590   6.6010   6.7333   6.7793   6.9034
     6.9516   7.0548   7.1087   7.2594   7.4181   7.5907   7.6991   7.8930
     8.3408   8.6355   8.9922   9.2426   9.2908   9.3750   9.4131   9.5449
     9.6486   9.7844  10.0435  10.0650  10.3018  10.5196  10.6300  10.9773
    11.0794  11.2734  11.4020  11.4954  11.7694  11.8597  11.9433  12.0137
    12.0785  12.1558  12.2488  12.3237  12.4784  12.5111  12.6516  12.7364
    12.8762  12.9832  13.0965  13.1678  13.7941  14.8839  16.1184  17.3954
    18.6414  19.7577

          k = 0.0556-0.2887 0.0000 (  4439 PWs)   bands (ev):

   -34.7032 -34.6866 -34.6418 -34.5994 -34.5614 -34.5301 -34.4960 -34.4688
   -34.4515 -34.4223 -34.3716 -34.3359 -34.3350 -34.3175 -34.3070 -34.2829
   -34.2708 -34.2557 -34.2371 -34.2164 -34.2023 -34.0808 -34.0807 -33.8984
   -33.8984 -33.8859 -33.8858   6.2796   6.4728   6.7417   7.0161   7.1222
     7.2727   7.5040   7.5611   7.7860   7.8245   8.0432   8.0815   8.2790
     8.4601   8.4904   8.7005   8.8930   8.9262   9.2170   9.4468   9.5514
     9.6097   9.6525   9.7017   9.8144   9.8656   9.9867  10.0513  10.1727
    10.3312  10.5762  10.5866  10.6503  10.7752  10.9157  10.9504  11.1133
    11.1655  11.2106  11.4371  11.5297  11.6271  11.8173  11.8480  11.9251
    12.1411  12.2572  12.5477  12.7266  12.8371  13.7545  14.8247  15.9513
    17.0000  17.8679

          k = 0.0556-0.1604 0.0000 (  4443 PWs)   bands (ev):

   -34.7657 -34.7312 -34.6500 -34.5443 -34.4470 -34.3746 -34.3498 -34.3326
   -34.3199 -34.3104 -34.2892 -34.2824 -34.2772 -34.2689 -34.2549 -34.2383
   -34.2297 -34.2174 -34.1974 -34.1875 -34.1772 -33.9321 -33.9319 -33.8958
   -33.8956 -33.8577 -33.8575   5.2257   5.5201   5.9771   6.5149   6.8605
     6.9000   6.9581   7.2556   7.2816   8.3923   8.5169   8.6525   8.7189
     8.7948   8.8376   8.9048   9.0314   9.2775   9.3372   9.4994   9.5690
     9.5861   9.6157   9.7047   9.7183   9.7537   9.7971   9.8250   9.8561
     9.9502  10.0176  10.0972  10.2268  10.3448  10.3597  10.7095  10.7730
    10.8631  10.9594  10.9664  11.1423  11.3527  11.4266  11.5346  11.7380
    11.8191  12.2050  12.2280  12.5212  12.6575  12.7962  13.5256  14.3906
    15.1903  15.7314

          k = 0.0556-0.0321 0.0000 (  4465 PWs)   bands (ev):

   -34.8008 -34.7583 -34.6645 -34.5388 -34.4156 -34.2985 -34.2742 -34.2712
   -34.2648 -34.2637 -34.2480 -34.2383 -34.2288 -34.2193 -34.2106 -34.2012
   -34.1977 -34.1775 -34.1770 -34.1715 -34.1603 -33.9051 -33.9049 -33.8474
   -33.8473 -33.8362 -33.8360   4.6192   4.9372   5.4244   5.9824   6.3674
     6.4188   6.4564   6.7561   6.7727   8.8774   8.9146   9.0923   9.1170
     9.1283   9.2100   9.2741   9.2894   9.3314   9.3402   9.3514   9.3556
     9.4461   9.4774   9.5048   9.5505   9.5824   9.5974   9.6237   9.7552
     9.8374   9.9281   9.9327   9.9536  10.6133  11.0071  11.0081  11.1579
    11.1655  11.2728  11.2934  11.3525  11.3951  11.4784  11.6315  11.7670
    11.9663  11.9767  12.0807  12.3367  12.4225  12.5879  12.7231  13.0338
    13.6512  13.9441

          k = 0.1667 0.2887 0.0000 (  4425 PWs)   bands (ev):

   -34.6776 -34.6759 -34.6480 -34.6173 -34.5865 -34.5642 -34.5375 -34.5034
   -34.4899 -34.4498 -34.3919 -34.3636 -34.3575 -34.3328 -34.3174 -34.3089
   -34.2916 -34.2750 -34.2735 -34.2587 -34.2056 -34.1127 -34.1125 -33.9314
   -33.9313 -33.8819 -33.8819   6.7690   6.8566   7.0186   7.2480   7.5178
     7.7304   7.7373   7.7698   7.8515   7.8729   7.9740   7.9932   8.0982
     8.2338   8.3339   8.4111   8.8420   8.8899   8.9294   9.0244   9.1965
     9.3322   9.3814   9.3958   9.4527   9.5100  10.0677  10.0751  10.2336
    10.3155  10.4656  10.5220  10.9163  10.9409  11.0000  11.1963  11.4183
    11.5124  11.6527  11.8034  12.0198  12.1128  12.2053  12.3517  12.3543
    12.4016  12.4715  12.5613  12.5841  13.3293  14.3030  15.3806  16.5251
    17.6219  18.5812

          k = 0.1667 0.4170 0.0000 (  4459 PWs)   bands (ev):

   -34.7175 -34.7088 -34.6980 -34.6849 -34.6647 -34.6456 -34.6234 -34.5782
   -34.5317 -34.4707 -34.4355 -34.4321 -34.4088 -34.3828 -34.3730 -34.3662
   -34.3420 -34.3377 -34.3080 -34.2854 -34.2389 -34.2078 -34.2075 -33.9938
   -33.9936 -33.8741 -33.8737   6.9322   6.9918   7.0875   7.1889   7.2780
     7.3417   7.4922   7.5108   7.5849   7.7397   7.8039   8.0480   8.1348
     8.3491   8.4573   8.6585   8.8530   8.8948   9.0383   9.1552   9.2484
     9.4567   9.5847   9.7989   9.8760  10.0073  10.0689  10.2322  10.3732
    10.5002  10.7848  11.0056  11.1071  11.1599  11.3299  11.3898  11.6767
    11.7511  12.0355  12.5068  12.5962  12.7236  12.7914  12.8424  12.9981
    14.0018  14.1360  14.2269  14.4735  15.0365  15.9264  17.0055  18.1726
    19.3378  20.4041

          k = 0.1667 0.5453 0.0000 (  4490 PWs)   bands (ev):

   -34.7758 -34.7642 -34.7385 -34.7216 -34.7192 -34.6878 -34.6806 -34.5272
   -34.5182 -34.4844 -34.4742 -34.4696 -34.4494 -34.4244 -34.3944 -34.3833
   -34.3712 -34.3468 -34.3304 -34.2963 -34.2699 -34.2530 -34.2527 -34.0276
   -34.0275 -33.8696 -33.8695   6.6203   6.8366   6.9078   7.0614   7.1124
     7.1560   7.2227   7.4234   7.5005   7.5391   7.7845   7.8925   8.0169
     8.2462   8.3425   8.5361   8.6704   8.9955   9.2541   9.3552   9.5142
     9.7216   9.8192   9.8641  10.1698  10.2333  10.2956  10.6615  10.7619
    11.0922  11.1178  11.2149  11.4794  11.7626  11.9241  12.0316  12.1378
    12.2115  12.3527  12.4991  12.5609  12.6349  12.7884  12.9053  13.0002
    15.8329  16.1463  16.4997  16.8061  17.1231  17.5186  17.9297  18.2283
    18.3908  20.3401

          k = 0.1667-0.4811 0.0000 (  4476 PWs)   bands (ev):

   -34.7551 -34.7435 -34.7238 -34.7087 -34.7010 -34.6720 -34.6613 -34.5496
   -34.5249 -34.4737 -34.4611 -34.4587 -34.4306 -34.4094 -34.3867 -34.3850
   -34.3579 -34.3466 -34.3195 -34.2946 -34.2570 -34.2376 -34.2373 -34.0158
   -34.0157 -33.8711 -33.8710   6.7313   6.9218   6.9387   7.1428   7.1602
     7.1864   7.3373   7.4647   7.5261   7.6148   7.7990   7.9506   8.0622
     8.2543   8.4238   8.6442   8.7642   8.8732   9.1950   9.2712   9.5444
     9.6235   9.7415   9.9070   9.9872  10.0386  10.2931  10.5029  10.6722
    10.8551  10.8992  11.0579  11.3764  11.5885  11.6608  11.7224  11.8327
    11.8831  12.1635  12.5357  12.6555  12.7523  12.8501  12.9575  13.0940
    14.9592  15.1639  15.3731  15.6553  16.1523  16.8957  17.8124  18.7804
    19.6289  20.5872

          k = 0.1667-0.3528 0.0000 (  4458 PWs)   bands (ev):

   -34.6812 -34.6787 -34.6589 -34.6580 -34.6249 -34.6135 -34.5888 -34.5696
   -34.5237 -34.4665 -34.4084 -34.3984 -34.3884 -34.3583 -34.3426 -34.3344
   -34.3225 -34.3158 -34.2936 -34.2724 -34.2212 -34.1652 -34.1650 -33.9642
   -33.9640 -33.8780 -33.8780   7.0237   7.1161   7.1822   7.2544   7.3760
     7.4622   7.5615   7.6345   7.6933   7.8110   7.9765   8.1038   8.1925
     8.2887   8.4224   8.5900   8.6987   8.8104   8.9842   9.1622   9.2245
     9.2573   9.3362   9.5326   9.6847   9.7360   9.9882  10.0020  10.2019
    10.4770  10.5928  10.7029  10.8874  11.0913  11.1493  11.2914  11.5739
    11.6392  11.8853  12.3038  12.3633  12.4883  12.5324  12.5997  12.7721
    13.1067  13.1808  13.2413  13.4035  14.0379  15.0198  16.1369  17.3200
    18.4741  19.5158

          k = 0.1667-0.2245 0.0000 (  4433 PWs)   bands (ev):

   -34.7072 -34.6906 -34.6404 -34.5837 -34.5378 -34.5048 -34.4732 -34.4452
   -34.4317 -34.4157 -34.3713 -34.3334 -34.3288 -34.3153 -34.2972 -34.2801
   -34.2638 -34.2538 -34.2442 -34.2306 -34.1948 -34.0561 -34.0560 -33.9011
   -33.9010 -33.8867 -33.8866   6.2308   6.4307   6.7441   7.1294   7.4136
     7.4818   7.6238   7.7413   7.8589   7.9542   8.0782   8.1531   8.1928
     8.3145   8.4354   8.5794   8.6436   8.8800   9.1369   9.1904   9.2846
     9.4031   9.4644   9.5827   9.6652   9.6855   9.8931  10.0131  10.1887
    10.4179  10.4341  10.5359  10.6179  10.7209  10.8758  10.9044  11.0346
    11.1649  11.2035  11.4773  11.5284  11.5818  11.8565  11.8945  11.9012
    12.0629  12.2138  12.4012  12.5584  12.8785  13.7390  14.7326  15.8082
    16.8221  17.6601

          k = 0.1667-0.0962 0.0000 (  4427 PWs)   bands (ev):

   -34.7557 -34.7234 -34.6464 -34.5485 -34.4621 -34.4017 -34.3762 -34.3551
   -34.3404 -34.3242 -34.2965 -34.2960 -34.2950 -34.2725 -34.2700 -34.2471
   -34.2385 -34.2259 -34.1995 -34.1903 -34.1794 -33.9578 -33.9576 -33.8945
   -33.8942 -33.8623 -33.8622   5.4060   5.6882   6.1261   6.6401   6.9544
     6.9736   7.1149   7.3791   7.4196   8.2030   8.4455   8.5542   8.6132
     8.7020   8.7754   8.8460   8.9188   9.3392   9.3806   9.4852   9.5964
     9.6120   9.6431   9.7204   9.7740   9.8394   9.8554   9.9327   9.9884
    10.0254  10.0517  10.0686  10.2242  10.3492  10.4547  10.5459  10.7205
    10.7390  10.9053  11.0107  11.1480  11.2730  11.4968  11.5164  11.7038
    12.0111  12.0881  12.3665  12.6287  12.7771  12.8427  13.7253  14.6720
    15.5239  16.1254

          k = 0.2778 0.4811 0.0000 (  4485 PWs)   bands (ev):

   -34.7127 -34.7126 -34.6942 -34.6941 -34.6633 -34.6571 -34.6170 -34.5999
   -34.5720 -34.5352 -34.5052 -34.5027 -34.4726 -34.4572 -34.4299 -34.4233
   -34.3736 -34.3513 -34.3347 -34.3094 -34.2770 -34.2161 -34.2160 -34.0871
   -34.0869 -33.8684 -33.8682   7.1611   7.1700   7.3071   7.3424   7.4347
     7.6089   7.7929   7.8707   7.9375   7.9596   8.0761   8.0967   8.1994
     8.2334   8.3665   8.4100   8.6831   8.7766   8.9298   9.0524   9.2155
     9.3668   9.5594   9.6501   9.8944   9.8993  10.1193  10.1207  10.5746
    10.6548  10.7256  10.8449  11.0811  11.1146  11.2891  11.3138  11.6308
    11.8852  12.2114  12.4973  12.6741  12.6953  12.6959  12.8297  12.9905
    16.3235  16.4539  16.7235  17.1447  17.7262  18.4744  19.3479  20.2371
    20.6989  20.7828

          k = 0.2778 0.6094 0.0000 (  4491 PWs)   bands (ev):

   -34.7112 -34.7002 -34.6810 -34.6758 -34.6567 -34.6499 -34.6338 -34.5993
   -34.5791 -34.5646 -34.5437 -34.5258 -34.5166 -34.4799 -34.4362 -34.4299
   -34.3615 -34.3505 -34.3353 -34.3146 -34.2969 -34.2081 -34.2079 -34.1193
   -34.1191 -33.8670 -33.8667   7.1238   7.3130   7.3832   7.5238   7.5562
     7.6375   7.7484   7.8556   7.9111   7.9304   8.0394   8.1073   8.1784
     8.2191   8.3268   8.4797   8.5672   8.9022   8.9539   9.1778   9.2690
     9.3745   9.4423   9.6467   9.8222   9.8658  10.1685  10.1772  10.5467
    10.6578  10.8252  10.9524  11.0487  11.1652  11.3120  11.3635  11.9514
    12.1001  12.2819  12.3689  12.4837  12.5349  12.5842  12.6390  12.7673
    17.5236  17.7061  18.0112  18.3858  18.7292  19.0364  19.3967  19.8005
    20.2237  20.3409

          k = 0.2778-0.4170 0.0000 (  4462 PWs)   bands (ev):

   -34.7219 -34.7139 -34.7028 -34.6890 -34.6729 -34.6553 -34.6329 -34.5793
   -34.5443 -34.4956 -34.4710 -34.4691 -34.4402 -34.4169 -34.4067 -34.3897
   -34.3755 -34.3515 -34.3303 -34.2964 -34.2559 -34.2174 -34.2173 -34.0415
   -34.0412 -33.8706 -33.8703   7.0122   7.1478   7.1779   7.3144   7.3632
     7.4927   7.5994   7.6865   7.7674   7.8802   8.0854   8.0993   8.1932
     8.3220   8.5356   8.5400   8.5813   8.7324   8.9517   9.0085   9.2510
     9.3828   9.5350   9.7661   9.9162   9.9460  10.1357  10.1633  10.3336
    10.5123  10.7579  10.9044  11.0701  11.1800  11.3131  11.3646  11.5304
    11.6986  12.1223  12.5363  12.7487  12.7820  12.8461  12.9356  13.0961
    15.1566  15.2426  15.4249  15.7728  16.3428  17.1521  18.1364  19.2065
    20.2655  21.1607

          k = 0.2778-0.2887 0.0000 (  4463 PWs)   bands (ev):

   -34.7004 -34.6996 -34.6815 -34.6775 -34.6417 -34.6304 -34.5920 -34.5810
   -34.5261 -34.4603 -34.4044 -34.3936 -34.3858 -34.3587 -34.3429 -34.3366
   -34.3233 -34.2946 -34.2775 -34.2664 -34.2268 -34.1868 -34.1867 -33.9518
   -33.9517 -33.8776 -33.8774   6.7701   6.9005   6.9755   7.0105   7.1682
     7.1861   7.2673   7.3702   7.4800   7.6257   7.7832   7.9957   8.0378
     8.3403   8.5355   8.8544   8.9091   9.1519   9.1942   9.2950   9.3924
     9.5152   9.6362   9.7280   9.8412  10.0646  10.1746  10.3483  10.5205
    10.5419  10.7557  10.9836  11.1657  11.2395  11.2813  11.4571  11.7685
    11.7849  12.0731  12.2269  12.3647  12.4298  12.5372  12.6215  12.7990
    12.9485  13.1424  13.1711  13.3155  13.9419  14.9542  16.1156  17.3390
    18.5305  19.5906

          k = 0.2778-0.1604 0.0000 (  4458 PWs)   bands (ev):

   -34.6985 -34.6800 -34.6466 -34.6268 -34.5942 -34.5690 -34.5322 -34.5003
   -34.4863 -34.4369 -34.3798 -34.3452 -34.3428 -34.3277 -34.3175 -34.2899
   -34.2760 -34.2647 -34.2350 -34.2186 -34.2120 -34.1180 -34.1177 -33.9031
   -33.9030 -33.8842 -33.8840   6.3867   6.5792   6.7893   6.8992   6.9678
     7.1516   7.3403   7.4131   7.5691   7.7209   7.8769   7.9585   8.1944
     8.5053   8.7241   8.8568   9.0452   9.1862   9.3372   9.4762   9.5566
     9.6121   9.6599   9.7954   9.8997  10.0907  10.1597  10.3417  10.4477
    10.4577  10.6111  10.6980  10.8793  11.0672  11.1125  11.2155  11.2509
    11.2975  11.4023  11.4452  11.6084  11.7304  11.8394  11.9493  11.9558
    12.0915  12.3971  12.6760  12.8364  12.8474  13.9035  15.0618  16.2484
    17.3523  18.2777

          k = 0.3889 0.6736 0.0000 (  4511 PWs)   bands (ev):

   -34.7479 -34.7358 -34.7078 -34.6957 -34.6899 -34.6681 -34.6585 -34.5544
   -34.5483 -34.5215 -34.5173 -34.5071 -34.4838 -34.4496 -34.4269 -34.4094
   -34.3629 -34.3629 -34.3377 -34.3038 -34.2854 -34.2339 -34.2338 -34.0773
   -34.0772 -33.8680 -33.8679   6.8464   7.0577   7.2337   7.3763   7.3767
     7.4378   7.5671   7.6294   7.7157   7.8022   7.9983   8.0243   8.1811
     8.3212   8.3615   8.4030   8.5182   8.7485   9.0260   9.2049   9.4557
     9.5916   9.6949   9.8219   9.8960  10.1406  10.2379  10.3730  10.6141
    10.6591  10.6954  11.0179  11.2711  11.4613  11.6078  11.7099  12.1316
    12.1856  12.2685  12.3584  12.5120  12.5248  12.6988  12.7841  12.8114
    17.0437  17.2548  17.5040  17.7400  17.9806  18.2563  18.5771  18.8869
    19.1475  20.4800

          k = 0.3889-0.3528 0.0000 (  4485 PWs)   bands (ev):

   -34.7890 -34.7769 -34.7541 -34.7390 -34.7300 -34.7005 -34.6888 -34.5273
   -34.5150 -34.4559 -34.4403 -34.4344 -34.4135 -34.3907 -34.3867 -34.3667
   -34.3534 -34.3189 -34.3087 -34.2848 -34.2641 -34.2588 -34.2531 -33.9846
   -33.9845 -33.8719 -33.8717   6.4603   6.6452   6.6606   6.8067   6.8676
     6.9404   6.9903   7.1902   7.2701   7.2983   7.5982   7.6515   7.8136
     8.2163   8.4874   8.7480   8.9182   9.2269   9.3316   9.4567   9.5158
     9.6488   9.8891  10.0907  10.2131  10.4717  10.6669  10.7952  11.0580
    11.2832  11.5562  11.5923  11.7042  11.9852  12.1764  12.2281  12.2623
    12.2912  12.3722  12.5703  12.6329  12.7363  12.8320  12.9742  13.0970
    14.5608  14.9371  15.3202  15.5577  15.8439  16.4181  17.1902  17.9587
    18.5247  20.2820

          k = 0.3889-0.2245 0.0000 (  4444 PWs)   bands (ev):

   -34.7649 -34.7536 -34.7383 -34.7269 -34.7033 -34.6844 -34.6526 -34.5538
   -34.5235 -34.4567 -34.4027 -34.3871 -34.3836 -34.3650 -34.3577 -34.3267
   -34.3144 -34.2983 -34.2664 -34.2575 -34.2417 -34.2402 -34.2353 -33.9386
   -33.9383 -33.8759 -33.8752   6.4195   6.4591   6.5720   6.6794   6.7500
     6.8082   6.9325   6.9787   7.1150   7.2863   7.4576   7.5142   7.8052
     8.3109   8.6646   9.0118   9.1903   9.2669   9.3614   9.5659   9.5718
     9.7245   9.9253  10.1612  10.3357  10.4129  10.8217  10.9490  11.1215
    11.4820  11.6129  11.9344  11.9555  12.1768  12.2307  12.2820  12.3237
    12.3789  12.4102  12.4817  12.5202  12.5903  12.6570  12.7622  12.8568
    12.8846  12.9561  13.2451  13.2843  13.8363  14.9730  16.2342  17.5162
    18.7669  20.0103

          k =-0.5000-0.8660 0.0000 (  4492 PWs)   bands (ev):

   -34.8209 -34.8099 -34.7876 -34.7655 -34.7648 -34.7259 -34.7210 -34.5184
   -34.5152 -34.4296 -34.4074 -34.4053 -34.4048 -34.4002 -34.3736 -34.3411
   -34.3392 -34.3116 -34.2918 -34.2802 -34.2792 -34.2586 -34.2536 -33.9527
   -33.9526 -33.8731 -33.8727   6.1856   6.3674   6.3793   6.5393   6.5892
     6.6461   6.7410   6.8960   6.9326   7.0962   7.3014   7.3229   7.6537
     8.2063   8.6212   8.8730   9.0518   9.1368   9.2526   9.4724   9.8459
     9.9048   9.9479  10.3647  10.5829  10.6329  10.9471  11.4419  11.4807
    11.5512  12.1045  12.3146  12.3541  12.4820  12.6711  12.7600  12.7719
    12.8068  12.8590  12.9126  12.9348  12.9839  13.0834  13.2428  13.2469
    13.4617  14.3520  15.1702  15.6588  15.8356  16.0931  16.2778  16.4260
    16.4866  19.9620

     the Fermi energy is    12.2063 ev

!    total energy              =   -1540.61859052 Ry
     estimated scf accuracy    <       0.00000009 Ry
     smearing contrib. (-TS)   =      -0.03853809 Ry
     internal energy E=F+TS    =   -1540.58005243 Ry

     The total energy is F=E-TS. E is the sum of the following terms:
     one-electron contribution =  -10643.70908967 Ry
     hartree contribution      =    5399.76360920 Ry
     xc contribution           =    -269.22263514 Ry
     ewald contribution        =    3972.58806319 Ry

     total magnetization       =    -0.00 Bohr mag/cell
     absolute magnetization    =     0.00 Bohr mag/cell

     convergence has been achieved in   7 iterations

     negative rho (up, down):  2.564E-01 2.564E-01

     Forces acting on atoms (cartesian axes, Ry/au):

     atom    1 type  1   force =     0.00000000    0.00000000    0.00652556
     atom    2 type  1   force =     0.00000000    0.00000000   -0.00206891
     atom    3 type  1   force =     0.00000000    0.00000000   -0.00408149
     atom    4 type  1   force =     0.00000000    0.00000000   -0.00092965
     atom    5 type  1   force =     0.00000000    0.00000000    0.00000124
     atom    6 type  1   force =     0.00000000    0.00000000    0.00092519
     atom    7 type  1   force =     0.00000000    0.00000000    0.00407194
     atom    8 type  1   force =     0.00000000    0.00000000    0.00206432
     atom    9 type  1   force =     0.00000000    0.00000000   -0.00650820

     Total force =     0.011333     Total SCF correction =     0.002048
     SCF correction compared to forces is large: reduce conv_thr to get better values
     Energy error            =      3.2E-04
     Gradient error          =      6.5E-03

     number of scf cycles    =   3
     number of bfgs steps    =   2

     energy   old            =   -1540.6182708901 Ry
     energy   new            =   -1540.6185905201 Ry

     CASE: energy  _new < energy  _old

     new trust radius        =       0.0197334935 bohr
     new conv_thr            =       0.0000003196 Ry


ATOMIC_POSITIONS (angstrom)
Rh            0.0000000000        0.0000000000        0.0237329888
Rh            1.3554284000       -0.7825569000        2.2022121147
Rh            1.3554284000        0.7825569000        4.4130802834
Rh            0.0000000000        0.0000000000        6.6396764002
Rh            1.3554284000       -0.7825569000        8.8536130403
Rh            1.3554284000        0.7825569000       11.0675512878
Rh            0.0000000000        0.0000000000       13.2941547741
Rh            1.3554284000       -0.7825569000       15.5050312796
Rh            1.3554284000        0.7825569000       17.6835382312



     Writing output data file /home/STUDENTI/leonardo.razzai/Rh_work/surf_111/9-L.save/
     NEW-OLD atomic charge density approx. for the potential

     negative rho (up, down):  2.538E-01 2.538E-01
     Generating pointlists ...
     new r_m :   0.4082 (alat units)  2.0910 (a.u.) for type    1

     total cpu time spent up to now is      390.9 secs

     Self-consistent Calculation

     iteration #  1     ecut=    35.00 Ry     beta= 0.40
     Davidson diagonalization with overlap
     ethr =  1.00E-06,  avg # of iterations =  6.2

     negative rho (up, down):  2.539E-01 2.539E-01

     total cpu time spent up to now is      415.9 secs

     total energy              =   -1540.61662253 Ry
     estimated scf accuracy    <       0.16673518 Ry

     total magnetization       =    -0.00 Bohr mag/cell
     absolute magnetization    =     0.00 Bohr mag/cell

     iteration #  2     ecut=    35.00 Ry     beta= 0.40
     Davidson diagonalization with overlap
     ethr =  1.24E-04,  avg # of iterations =  1.0

     negative rho (up, down):  2.539E-01 2.539E-01

     total cpu time spent up to now is      426.4 secs

     total energy              =   -1540.61822033 Ry
     estimated scf accuracy    <       0.09247146 Ry

     total magnetization       =    -0.00 Bohr mag/cell
     absolute magnetization    =     0.00 Bohr mag/cell

     iteration #  3     ecut=    35.00 Ry     beta= 0.40
     Davidson diagonalization with overlap
     ethr =  6.85E-05,  avg # of iterations =  1.0

     negative rho (up, down):  2.539E-01 2.539E-01

     total cpu time spent up to now is      436.8 secs

     total energy              =   -1540.61886157 Ry
     estimated scf accuracy    <       0.00359114 Ry

     total magnetization       =    -0.00 Bohr mag/cell
     absolute magnetization    =     0.00 Bohr mag/cell

     iteration #  4     ecut=    35.00 Ry     beta= 0.40
     Davidson diagonalization with overlap
     ethr =  2.66E-06,  avg # of iterations =  1.0

     negative rho (up, down):  2.539E-01 2.539E-01

     total cpu time spent up to now is      447.3 secs

     total energy              =   -1540.61881882 Ry
     estimated scf accuracy    <       0.00168988 Ry

     total magnetization       =    -0.00 Bohr mag/cell
     absolute magnetization    =     0.00 Bohr mag/cell

     iteration #  5     ecut=    35.00 Ry     beta= 0.40
     Davidson diagonalization with overlap
     ethr =  1.25E-06,  avg # of iterations =  1.0

     negative rho (up, down):  2.539E-01 2.539E-01

     total cpu time spent up to now is      457.7 secs

     total energy              =   -1540.61884067 Ry
     estimated scf accuracy    <       0.00002575 Ry

     total magnetization       =    -0.00 Bohr mag/cell
     absolute magnetization    =     0.00 Bohr mag/cell

     iteration #  6     ecut=    35.00 Ry     beta= 0.40
     Davidson diagonalization with overlap
     ethr =  1.91E-08,  avg # of iterations =  1.5

     negative rho (up, down):  2.539E-01 2.539E-01

     total cpu time spent up to now is      468.6 secs

     total energy              =   -1540.61884180 Ry
     estimated scf accuracy    <       0.00000446 Ry

     total magnetization       =    -0.00 Bohr mag/cell
     absolute magnetization    =     0.00 Bohr mag/cell

     iteration #  7     ecut=    35.00 Ry     beta= 0.40
     Davidson diagonalization with overlap
     ethr =  3.30E-09,  avg # of iterations =  1.5

     negative rho (up, down):  2.539E-01 2.539E-01

     total cpu time spent up to now is      479.6 secs

     total energy              =   -1540.61884187 Ry
     estimated scf accuracy    <       0.00000470 Ry

     total magnetization       =    -0.00 Bohr mag/cell
     absolute magnetization    =     0.00 Bohr mag/cell

     iteration #  8     ecut=    35.00 Ry     beta= 0.40
     Davidson diagonalization with overlap
     ethr =  3.30E-09,  avg # of iterations =  1.0

     negative rho (up, down):  2.539E-01 2.539E-01

     total cpu time spent up to now is      490.0 secs

     total energy              =   -1540.61884202 Ry
     estimated scf accuracy    <       0.00000473 Ry

     total magnetization       =    -0.00 Bohr mag/cell
     absolute magnetization    =     0.00 Bohr mag/cell

     iteration #  9     ecut=    35.00 Ry     beta= 0.40
     Davidson diagonalization with overlap
     ethr =  3.30E-09,  avg # of iterations =  1.0

     negative rho (up, down):  2.539E-01 2.539E-01

     total cpu time spent up to now is      500.5 secs

     total energy              =   -1540.61884220 Ry
     estimated scf accuracy    <       0.00000352 Ry

     total magnetization       =    -0.00 Bohr mag/cell
     absolute magnetization    =     0.00 Bohr mag/cell

     iteration # 10     ecut=    35.00 Ry     beta= 0.40
     Davidson diagonalization with overlap
     ethr =  2.61E-09,  avg # of iterations =  1.0

     negative rho (up, down):  2.539E-01 2.539E-01
 
     Magnetic moment per site:
     atom:    1    charge:   13.1059    magn:   -0.0000    constr:    0.0000
     atom:    2    charge:   13.1604    magn:   -0.0000    constr:    0.0000
     atom:    3    charge:   13.1582    magn:    0.0000    constr:    0.0000
     atom:    4    charge:   13.1577    magn:    0.0000    constr:    0.0000
     atom:    5    charge:   13.1610    magn:    0.0000    constr:    0.0000
     atom:    6    charge:   13.1579    magn:    0.0000    constr:    0.0000
     atom:    7    charge:   13.1577    magn:    0.0000    constr:    0.0000
     atom:    8    charge:   13.1610    magn:   -0.0000    constr:    0.0000
     atom:    9    charge:   13.1063    magn:   -0.0000    constr:    0.0000

     total cpu time spent up to now is      510.8 secs

     End of self-consistent calculation

 ------ SPIN UP ------------


          k = 0.0556 0.0962 0.0000 (  4451 PWs)   bands (ev):

   -34.7848 -34.7518 -34.6643 -34.5405 -34.4241 -34.3248 -34.3061 -34.2885
   -34.2802 -34.2795 -34.2667 -34.2544 -34.2355 -34.2327 -34.2253 -34.2129
   -34.1975 -34.1975 -34.1741 -34.1736 -34.1618 -33.9146 -33.9142 -33.8844
   -33.8842 -33.8527 -33.8526   4.8348   5.1366   5.6107   6.1710   6.5484
     6.6047   6.6341   6.9165   6.9385   8.7065   8.7409   8.9119   8.9771
     8.9987   9.0781   9.1624   9.2547   9.3470   9.4298   9.4429   9.4869
     9.4927   9.5363   9.5569   9.5823   9.6258   9.6716   9.7310   9.7814
     9.7937   9.8480  10.0486  10.0610  10.2501  10.8204  10.8793  10.8825
    11.0493  11.0932  11.2490  11.3080  11.3816  11.4497  11.5547  11.6335
    11.8104  11.9422  12.2424  12.3659  12.5557  12.6770  12.9313  13.6429
    14.3357  14.7241

          k = 0.0556 0.2245 0.0000 (  4420 PWs)   bands (ev):

   -34.7313 -34.7111 -34.6448 -34.5608 -34.4964 -34.4530 -34.4190 -34.3915
   -34.3715 -34.3653 -34.3316 -34.3131 -34.3118 -34.2937 -34.2753 -34.2542
   -34.2446 -34.2335 -34.2108 -34.1946 -34.1824 -34.0107 -34.0104 -33.9029
   -33.9026 -33.8856 -33.8855   5.7584   6.0035   6.3932   6.8650   7.1391
     7.1867   7.3534   7.5739   7.6472   8.0211   8.2499   8.3942   8.4087
     8.5228   8.5961   8.7126   8.7639   9.1343   9.3177   9.4051   9.4940
     9.5685   9.6692   9.6891   9.7178   9.8150   9.8429   9.9915  10.1199
    10.1611  10.2373  10.3737  10.4513  10.5332  10.5673  10.6261  10.7251
    10.8353  10.9237  11.0536  11.1482  11.4548  11.5666  11.5997  11.7778
    12.0096  12.1855  12.5234  12.5382  12.6954  13.2572  14.1745  15.1846
    16.1150  16.8160

          k = 0.0556 0.3528 0.0000 (  4467 PWs)   bands (ev):

   -34.6947 -34.6824 -34.6603 -34.6566 -34.6198 -34.6121 -34.5699 -34.5371
   -34.5127 -34.4516 -34.3889 -34.3668 -34.3647 -34.3323 -34.3304 -34.3034
   -34.2883 -34.2681 -34.2508 -34.2279 -34.2138 -34.1635 -34.1632 -33.9295
   -33.9294 -33.8939 -33.8938   6.5611   6.7524   6.8739   6.9266   6.9600
     7.1292   7.2028   7.3543   7.4375   7.6544   7.7586   7.9363   8.0657
     8.4338   8.7027   8.8622   9.0565   9.1982   9.3507   9.4632   9.5365
     9.5600   9.5836   9.7878   9.8516  10.1292  10.1764  10.4108  10.5534
    10.5940  10.7140  10.8823  11.0918  11.2602  11.3539  11.4153  11.5111
    11.6919  11.7405  11.7959  11.9533  12.0964  12.1584  12.2904  12.3362
    12.3921  12.4267  12.6167  12.7887  13.2315  14.3032  15.4914  16.7155
    17.8751  18.8719

          k = 0.0556 0.4811 0.0000 (  4463 PWs)   bands (ev):

   -34.7845 -34.7773 -34.7512 -34.7399 -34.7200 -34.6975 -34.6723 -34.5451
   -34.5296 -34.4531 -34.4118 -34.4064 -34.3931 -34.3745 -34.3635 -34.3387
   -34.3273 -34.2973 -34.2843 -34.2656 -34.2611 -34.2516 -34.2408 -33.9625
   -33.9623 -33.8875 -33.8871   6.3873   6.4942   6.5487   6.6954   6.7245
     6.7980   6.8886   7.0160   7.1081   7.2233   7.4509   7.4913   7.7542
     8.2495   8.5949   8.9216   9.0989   9.2618   9.3224   9.5353   9.5502
     9.7337   9.9255  10.2433  10.2878  10.4635  10.8870  10.9758  11.1066
    11.5377  11.6236  11.9075  11.9736  12.0885  12.3157  12.3884  12.4309
    12.4651  12.5083  12.5439  12.6225  12.6720  12.8013  12.8951  13.0223
    13.3748  13.7984  14.1849  14.3151  14.6219  15.4781  16.5856  17.7224
    18.7569  20.2402

          k = 0.0556-0.5453 0.0000 (  4486 PWs)   bands (ev):

   -34.8128 -34.8051 -34.7778 -34.7572 -34.7499 -34.7174 -34.7054 -34.5313
   -34.5272 -34.4344 -34.4187 -34.4138 -34.3984 -34.3923 -34.3748 -34.3453
   -34.3396 -34.3050 -34.2979 -34.2828 -34.2761 -34.2557 -34.2515 -33.9701
   -33.9698 -33.8862 -33.8859   6.2663   6.4435   6.4491   6.6088   6.6575
     6.7141   6.7931   6.9671   7.0208   7.1334   7.3722   7.3923   7.6807
     8.2090   8.5807   8.8404   9.0298   9.1919   9.2761   9.4890   9.7009
     9.8047   9.9148  10.4187  10.4458  10.4639  11.0366  11.1745  11.2612
    11.6692  11.8859  12.1291  12.2164  12.3576  12.4394  12.5785  12.6504
    12.6909  12.7321  12.7739  12.8196  12.8503  12.9496  13.0464  13.1270
    13.9757  14.5809  15.2355  15.6940  15.7453  15.9124  16.4452  17.0168
    17.4110  20.0432

          k = 0.0556-0.4170 0.0000 (  4465 PWs)   bands (ev):

   -34.7330 -34.7289 -34.7109 -34.7037 -34.6737 -34.6555 -34.6154 -34.5718
   -34.5319 -34.4599 -34.4008 -34.3900 -34.3841 -34.3547 -34.3478 -34.3241
   -34.3091 -34.2838 -34.2687 -34.2431 -34.2347 -34.2222 -34.2187 -33.9486
   -33.9485 -33.8901 -33.8898   6.5648   6.6069   6.7288   6.7735   6.9056
     6.9452   7.0453   7.1053   7.2510   7.4044   7.5759   7.6901   7.8847
     8.3372   8.6326   8.9900   9.2464   9.2893   9.3755   9.4153   9.5512
     9.6370   9.7794  10.0289  10.0611  10.3030  10.5096  10.6279  10.9712
    11.0729  11.2688  11.3990  11.4944  11.7730  11.8657  11.9453  12.0151
    12.0804  12.1570  12.2499  12.3285  12.4767  12.5174  12.6573  12.7396
    12.8807  12.9832  13.0998  13.1669  13.7988  14.8921  16.1299  17.4048
    18.6478  19.7651

          k = 0.0556-0.2887 0.0000 (  4439 PWs)   bands (ev):

   -34.7008 -34.6887 -34.6418 -34.5994 -34.5660 -34.5353 -34.4960 -34.4635
   -34.4479 -34.4199 -34.3693 -34.3396 -34.3393 -34.3156 -34.3028 -34.2780
   -34.2660 -34.2517 -34.2309 -34.2106 -34.1966 -34.0892 -34.0891 -33.9075
   -33.9075 -33.8980 -33.8978   6.2857   6.4704   6.7352   7.0128   7.1245
     7.2643   7.4949   7.5577   7.7800   7.8173   8.0396   8.0751   8.2738
     8.4429   8.4882   8.6920   8.8987   8.9223   9.2170   9.4492   9.5521
     9.6080   9.6553   9.7004   9.8109   9.8541   9.9848  10.0457  10.1739
    10.3186  10.5748  10.5809  10.6458  10.7757  10.9171  10.9472  11.1154
    11.1673  11.2151  11.4316  11.5237  11.6259  11.8191  11.8512  11.9275
    12.1436  12.2632  12.5590  12.7310  12.8431  13.7610  14.8323  15.9612
    17.0119  17.8747

          k = 0.0556-0.1604 0.0000 (  4443 PWs)   bands (ev):

   -34.7622 -34.7341 -34.6547 -34.5453 -34.4484 -34.3797 -34.3540 -34.3271
   -34.3176 -34.3083 -34.2928 -34.2854 -34.2721 -34.2639 -34.2507 -34.2329
   -34.2255 -34.2129 -34.1910 -34.1818 -34.1714 -33.9415 -33.9413 -33.9068
   -33.9067 -33.8668 -33.8666   5.2315   5.5163   5.9673   6.5103   6.8633
     6.9041   6.9602   7.2340   7.2631   8.3951   8.5154   8.6513   8.7253
     8.7940   8.8353   8.8953   9.0212   9.2695   9.3342   9.5011   9.5689
     9.5919   9.6176   9.6973   9.7237   9.7552   9.7937   9.8217   9.8537
     9.9430  10.0157  10.1003  10.2266  10.3310  10.3447  10.7120  10.7776
    10.8593  10.9597  10.9644  11.1420  11.3535  11.4285  11.5353  11.7351
    11.8195  12.2072  12.2295  12.5299  12.6609  12.8004  13.5279  14.3987
    15.2048  15.7386

          k = 0.0556-0.0321 0.0000 (  4465 PWs)   bands (ev):

   -34.7968 -34.7614 -34.6703 -34.5402 -34.4162 -34.2977 -34.2794 -34.2735
   -34.2697 -34.2692 -34.2436 -34.2337 -34.2238 -34.2140 -34.2060 -34.1970
   -34.1918 -34.1712 -34.1711 -34.1656 -34.1543 -33.9163 -33.9161 -33.8565
   -33.8564 -33.8454 -33.8451   4.6250   4.9330   5.4142   5.9783   6.3677
     6.4265   6.4604   6.7348   6.7537   8.8774   8.9218   9.0859   9.1208
     9.1370   9.2074   9.2781   9.2856   9.3337   9.3436   9.3473   9.3536
     9.4415   9.4728   9.5096   9.5510   9.5809   9.5955   9.6272   9.7484
     9.8237   9.9102   9.9150   9.9535  10.6115  11.0125  11.0132  11.1584
    11.1652  11.2716  11.2930  11.3479  11.3928  11.4771  11.6255  11.7629
    11.9700  11.9717  12.0873  12.3403  12.4217  12.5955  12.7275  13.0376
    13.6644  13.9525

          k = 0.1667 0.2887 0.0000 (  4425 PWs)   bands (ev):

   -34.6772 -34.6769 -34.6445 -34.6172 -34.5918 -34.5699 -34.5369 -34.4983
   -34.4859 -34.4483 -34.3901 -34.3690 -34.3641 -34.3294 -34.3145 -34.3033
   -34.2860 -34.2682 -34.2678 -34.2538 -34.1999 -34.1207 -34.1205 -33.9405
   -33.9403 -33.8942 -33.8942   6.7760   6.8568   7.0144   7.2424   7.5090
     7.7289   7.7402   7.7640   7.8545   7.8634   7.9772   7.9778   8.0791
     8.2185   8.3270   8.4156   8.8374   8.8825   8.9296   9.0186   9.1935
     9.3271   9.3624   9.3813   9.4614   9.5203  10.0701  10.0773  10.2306
    10.3131  10.4644  10.5201  10.9175  10.9358  11.0023  11.2010  11.4113
    11.5083  11.6565  11.8044  12.0218  12.1160  12.2060  12.3557  12.3584
    12.4073  12.4736  12.5603  12.5877  13.3352  14.3109  15.3902  16.5347
    17.6319  18.5881

          k = 0.1667 0.4170 0.0000 (  4459 PWs)   bands (ev):

   -34.7177 -34.7127 -34.6947 -34.6842 -34.6619 -34.6460 -34.6176 -34.5792
   -34.5353 -34.4719 -34.4415 -34.4393 -34.4071 -34.3768 -34.3684 -34.3616
   -34.3385 -34.3315 -34.3026 -34.2798 -34.2334 -34.2148 -34.2141 -34.0026
   -34.0023 -33.8872 -33.8868   6.9387   6.9983   7.0844   7.1846   7.2701
     7.3434   7.4841   7.4954   7.5746   7.7288   7.7992   8.0413   8.1290
     8.3402   8.4477   8.6488   8.8467   8.8933   9.0412   9.1513   9.2464
     9.4581   9.5763   9.7975   9.8776  10.0010  10.0656  10.2246  10.3701
    10.4919  10.7843  11.0085  11.1087  11.1636  11.3294  11.3962  11.6836
    11.7554  12.0417  12.5126  12.5999  12.7257  12.7930  12.8471  13.0013
    14.0055  14.1383  14.2265  14.4715  15.0386  15.9329  17.0157  18.1810
    19.3437  20.4110

          k = 0.1667 0.5453 0.0000 (  4490 PWs)   bands (ev):

   -34.7754 -34.7685 -34.7392 -34.7202 -34.7140 -34.6850 -34.6741 -34.5345
   -34.5273 -34.4877 -34.4805 -34.4655 -34.4465 -34.4208 -34.3911 -34.3790
   -34.3662 -34.3410 -34.3252 -34.2905 -34.2643 -34.2595 -34.2586 -34.0362
   -34.0362 -33.8832 -33.8831   6.6266   6.8296   6.9140   7.0667   7.1066
     7.1423   7.2156   7.4101   7.4896   7.5318   7.7809   7.8836   8.0017
     8.2370   8.3310   8.5362   8.6790   8.9882   9.2509   9.3448   9.5116
     9.7214   9.8154   9.8676  10.1614  10.2295  10.3002  10.6583  10.7581
    11.0875  11.1117  11.2140  11.4817  11.7677  11.9285  12.0361  12.1417
    12.2175  12.3597  12.5042  12.5655  12.6384  12.7926  12.9101  13.0038
    15.8364  16.1466  16.4995  16.8071  17.1246  17.5217  17.9368  18.2345
    18.3940  20.3457

          k = 0.1667-0.4811 0.0000 (  4476 PWs)   bands (ev):

   -34.7549 -34.7479 -34.7228 -34.7073 -34.6969 -34.6700 -34.6551 -34.5528
   -34.5318 -34.4751 -34.4659 -34.4652 -34.4267 -34.4036 -34.3827 -34.3812
   -34.3538 -34.3407 -34.3144 -34.2886 -34.2521 -34.2443 -34.2428 -34.0245
   -34.0244 -33.8845 -33.8844   6.7377   6.9165   6.9450   7.1374   7.1625
     7.1780   7.3265   7.4526   7.5141   7.6072   7.7935   7.9443   8.0501
     8.2453   8.4120   8.6424   8.7745   8.8629   9.1973   9.2564   9.5413
     9.6214   9.7431   9.9026   9.9889  10.0374  10.2858  10.5000  10.6678
    10.8479  10.8942  11.0588  11.3786  11.5921  11.6635  11.7292  11.8396
    11.8890  12.1700  12.5415  12.6597  12.7557  12.8524  12.9624  13.0974
    14.9629  15.1646  15.3729  15.6553  16.1542  16.9008  17.8209  18.7872
    19.6319  20.5920

          k = 0.1667-0.3528 0.0000 (  4458 PWs)   bands (ev):

   -34.6813 -34.6799 -34.6572 -34.6557 -34.6249 -34.6187 -34.5891 -34.5642
   -34.5227 -34.4672 -34.4104 -34.4051 -34.3917 -34.3537 -34.3369 -34.3315
   -34.3171 -34.3093 -34.2877 -34.2673 -34.2155 -34.1726 -34.1724 -33.9731
   -33.9729 -33.8908 -33.8907   7.0302   7.1214   7.1807   7.2530   7.3703
     7.4549   7.5544   7.6273   7.6859   7.8003   7.9687   8.0980   8.1862
     8.2754   8.4150   8.5859   8.6943   8.8067   8.9805   9.1517   9.2270
     9.2629   9.3286   9.5273   9.6750   9.7314   9.9890  10.0026  10.1981
    10.4733  10.5932  10.7066  10.8869  11.0922  11.1514  11.2939  11.5755
    11.6395  11.8907  12.3079  12.3653  12.4922  12.5353  12.6034  12.7752
    13.1104  13.1847  13.2413  13.3993  14.0416  15.0276  16.1475  17.3292
    18.4819  19.5230

          k = 0.1667-0.2245 0.0000 (  4433 PWs)   bands (ev):

   -34.7047 -34.6928 -34.6415 -34.5839 -34.5419 -34.5104 -34.4738 -34.4394
   -34.4284 -34.4123 -34.3683 -34.3371 -34.3344 -34.3137 -34.2930 -34.2750
   -34.2587 -34.2492 -34.2379 -34.2246 -34.1891 -34.0646 -34.0644 -33.9103
   -33.9102 -33.8985 -33.8984   6.2370   6.4283   6.7365   7.1239   7.4179
     7.4763   7.6190   7.7315   7.8513   7.9484   8.0763   8.1522   8.1870
     8.3008   8.4286   8.5814   8.6370   8.8742   9.1332   9.1872   9.2791
     9.4015   9.4617   9.5737   9.6654   9.6911   9.8939  10.0167  10.1851
    10.4137  10.4257  10.5293  10.6246  10.7187  10.8788  10.9005  11.0307
    11.1656  11.2065  11.4702  11.5240  11.5798  11.8590  11.8978  11.9040
    12.0674  12.2182  12.4089  12.5632  12.8847  13.7457  14.7400  15.8179
    16.8342  17.6668

          k = 0.1667-0.0962 0.0000 (  4427 PWs)   bands (ev):

   -34.7522 -34.7263 -34.6507 -34.5493 -34.4641 -34.4069 -34.3788 -34.3497
   -34.3379 -34.3207 -34.3005 -34.2999 -34.2902 -34.2678 -34.2659 -34.2422
   -34.2338 -34.2220 -34.1934 -34.1847 -34.1736 -33.9669 -33.9667 -33.9057
   -33.9055 -33.8714 -33.8712   5.4119   5.6846   6.1165   6.6354   6.9621
     6.9717   7.1136   7.3587   7.4038   8.2067   8.4387   8.5588   8.6193
     8.6986   8.7578   8.8506   8.9035   9.3353   9.3779   9.4873   9.5993
     9.6179   9.6423   9.7258   9.7648   9.8392   9.8607   9.9274   9.9907
    10.0128  10.0532  10.0607  10.2271  10.3355  10.4419  10.5470  10.7158
    10.7397  10.9065  11.0100  11.1541  11.2700  11.4968  11.5185  11.7029
    12.0095  12.0902  12.3728  12.6381  12.7818  12.8452  13.7278  14.6808
    15.5383  16.1323

          k = 0.2778 0.4811 0.0000 (  4485 PWs)   bands (ev):

   -34.7162 -34.7157 -34.6918 -34.6897 -34.6595 -34.6552 -34.6153 -34.5986
   -34.5726 -34.5373 -34.5087 -34.5079 -34.4712 -34.4537 -34.4300 -34.4217
   -34.3680 -34.3461 -34.3300 -34.3022 -34.2708 -34.2235 -34.2234 -34.0953
   -34.0951 -33.8820 -33.8818   7.1655   7.1780   7.2998   7.3439   7.4262
     7.5922   7.7764   7.8682   7.9379   7.9660   8.0691   8.0879   8.1785
     8.2181   8.3581   8.4034   8.6777   8.7750   8.9205   9.0490   9.2101
     9.3676   9.5599   9.6528   9.8870   9.8933  10.1073  10.1095  10.5760
    10.6559  10.7295  10.8486  11.0840  11.1185  11.2979  11.3228  11.6370
    11.8916  12.2167  12.5034  12.6799  12.6987  12.6993  12.8357  12.9936
    16.3279  16.4549  16.7224  17.1452  17.7284  18.4787  19.3544  20.2425
    20.7019  20.7874

          k = 0.2778 0.6094 0.0000 (  4491 PWs)   bands (ev):

   -34.7110 -34.7045 -34.6794 -34.6744 -34.6538 -34.6463 -34.6317 -34.6023
   -34.5822 -34.5634 -34.5400 -34.5275 -34.5120 -34.4787 -34.4418 -34.4330
   -34.3555 -34.3451 -34.3297 -34.3072 -34.2906 -34.2157 -34.2155 -34.1272
   -34.1270 -33.8807 -33.8804   7.1301   7.3061   7.3896   7.5225   7.5438
     7.6377   7.7380   7.8563   7.8983   7.9333   8.0115   8.0825   8.1795
     8.2211   8.3204   8.4686   8.5546   8.9002   8.9457   9.1739   9.2625
     9.3761   9.4467   9.6442   9.8139   9.8609  10.1573  10.1669  10.5476
    10.6587  10.8304  10.9557  11.0507  11.1703  11.3243  11.3744  11.9563
    12.1061  12.2877  12.3742  12.4894  12.5391  12.5884  12.6441  12.7707
    17.5279  17.7071  18.0111  18.3873  18.7312  19.0374  19.4003  19.8046
    20.2258  20.3437

          k = 0.2778-0.4170 0.0000 (  4462 PWs)   bands (ev):

   -34.7233 -34.7188 -34.6996 -34.6858 -34.6706 -34.6525 -34.6293 -34.5795
   -34.5468 -34.4966 -34.4791 -34.4777 -34.4377 -34.4120 -34.4016 -34.3859
   -34.3697 -34.3464 -34.3259 -34.2900 -34.2500 -34.2245 -34.2244 -34.0500
   -34.0497 -33.8840 -33.8837   7.0186   7.1520   7.1762   7.3072   7.3618
     7.4845   7.5911   7.6772   7.7541   7.8715   8.0840   8.0907   8.1837
     8.3122   8.5265   8.5307   8.5776   8.7301   8.9435   9.0071   9.2477
     9.3811   9.5368   9.7618   9.9116   9.9424  10.1257  10.1571  10.3326
    10.5103  10.7617  10.9068  11.0731  11.1822  11.3172  11.3694  11.5384
    11.7066  12.1280  12.5424  12.7529  12.7856  12.8494  12.9404  13.0993
    15.1610  15.2443  15.4234  15.7722  16.3448  17.1573  18.1449  19.2137
    20.2703  21.1659

          k = 0.2778-0.2887 0.0000 (  4463 PWs)   bands (ev):

   -34.7002 -34.6995 -34.6808 -34.6775 -34.6423 -34.6311 -34.5896 -34.5783
   -34.5282 -34.4617 -34.4058 -34.3988 -34.3877 -34.3542 -34.3389 -34.3316
   -34.3196 -34.2886 -34.2725 -34.2606 -34.2214 -34.1940 -34.1936 -33.9607
   -33.9606 -33.8904 -33.8902   6.7762   6.9071   6.9706   7.0091   7.1612
     7.1884   7.2567   7.3620   7.4686   7.6144   7.7718   7.9889   8.0306
     8.3369   8.5272   8.8449   8.9096   9.1466   9.1936   9.3001   9.3903
     9.5125   9.6371   9.7259   9.8359  10.0624  10.1632  10.3417  10.5194
    10.5346  10.7498  10.9818  11.1692  11.2436  11.2829  11.4604  11.7685
    11.7888  12.0735  12.2340  12.3664  12.4338  12.5383  12.6276  12.8026
    12.9516  13.1446  13.1728  13.3122  13.9458  14.9621  16.1265  17.3483
    18.5379  19.5980

          k = 0.2778-0.1604 0.0000 (  4458 PWs)   bands (ev):

   -34.6962 -34.6824 -34.6437 -34.6272 -34.5996 -34.5735 -34.5315 -34.4958
   -34.4832 -34.4359 -34.3782 -34.3481 -34.3470 -34.3247 -34.3143 -34.2854
   -34.2706 -34.2610 -34.2291 -34.2128 -34.2063 -34.1261 -34.1258 -33.9121
   -33.9120 -33.8965 -33.8964   6.3928   6.5761   6.7855   6.9021   6.9634
     7.1417   7.3425   7.4012   7.5636   7.7111   7.8669   7.9527   8.1857
     8.4956   8.7227   8.8529   9.0410   9.1874   9.3366   9.4804   9.5599
     9.6184   9.6626   9.7855   9.8996  10.0713  10.1564  10.3337  10.4393
    10.4511  10.6121  10.6925  10.8707  11.0613  11.1172  11.2214  11.2517
    11.3016  11.4098  11.4426  11.6023  11.7259  11.8393  11.9539  11.9580
    12.0932  12.4064  12.6871  12.8419  12.8521  13.9105  15.0703  16.2584
    17.3634  18.2848

          k = 0.3889 0.6736 0.0000 (  4511 PWs)   bands (ev):

   -34.7473 -34.7400 -34.7093 -34.6944 -34.6845 -34.6650 -34.6522 -34.5593
   -34.5548 -34.5202 -34.5200 -34.5024 -34.4857 -34.4519 -34.4271 -34.4055
   -34.3570 -34.3569 -34.3325 -34.2973 -34.2790 -34.2410 -34.2410 -34.0856
   -34.0855 -33.8817 -33.8816   6.8528   7.0505   7.2403   7.3603   7.3738
     7.4437   7.5611   7.6213   7.7093   7.7881   7.9810   8.0081   8.1741
     8.3145   8.3590   8.4073   8.5099   8.7424   9.0211   9.1943   9.4490
     9.5907   9.6897   9.8285   9.8943  10.1394  10.2377  10.3685  10.6039
    10.6519  10.6987  11.0213  11.2742  11.4669  11.6147  11.7158  12.1358
    12.1930  12.2740  12.3648  12.5177  12.5280  12.7052  12.7864  12.8159
    17.0473  17.2567  17.5055  17.7403  17.9800  18.2559  18.5827  18.8943
    19.1505  20.4819

          k = 0.3889-0.3528 0.0000 (  4485 PWs)   bands (ev):

   -34.7887 -34.7812 -34.7538 -34.7368 -34.7261 -34.6976 -34.6827 -34.5355
   -34.5260 -34.4551 -34.4436 -34.4359 -34.4088 -34.3857 -34.3824 -34.3627
   -34.3506 -34.3135 -34.3037 -34.2813 -34.2669 -34.2634 -34.2495 -33.9934
   -33.9932 -33.8854 -33.8853   6.4665   6.6508   6.6545   6.8110   6.8615
     6.9294   6.9823   7.1804   7.2665   7.2868   7.5863   7.6405   7.8020
     8.2108   8.4798   8.7488   8.9275   9.2186   9.3278   9.4590   9.5134
     9.6468   9.8786  10.0888  10.2089  10.4646  10.6673  10.7931  11.0539
    11.2780  11.5511  11.5932  11.7038  11.9923  12.1805  12.2298  12.2663
    12.2941  12.3786  12.5748  12.6375  12.7393  12.8337  12.9777  13.1008
    14.5640  14.9363  15.3198  15.5599  15.8464  16.4230  17.1991  17.9655
    18.5276  20.2816

          k = 0.3889-0.2245 0.0000 (  4444 PWs)   bands (ev):

   -34.7643 -34.7575 -34.7345 -34.7276 -34.7008 -34.6822 -34.6475 -34.5575
   -34.5318 -34.4573 -34.3997 -34.3891 -34.3874 -34.3607 -34.3552 -34.3226
   -34.3087 -34.2949 -34.2607 -34.2575 -34.2463 -34.2361 -34.2358 -33.9475
   -33.9473 -33.8891 -33.8885   6.4253   6.4648   6.5662   6.6731   6.7551
     6.7983   6.9229   6.9781   7.1083   7.2721   7.4417   7.5038   7.7964
     8.3065   8.6624   9.0122   9.1954   9.2701   9.3677   9.5614   9.5645
     9.7276   9.9041  10.1594  10.3330  10.4019  10.8193  10.9409  11.1227
    11.4769  11.6091  11.9359  11.9546  12.1808  12.2289  12.2897  12.3239
    12.3825  12.4084  12.4875  12.5231  12.5945  12.6579  12.7562  12.8589
    12.8850  12.9602  13.2479  13.2877  13.8419  14.9812  16.2461  17.5254
    18.7713  20.0168

          k =-0.5000-0.8660 0.0000 (  4492 PWs)   bands (ev):

   -34.8206 -34.8142 -34.7872 -34.7632 -34.7609 -34.7231 -34.7144 -34.5310
   -34.5286 -34.4215 -34.4063 -34.4038 -34.4022 -34.3997 -34.3716 -34.3371
   -34.3346 -34.3082 -34.2965 -34.2850 -34.2736 -34.2541 -34.2480 -33.9616
   -33.9615 -33.8867 -33.8864   6.1915   6.3719   6.3730   6.5447   6.5833
     6.6328   6.7360   6.8899   6.9316   7.0834   7.2880   7.3067   7.6440
     8.2004   8.6180   8.8758   9.0576   9.1409   9.2590   9.4617   9.8243
     9.9062   9.9497  10.3538  10.5838  10.6281  10.9395  11.4443  11.4778
    11.5477  12.1119  12.3170  12.3560  12.4894  12.6736  12.7637  12.7715
    12.8070  12.8619  12.9153  12.9379  12.9873  13.0856  13.2359  13.2406
    13.4644  14.3499  15.1698  15.6633  15.8424  16.0993  16.2862  16.4316
    16.4916  19.9546

 ------ SPIN DOWN ----------


          k = 0.0556 0.0962 0.0000 (  4451 PWs)   bands (ev):

   -34.7848 -34.7518 -34.6643 -34.5405 -34.4241 -34.3248 -34.3061 -34.2885
   -34.2802 -34.2795 -34.2667 -34.2544 -34.2355 -34.2327 -34.2253 -34.2129
   -34.1975 -34.1975 -34.1741 -34.1736 -34.1618 -33.9147 -33.9142 -33.8844
   -33.8842 -33.8527 -33.8526   4.8348   5.1366   5.6107   6.1710   6.5484
     6.6047   6.6341   6.9165   6.9385   8.7065   8.7409   8.9119   8.9771
     8.9987   9.0781   9.1624   9.2547   9.3470   9.4298   9.4429   9.4869
     9.4927   9.5363   9.5569   9.5823   9.6258   9.6716   9.7310   9.7814
     9.7937   9.8480  10.0486  10.0610  10.2501  10.8204  10.8793  10.8825
    11.0493  11.0932  11.2490  11.3080  11.3816  11.4497  11.5547  11.6335
    11.8104  11.9422  12.2424  12.3659  12.5557  12.6770  12.9313  13.6429
    14.3357  14.7241

          k = 0.0556 0.2245 0.0000 (  4420 PWs)   bands (ev):

   -34.7313 -34.7111 -34.6448 -34.5608 -34.4964 -34.4530 -34.4190 -34.3915
   -34.3715 -34.3653 -34.3316 -34.3131 -34.3118 -34.2937 -34.2753 -34.2542
   -34.2446 -34.2335 -34.2108 -34.1946 -34.1824 -34.0107 -34.0104 -33.9029
   -33.9026 -33.8856 -33.8855   5.7584   6.0035   6.3932   6.8650   7.1391
     7.1867   7.3534   7.5739   7.6472   8.0211   8.2499   8.3942   8.4087
     8.5228   8.5961   8.7126   8.7639   9.1343   9.3177   9.4051   9.4940
     9.5685   9.6692   9.6891   9.7178   9.8150   9.8429   9.9915  10.1199
    10.1611  10.2373  10.3737  10.4513  10.5332  10.5673  10.6261  10.7251
    10.8353  10.9237  11.0536  11.1482  11.4548  11.5666  11.5997  11.7778
    12.0096  12.1855  12.5234  12.5382  12.6954  13.2572  14.1745  15.1846
    16.1150  16.8160

          k = 0.0556 0.3528 0.0000 (  4467 PWs)   bands (ev):

   -34.6947 -34.6824 -34.6603 -34.6566 -34.6198 -34.6121 -34.5699 -34.5371
   -34.5127 -34.4516 -34.3889 -34.3668 -34.3647 -34.3323 -34.3304 -34.3034
   -34.2883 -34.2681 -34.2508 -34.2279 -34.2138 -34.1635 -34.1632 -33.9295
   -33.9294 -33.8939 -33.8938   6.5611   6.7524   6.8739   6.9266   6.9600
     7.1292   7.2028   7.3543   7.4375   7.6544   7.7586   7.9363   8.0657
     8.4338   8.7027   8.8622   9.0565   9.1982   9.3507   9.4632   9.5365
     9.5600   9.5836   9.7878   9.8516  10.1292  10.1764  10.4108  10.5534
    10.5940  10.7140  10.8823  11.0918  11.2602  11.3539  11.4153  11.5111
    11.6919  11.7405  11.7959  11.9533  12.0964  12.1584  12.2904  12.3362
    12.3921  12.4267  12.6167  12.7887  13.2315  14.3032  15.4914  16.7155
    17.8751  18.8719

          k = 0.0556 0.4811 0.0000 (  4463 PWs)   bands (ev):

   -34.7845 -34.7773 -34.7512 -34.7399 -34.7200 -34.6975 -34.6723 -34.5451
   -34.5296 -34.4531 -34.4118 -34.4064 -34.3931 -34.3745 -34.3635 -34.3387
   -34.3273 -34.2973 -34.2843 -34.2656 -34.2611 -34.2516 -34.2408 -33.9625
   -33.9623 -33.8875 -33.8871   6.3873   6.4942   6.5487   6.6954   6.7245
     6.7980   6.8886   7.0160   7.1081   7.2233   7.4509   7.4913   7.7542
     8.2495   8.5949   8.9216   9.0989   9.2618   9.3224   9.5353   9.5502
     9.7337   9.9255  10.2433  10.2878  10.4635  10.8870  10.9758  11.1066
    11.5377  11.6236  11.9075  11.9736  12.0885  12.3157  12.3884  12.4309
    12.4651  12.5083  12.5439  12.6225  12.6720  12.8013  12.8951  13.0223
    13.3748  13.7984  14.1849  14.3151  14.6219  15.4781  16.5856  17.7224
    18.7569  20.2402

          k = 0.0556-0.5453 0.0000 (  4486 PWs)   bands (ev):

   -34.8128 -34.8051 -34.7778 -34.7572 -34.7499 -34.7174 -34.7054 -34.5313
   -34.5272 -34.4344 -34.4187 -34.4138 -34.3984 -34.3923 -34.3748 -34.3453
   -34.3396 -34.3050 -34.2979 -34.2828 -34.2761 -34.2557 -34.2515 -33.9701
   -33.9698 -33.8862 -33.8859   6.2663   6.4435   6.4491   6.6088   6.6575
     6.7141   6.7931   6.9671   7.0208   7.1334   7.3722   7.3923   7.6807
     8.2090   8.5807   8.8404   9.0298   9.1919   9.2761   9.4890   9.7009
     9.8047   9.9148  10.4187  10.4458  10.4639  11.0366  11.1745  11.2612
    11.6692  11.8859  12.1291  12.2164  12.3576  12.4394  12.5785  12.6504
    12.6909  12.7321  12.7739  12.8196  12.8503  12.9496  13.0464  13.1270
    13.9757  14.5809  15.2355  15.6940  15.7453  15.9124  16.4452  17.0168
    17.4110  20.0426

          k = 0.0556-0.4170 0.0000 (  4465 PWs)   bands (ev):

   -34.7330 -34.7289 -34.7109 -34.7037 -34.6737 -34.6555 -34.6154 -34.5718
   -34.5319 -34.4599 -34.4008 -34.3900 -34.3841 -34.3547 -34.3478 -34.3241
   -34.3091 -34.2838 -34.2687 -34.2431 -34.2347 -34.2222 -34.2188 -33.9486
   -33.9485 -33.8901 -33.8898   6.5648   6.6069   6.7288   6.7735   6.9056
     6.9452   7.0453   7.1053   7.2510   7.4044   7.5759   7.6901   7.8847
     8.3372   8.6326   8.9900   9.2464   9.2893   9.3755   9.4153   9.5512
     9.6370   9.7794  10.0289  10.0611  10.3030  10.5096  10.6279  10.9712
    11.0729  11.2688  11.3990  11.4944  11.7730  11.8657  11.9453  12.0151
    12.0804  12.1570  12.2499  12.3285  12.4767  12.5174  12.6573  12.7396
    12.8807  12.9832  13.0998  13.1669  13.7988  14.8921  16.1299  17.4048
    18.6478  19.7651

          k = 0.0556-0.2887 0.0000 (  4439 PWs)   bands (ev):

   -34.7008 -34.6887 -34.6418 -34.5994 -34.5660 -34.5353 -34.4960 -34.4635
   -34.4479 -34.4199 -34.3693 -34.3396 -34.3393 -34.3156 -34.3028 -34.2780
   -34.2660 -34.2517 -34.2309 -34.2106 -34.1966 -34.0892 -34.0891 -33.9075
   -33.9075 -33.8980 -33.8978   6.2857   6.4704   6.7352   7.0128   7.1245
     7.2643   7.4949   7.5577   7.7800   7.8173   8.0396   8.0751   8.2738
     8.4429   8.4882   8.6920   8.8987   8.9223   9.2170   9.4492   9.5521
     9.6080   9.6553   9.7004   9.8109   9.8541   9.9848  10.0457  10.1739
    10.3186  10.5748  10.5809  10.6458  10.7757  10.9171  10.9472  11.1154
    11.1673  11.2151  11.4316  11.5237  11.6259  11.8191  11.8512  11.9275
    12.1436  12.2632  12.5590  12.7310  12.8431  13.7610  14.8323  15.9612
    17.0119  17.8747

          k = 0.0556-0.1604 0.0000 (  4443 PWs)   bands (ev):

   -34.7622 -34.7341 -34.6547 -34.5453 -34.4484 -34.3797 -34.3540 -34.3271
   -34.3176 -34.3083 -34.2928 -34.2854 -34.2721 -34.2639 -34.2507 -34.2329
   -34.2255 -34.2129 -34.1910 -34.1818 -34.1714 -33.9415 -33.9413 -33.9068
   -33.9067 -33.8668 -33.8666   5.2315   5.5163   5.9673   6.5103   6.8633
     6.9041   6.9602   7.2340   7.2631   8.3951   8.5154   8.6513   8.7253
     8.7940   8.8353   8.8953   9.0212   9.2695   9.3342   9.5011   9.5689
     9.5919   9.6176   9.6973   9.7237   9.7552   9.7937   9.8217   9.8537
     9.9430  10.0157  10.1003  10.2266  10.3310  10.3447  10.7120  10.7776
    10.8593  10.9597  10.9644  11.1420  11.3535  11.4285  11.5353  11.7351
    11.8195  12.2072  12.2295  12.5299  12.6609  12.8004  13.5279  14.3987
    15.2048  15.7386

          k = 0.0556-0.0321 0.0000 (  4465 PWs)   bands (ev):

   -34.7968 -34.7614 -34.6703 -34.5402 -34.4162 -34.2977 -34.2794 -34.2735
   -34.2697 -34.2692 -34.2436 -34.2337 -34.2238 -34.2140 -34.2060 -34.1970
   -34.1918 -34.1712 -34.1711 -34.1656 -34.1543 -33.9163 -33.9161 -33.8565
   -33.8564 -33.8454 -33.8451   4.6250   4.9330   5.4142   5.9783   6.3677
     6.4265   6.4604   6.7348   6.7537   8.8774   8.9218   9.0859   9.1208
     9.1370   9.2074   9.2781   9.2856   9.3337   9.3436   9.3473   9.3536
     9.4415   9.4728   9.5096   9.5510   9.5809   9.5955   9.6272   9.7484
     9.8237   9.9102   9.9150   9.9535  10.6115  11.0125  11.0132  11.1584
    11.1652  11.2716  11.2930  11.3479  11.3928  11.4771  11.6255  11.7629
    11.9700  11.9717  12.0873  12.3403  12.4217  12.5955  12.7275  13.0376
    13.6644  13.9525

          k = 0.1667 0.2887 0.0000 (  4425 PWs)   bands (ev):

   -34.6772 -34.6769 -34.6445 -34.6172 -34.5918 -34.5699 -34.5369 -34.4983
   -34.4859 -34.4483 -34.3901 -34.3690 -34.3641 -34.3294 -34.3145 -34.3033
   -34.2860 -34.2682 -34.2678 -34.2538 -34.1999 -34.1207 -34.1205 -33.9405
   -33.9403 -33.8942 -33.8942   6.7760   6.8568   7.0144   7.2424   7.5090
     7.7289   7.7402   7.7640   7.8545   7.8634   7.9772   7.9778   8.0791
     8.2185   8.3270   8.4156   8.8374   8.8825   8.9296   9.0186   9.1935
     9.3271   9.3624   9.3813   9.4614   9.5203  10.0701  10.0773  10.2306
    10.3131  10.4644  10.5201  10.9175  10.9358  11.0023  11.2010  11.4113
    11.5083  11.6565  11.8044  12.0218  12.1160  12.2060  12.3557  12.3584
    12.4073  12.4736  12.5603  12.5877  13.3352  14.3109  15.3902  16.5347
    17.6319  18.5881

          k = 0.1667 0.4170 0.0000 (  4459 PWs)   bands (ev):

   -34.7177 -34.7127 -34.6947 -34.6842 -34.6619 -34.6460 -34.6176 -34.5792
   -34.5353 -34.4719 -34.4415 -34.4393 -34.4071 -34.3768 -34.3684 -34.3616
   -34.3385 -34.3315 -34.3026 -34.2798 -34.2334 -34.2148 -34.2141 -34.0026
   -34.0023 -33.8872 -33.8868   6.9387   6.9983   7.0844   7.1846   7.2701
     7.3434   7.4841   7.4954   7.5746   7.7288   7.7992   8.0413   8.1290
     8.3402   8.4477   8.6488   8.8467   8.8933   9.0412   9.1513   9.2464
     9.4581   9.5763   9.7975   9.8776  10.0010  10.0656  10.2246  10.3701
    10.4919  10.7843  11.0085  11.1087  11.1636  11.3294  11.3962  11.6836
    11.7554  12.0417  12.5126  12.5999  12.7257  12.7930  12.8471  13.0013
    14.0055  14.1383  14.2265  14.4715  15.0386  15.9329  17.0157  18.1810
    19.3437  20.4110

          k = 0.1667 0.5453 0.0000 (  4490 PWs)   bands (ev):

   -34.7754 -34.7685 -34.7392 -34.7202 -34.7140 -34.6850 -34.6741 -34.5345
   -34.5273 -34.4877 -34.4805 -34.4655 -34.4465 -34.4208 -34.3911 -34.3790
   -34.3662 -34.3410 -34.3252 -34.2905 -34.2643 -34.2595 -34.2586 -34.0362
   -34.0362 -33.8832 -33.8831   6.6266   6.8296   6.9140   7.0667   7.1066
     7.1423   7.2156   7.4101   7.4896   7.5318   7.7809   7.8836   8.0017
     8.2370   8.3310   8.5362   8.6790   8.9882   9.2509   9.3448   9.5116
     9.7214   9.8154   9.8676  10.1614  10.2295  10.3002  10.6583  10.7581
    11.0875  11.1117  11.2140  11.4817  11.7677  11.9285  12.0361  12.1417
    12.2175  12.3597  12.5042  12.5655  12.6384  12.7926  12.9101  13.0038
    15.8364  16.1466  16.4995  16.8071  17.1246  17.5217  17.9368  18.2345
    18.3940  20.3380

          k = 0.1667-0.4811 0.0000 (  4476 PWs)   bands (ev):

   -34.7549 -34.7479 -34.7228 -34.7073 -34.6969 -34.6700 -34.6551 -34.5528
   -34.5318 -34.4751 -34.4659 -34.4652 -34.4267 -34.4036 -34.3827 -34.3812
   -34.3538 -34.3407 -34.3144 -34.2886 -34.2521 -34.2443 -34.2428 -34.0245
   -34.0244 -33.8845 -33.8844   6.7377   6.9165   6.9450   7.1374   7.1625
     7.1780   7.3265   7.4526   7.5141   7.6072   7.7935   7.9443   8.0501
     8.2453   8.4120   8.6424   8.7745   8.8629   9.1973   9.2564   9.5413
     9.6214   9.7431   9.9026   9.9889  10.0374  10.2858  10.5000  10.6678
    10.8479  10.8942  11.0588  11.3786  11.5921  11.6635  11.7292  11.8396
    11.8890  12.1700  12.5415  12.6597  12.7557  12.8524  12.9624  13.0974
    14.9629  15.1646  15.3729  15.6553  16.1542  16.9008  17.8209  18.7872
    19.6319  20.5914

          k = 0.1667-0.3528 0.0000 (  4458 PWs)   bands (ev):

   -34.6813 -34.6799 -34.6572 -34.6557 -34.6249 -34.6187 -34.5891 -34.5642
   -34.5227 -34.4672 -34.4104 -34.4051 -34.3917 -34.3537 -34.3369 -34.3315
   -34.3171 -34.3093 -34.2877 -34.2673 -34.2155 -34.1726 -34.1724 -33.9731
   -33.9729 -33.8908 -33.8907   7.0302   7.1214   7.1807   7.2530   7.3703
     7.4549   7.5544   7.6273   7.6859   7.8003   7.9687   8.0980   8.1862
     8.2754   8.4150   8.5859   8.6943   8.8067   8.9805   9.1517   9.2270
     9.2629   9.3286   9.5273   9.6750   9.7314   9.9890  10.0026  10.1981
    10.4733  10.5932  10.7066  10.8869  11.0922  11.1514  11.2939  11.5755
    11.6395  11.8907  12.3079  12.3653  12.4922  12.5353  12.6034  12.7752
    13.1104  13.1847  13.2413  13.3993  14.0416  15.0276  16.1475  17.3292
    18.4819  19.5230

          k = 0.1667-0.2245 0.0000 (  4433 PWs)   bands (ev):

   -34.7047 -34.6928 -34.6415 -34.5839 -34.5419 -34.5104 -34.4738 -34.4394
   -34.4284 -34.4123 -34.3683 -34.3371 -34.3344 -34.3137 -34.2930 -34.2750
   -34.2587 -34.2492 -34.2379 -34.2246 -34.1891 -34.0646 -34.0644 -33.9103
   -33.9102 -33.8985 -33.8984   6.2370   6.4283   6.7365   7.1239   7.4179
     7.4763   7.6190   7.7315   7.8513   7.9484   8.0763   8.1522   8.1870
     8.3008   8.4286   8.5814   8.6370   8.8742   9.1332   9.1872   9.2791
     9.4015   9.4617   9.5737   9.6654   9.6911   9.8939  10.0167  10.1851
    10.4137  10.4257  10.5293  10.6246  10.7187  10.8788  10.9005  11.0307
    11.1656  11.2065  11.4702  11.5240  11.5798  11.8590  11.8978  11.9040
    12.0674  12.2182  12.4089  12.5632  12.8847  13.7457  14.7400  15.8179
    16.8342  17.6668

          k = 0.1667-0.0962 0.0000 (  4427 PWs)   bands (ev):

   -34.7522 -34.7263 -34.6507 -34.5493 -34.4641 -34.4069 -34.3788 -34.3497
   -34.3379 -34.3207 -34.3005 -34.2999 -34.2902 -34.2678 -34.2659 -34.2422
   -34.2338 -34.2220 -34.1934 -34.1847 -34.1736 -33.9669 -33.9667 -33.9057
   -33.9055 -33.8714 -33.8712   5.4119   5.6846   6.1165   6.6354   6.9621
     6.9717   7.1136   7.3587   7.4038   8.2067   8.4387   8.5588   8.6193
     8.6986   8.7578   8.8506   8.9035   9.3353   9.3779   9.4873   9.5993
     9.6179   9.6423   9.7258   9.7648   9.8392   9.8607   9.9274   9.9907
    10.0128  10.0532  10.0607  10.2271  10.3355  10.4419  10.5470  10.7158
    10.7397  10.9065  11.0100  11.1541  11.2700  11.4968  11.5185  11.7029
    12.0095  12.0902  12.3728  12.6381  12.7818  12.8452  13.7278  14.6808
    15.5383  16.1323

          k = 0.2778 0.4811 0.0000 (  4485 PWs)   bands (ev):

   -34.7162 -34.7157 -34.6918 -34.6897 -34.6595 -34.6552 -34.6153 -34.5986
   -34.5726 -34.5373 -34.5087 -34.5079 -34.4712 -34.4537 -34.4300 -34.4217
   -34.3680 -34.3461 -34.3300 -34.3022 -34.2708 -34.2235 -34.2234 -34.0953
   -34.0951 -33.8820 -33.8818   7.1655   7.1780   7.2998   7.3439   7.4262
     7.5922   7.7764   7.8682   7.9379   7.9660   8.0691   8.0879   8.1785
     8.2181   8.3581   8.4034   8.6777   8.7750   8.9205   9.0490   9.2101
     9.3676   9.5599   9.6528   9.8870   9.8933  10.1073  10.1095  10.5760
    10.6559  10.7295  10.8486  11.0840  11.1185  11.2979  11.3228  11.6370
    11.8916  12.2167  12.5034  12.6799  12.6987  12.6993  12.8357  12.9936
    16.3279  16.4549  16.7224  17.1452  17.7284  18.4787  19.3544  20.2424
    20.7018  20.7869

          k = 0.2778 0.6094 0.0000 (  4491 PWs)   bands (ev):

   -34.7110 -34.7045 -34.6794 -34.6744 -34.6538 -34.6463 -34.6317 -34.6023
   -34.5822 -34.5634 -34.5400 -34.5275 -34.5120 -34.4787 -34.4418 -34.4330
   -34.3555 -34.3451 -34.3297 -34.3072 -34.2906 -34.2157 -34.2155 -34.1272
   -34.1270 -33.8807 -33.8804   7.1301   7.3061   7.3896   7.5225   7.5438
     7.6377   7.7380   7.8563   7.8983   7.9333   8.0115   8.0825   8.1795
     8.2211   8.3204   8.4686   8.5546   8.9002   8.9457   9.1739   9.2625
     9.3761   9.4467   9.6442   9.8139   9.8609  10.1573  10.1669  10.5476
    10.6587  10.8304  10.9557  11.0507  11.1703  11.3243  11.3744  11.9563
    12.1061  12.2877  12.3742  12.4894  12.5391  12.5884  12.6441  12.7707
    17.5279  17.7071  18.0111  18.3873  18.7312  19.0374  19.4003  19.8046
    20.2258  20.3437

          k = 0.2778-0.4170 0.0000 (  4462 PWs)   bands (ev):

   -34.7233 -34.7189 -34.6996 -34.6858 -34.6706 -34.6525 -34.6293 -34.5795
   -34.5468 -34.4966 -34.4791 -34.4777 -34.4377 -34.4120 -34.4016 -34.3859
   -34.3697 -34.3464 -34.3259 -34.2900 -34.2500 -34.2245 -34.2244 -34.0500
   -34.0497 -33.8840 -33.8837   7.0186   7.1520   7.1762   7.3072   7.3618
     7.4845   7.5911   7.6772   7.7541   7.8715   8.0840   8.0907   8.1837
     8.3122   8.5265   8.5307   8.5776   8.7301   8.9435   9.0071   9.2477
     9.3811   9.5368   9.7618   9.9116   9.9424  10.1257  10.1571  10.3326
    10.5103  10.7617  10.9068  11.0731  11.1822  11.3172  11.3694  11.5384
    11.7066  12.1280  12.5424  12.7529  12.7856  12.8494  12.9404  13.0993
    15.1610  15.2443  15.4234  15.7722  16.3448  17.1573  18.1449  19.2137
    20.2703  21.1658

          k = 0.2778-0.2887 0.0000 (  4463 PWs)   bands (ev):

   -34.7002 -34.6995 -34.6808 -34.6775 -34.6423 -34.6311 -34.5896 -34.5783
   -34.5282 -34.4617 -34.4058 -34.3988 -34.3877 -34.3542 -34.3389 -34.3316
   -34.3196 -34.2886 -34.2725 -34.2606 -34.2214 -34.1940 -34.1936 -33.9607
   -33.9606 -33.8904 -33.8902   6.7762   6.9071   6.9706   7.0091   7.1612
     7.1884   7.2567   7.3620   7.4686   7.6144   7.7718   7.9889   8.0306
     8.3369   8.5272   8.8449   8.9096   9.1466   9.1936   9.3001   9.3903
     9.5125   9.6371   9.7259   9.8359  10.0624  10.1632  10.3417  10.5194
    10.5346  10.7498  10.9818  11.1692  11.2436  11.2829  11.4604  11.7685
    11.7888  12.0735  12.2340  12.3664  12.4338  12.5383  12.6276  12.8026
    12.9516  13.1446  13.1728  13.3122  13.9458  14.9621  16.1265  17.3483
    18.5379  19.5980

          k = 0.2778-0.1604 0.0000 (  4458 PWs)   bands (ev):

   -34.6962 -34.6824 -34.6437 -34.6272 -34.5996 -34.5735 -34.5315 -34.4958
   -34.4832 -34.4359 -34.3782 -34.3481 -34.3470 -34.3247 -34.3143 -34.2854
   -34.2706 -34.2610 -34.2291 -34.2127 -34.2063 -34.1261 -34.1258 -33.9121
   -33.9120 -33.8965 -33.8964   6.3928   6.5761   6.7855   6.9021   6.9634
     7.1417   7.3425   7.4012   7.5636   7.7111   7.8669   7.9527   8.1857
     8.4956   8.7227   8.8529   9.0410   9.1874   9.3366   9.4804   9.5599
     9.6184   9.6626   9.7855   9.8996  10.0713  10.1564  10.3337  10.4393
    10.4511  10.6121  10.6925  10.8707  11.0613  11.1172  11.2214  11.2517
    11.3016  11.4098  11.4426  11.6023  11.7259  11.8393  11.9539  11.9580
    12.0932  12.4064  12.6871  12.8419  12.8521  13.9105  15.0703  16.2584
    17.3634  18.2848

          k = 0.3889 0.6736 0.0000 (  4511 PWs)   bands (ev):

   -34.7473 -34.7400 -34.7093 -34.6944 -34.6845 -34.6650 -34.6522 -34.5593
   -34.5548 -34.5202 -34.5200 -34.5024 -34.4857 -34.4519 -34.4271 -34.4055
   -34.3570 -34.3569 -34.3325 -34.2973 -34.2790 -34.2410 -34.2410 -34.0856
   -34.0855 -33.8817 -33.8816   6.8528   7.0505   7.2403   7.3603   7.3738
     7.4437   7.5611   7.6213   7.7093   7.7881   7.9810   8.0081   8.1741
     8.3145   8.3590   8.4073   8.5099   8.7424   9.0211   9.1943   9.4490
     9.5907   9.6897   9.8285   9.8943  10.1394  10.2377  10.3685  10.6039
    10.6519  10.6987  11.0213  11.2742  11.4669  11.6147  11.7158  12.1358
    12.1930  12.2740  12.3648  12.5177  12.5280  12.7052  12.7864  12.8159
    17.0473  17.2567  17.5055  17.7403  17.9800  18.2559  18.5827  18.8943
    19.1505  20.4814

          k = 0.3889-0.3528 0.0000 (  4485 PWs)   bands (ev):

   -34.7887 -34.7812 -34.7538 -34.7368 -34.7261 -34.6976 -34.6827 -34.5355
   -34.5260 -34.4551 -34.4436 -34.4359 -34.4088 -34.3857 -34.3824 -34.3627
   -34.3506 -34.3135 -34.3037 -34.2813 -34.2669 -34.2634 -34.2495 -33.9934
   -33.9932 -33.8854 -33.8853   6.4665   6.6508   6.6545   6.8110   6.8615
     6.9294   6.9823   7.1804   7.2665   7.2868   7.5863   7.6405   7.8020
     8.2108   8.4798   8.7488   8.9275   9.2186   9.3278   9.4590   9.5134
     9.6468   9.8786  10.0888  10.2089  10.4646  10.6673  10.7931  11.0539
    11.2780  11.5511  11.5932  11.7038  11.9923  12.1805  12.2298  12.2663
    12.2941  12.3786  12.5748  12.6375  12.7393  12.8337  12.9777  13.1008
    14.5640  14.9363  15.3198  15.5599  15.8464  16.4230  17.1991  17.9655
    18.5276  20.2816

          k = 0.3889-0.2245 0.0000 (  4444 PWs)   bands (ev):

   -34.7643 -34.7575 -34.7345 -34.7276 -34.7008 -34.6822 -34.6475 -34.5575
   -34.5318 -34.4573 -34.3997 -34.3891 -34.3874 -34.3607 -34.3552 -34.3226
   -34.3087 -34.2949 -34.2607 -34.2575 -34.2463 -34.2361 -34.2358 -33.9475
   -33.9473 -33.8891 -33.8885   6.4253   6.4648   6.5662   6.6731   6.7551
     6.7983   6.9229   6.9781   7.1083   7.2721   7.4417   7.5038   7.7964
     8.3065   8.6624   9.0122   9.1954   9.2701   9.3677   9.5614   9.5645
     9.7276   9.9041  10.1594  10.3330  10.4019  10.8193  10.9409  11.1227
    11.4769  11.6090  11.9359  11.9546  12.1808  12.2289  12.2897  12.3239
    12.3825  12.4084  12.4875  12.5231  12.5945  12.6579  12.7562  12.8589
    12.8850  12.9602  13.2479  13.2877  13.8419  14.9812  16.2461  17.5254
    18.7713  20.0168

          k =-0.5000-0.8660 0.0000 (  4492 PWs)   bands (ev):

   -34.8206 -34.8142 -34.7872 -34.7632 -34.7609 -34.7231 -34.7144 -34.5310
   -34.5286 -34.4215 -34.4063 -34.4038 -34.4022 -34.3997 -34.3716 -34.3371
   -34.3346 -34.3082 -34.2965 -34.2850 -34.2736 -34.2541 -34.2480 -33.9616
   -33.9615 -33.8867 -33.8864   6.1915   6.3719   6.3730   6.5447   6.5833
     6.6328   6.7360   6.8899   6.9316   7.0834   7.2880   7.3067   7.6440
     8.2004   8.6180   8.8758   9.0576   9.1409   9.2590   9.4617   9.8243
     9.9062   9.9497  10.3538  10.5838  10.6281  10.9395  11.4443  11.4778
    11.5477  12.1119  12.3170  12.3560  12.4894  12.6736  12.7637  12.7715
    12.8070  12.8619  12.9153  12.9379  12.9873  13.0856  13.2359  13.2406
    13.4644  14.3499  15.1698  15.6633  15.8424  16.0993  16.2862  16.4316
    16.4916  19.9541

     the Fermi energy is    12.2099 ev

!    total energy              =   -1540.61884222 Ry
     estimated scf accuracy    <       0.00000024 Ry
     smearing contrib. (-TS)   =      -0.03842360 Ry
     internal energy E=F+TS    =   -1540.58041862 Ry

     The total energy is F=E-TS. E is the sum of the following terms:
     one-electron contribution =  -10653.86704629 Ry
     hartree contribution      =    5404.84930546 Ry
     xc contribution           =    -269.23222445 Ry
     ewald contribution        =    3977.66954665 Ry

     total magnetization       =    -0.00 Bohr mag/cell
     absolute magnetization    =     0.00 Bohr mag/cell

     convergence has been achieved in  10 iterations

     negative rho (up, down):  2.539E-01 2.539E-01

     Forces acting on atoms (cartesian axes, Ry/au):

     atom    1 type  1   force =     0.00000000    0.00000000    0.00215568
     atom    2 type  1   force =     0.00000000    0.00000000    0.00139642
     atom    3 type  1   force =     0.00000000    0.00000000   -0.00181543
     atom    4 type  1   force =     0.00000000    0.00000000   -0.00170976
     atom    5 type  1   force =     0.00000000    0.00000000    0.00000242
     atom    6 type  1   force =     0.00000000    0.00000000    0.00171670
     atom    7 type  1   force =     0.00000000    0.00000000    0.00182340
     atom    8 type  1   force =     0.00000000    0.00000000   -0.00139109
     atom    9 type  1   force =     0.00000000    0.00000000   -0.00217834

     Total force =     0.005076     Total SCF correction =     0.004459
     SCF correction compared to forces is large: reduce conv_thr to get better values
     Energy error            =      2.5E-04
     Gradient error          =      2.2E-03

     number of scf cycles    =   4
     number of bfgs steps    =   3

     energy   old            =   -1540.6185905201 Ry
     energy   new            =   -1540.6188422198 Ry

     CASE: energy  _new < energy  _old

     new trust radius        =       0.0096188417 bohr
     new conv_thr            =       0.0000002178 Ry


ATOMIC_POSITIONS (angstrom)
Rh            0.0000000000        0.0000000000        0.0288114043
Rh            1.3554284000       -0.7825569000        2.2017491820
Rh            1.3554284000        0.7825569000        4.4096794495
Rh            0.0000000000        0.0000000000        6.6382214007
Rh            1.3554284000       -0.7825569000        8.8536141617
Rh            1.3554284000        0.7825569000       11.0690093892
Rh            0.0000000000        0.0000000000       13.2975595627
Rh            1.3554284000       -0.7825569000       15.5054976906
Rh            1.3554284000        0.7825569000       17.6784481594



     Writing output data file /home/STUDENTI/leonardo.razzai/Rh_work/surf_111/9-L.save/
     NEW-OLD atomic charge density approx. for the potential

     negative rho (up, down):  2.533E-01 2.533E-01
     Generating pointlists ...

     total cpu time spent up to now is      513.5 secs

     Self-consistent Calculation

     iteration #  1     ecut=    35.00 Ry     beta= 0.40
     Davidson diagonalization with overlap
     ethr =  1.00E-06,  avg # of iterations =  5.6

     negative rho (up, down):  2.533E-01 2.533E-01

     total cpu time spent up to now is      534.9 secs

     total energy              =   -1540.61801895 Ry
     estimated scf accuracy    <       0.06416383 Ry

     total magnetization       =    -0.00 Bohr mag/cell
     absolute magnetization    =     0.00 Bohr mag/cell

     iteration #  2     ecut=    35.00 Ry     beta= 0.40
     Davidson diagonalization with overlap
     ethr =  4.75E-05,  avg # of iterations =  1.0

     negative rho (up, down):  2.533E-01 2.533E-01

     total cpu time spent up to now is      545.4 secs

     total energy              =   -1540.61864894 Ry
     estimated scf accuracy    <       0.03382960 Ry

     total magnetization       =    -0.00 Bohr mag/cell
     absolute magnetization    =     0.00 Bohr mag/cell

     iteration #  3     ecut=    35.00 Ry     beta= 0.40
     Davidson diagonalization with overlap
     ethr =  2.51E-05,  avg # of iterations =  1.0

     negative rho (up, down):  2.533E-01 2.533E-01

     total cpu time spent up to now is      555.9 secs

     total energy              =   -1540.61889678 Ry
     estimated scf accuracy    <       0.00139031 Ry

     total magnetization       =    -0.00 Bohr mag/cell
     absolute magnetization    =     0.00 Bohr mag/cell

     iteration #  4     ecut=    35.00 Ry     beta= 0.40
     Davidson diagonalization with overlap
     ethr =  1.03E-06,  avg # of iterations =  1.0

     negative rho (up, down):  2.533E-01 2.533E-01

     total cpu time spent up to now is      566.3 secs

     total energy              =   -1540.61888141 Ry
     estimated scf accuracy    <       0.00066895 Ry

     total magnetization       =    -0.00 Bohr mag/cell
     absolute magnetization    =     0.00 Bohr mag/cell

     iteration #  5     ecut=    35.00 Ry     beta= 0.40
     Davidson diagonalization with overlap
     ethr =  4.96E-07,  avg # of iterations =  1.0

     negative rho (up, down):  2.533E-01 2.533E-01

     total cpu time spent up to now is      576.8 secs

     total energy              =   -1540.61888945 Ry
     estimated scf accuracy    <       0.00000916 Ry

     total magnetization       =    -0.00 Bohr mag/cell
     absolute magnetization    =     0.00 Bohr mag/cell

     iteration #  6     ecut=    35.00 Ry     beta= 0.40
     Davidson diagonalization with overlap
     ethr =  6.79E-09,  avg # of iterations =  1.7

     negative rho (up, down):  2.533E-01 2.533E-01

     total cpu time spent up to now is      587.9 secs

     total energy              =   -1540.61888984 Ry
     estimated scf accuracy    <       0.00000111 Ry

     total magnetization       =    -0.00 Bohr mag/cell
     absolute magnetization    =     0.00 Bohr mag/cell

     iteration #  7     ecut=    35.00 Ry     beta= 0.40
     Davidson diagonalization with overlap
     ethr =  8.23E-10,  avg # of iterations =  2.0

     negative rho (up, down):  2.533E-01 2.533E-01

     total cpu time spent up to now is      599.3 secs

     total energy              =   -1540.61888987 Ry
     estimated scf accuracy    <       0.00000118 Ry

     total magnetization       =    -0.00 Bohr mag/cell
     absolute magnetization    =     0.00 Bohr mag/cell

     iteration #  8     ecut=    35.00 Ry     beta= 0.40
     Davidson diagonalization with overlap
     ethr =  8.23E-10,  avg # of iterations =  1.0

     negative rho (up, down):  2.533E-01 2.533E-01

     total cpu time spent up to now is      609.7 secs

     total energy              =   -1540.61888992 Ry
     estimated scf accuracy    <       0.00000113 Ry

     total magnetization       =    -0.00 Bohr mag/cell
     absolute magnetization    =     0.00 Bohr mag/cell

     iteration #  9     ecut=    35.00 Ry     beta= 0.40
     Davidson diagonalization with overlap
     ethr =  8.23E-10,  avg # of iterations =  1.0

     negative rho (up, down):  2.533E-01 2.533E-01

     total cpu time spent up to now is      620.2 secs

     total energy              =   -1540.61888998 Ry
     estimated scf accuracy    <       0.00000073 Ry

     total magnetization       =    -0.00 Bohr mag/cell
     absolute magnetization    =     0.00 Bohr mag/cell

     iteration # 10     ecut=    35.00 Ry     beta= 0.40
     Davidson diagonalization with overlap
     ethr =  5.41E-10,  avg # of iterations =  1.0

     negative rho (up, down):  2.533E-01 2.533E-01
 
     Magnetic moment per site:
     atom:    1    charge:   13.1080    magn:    0.0000    constr:    0.0000
     atom:    2    charge:   13.1630    magn:    0.0000    constr:    0.0000
     atom:    3    charge:   13.1587    magn:    0.0000    constr:    0.0000
     atom:    4    charge:   13.1567    magn:    0.0000    constr:    0.0000
     atom:    5    charge:   13.1599    magn:    0.0000    constr:    0.0000
     atom:    6    charge:   13.1569    magn:    0.0000    constr:    0.0000
     atom:    7    charge:   13.1581    magn:    0.0000    constr:    0.0000
     atom:    8    charge:   13.1636    magn:   -0.0000    constr:    0.0000
     atom:    9    charge:   13.1083    magn:   -0.0000    constr:    0.0000

     total cpu time spent up to now is      630.5 secs

     End of self-consistent calculation

 ------ SPIN UP ------------


          k = 0.0556 0.0962 0.0000 (  4451 PWs)   bands (ev):

   -34.7840 -34.7554 -34.6654 -34.5401 -34.4242 -34.3265 -34.3089 -34.2880
   -34.2822 -34.2820 -34.2642 -34.2519 -34.2326 -34.2306 -34.2223 -34.2110
   -34.1953 -34.1939 -34.1709 -34.1704 -34.1581 -33.9181 -33.9177 -33.8869
   -33.8867 -33.8552 -33.8552   4.8377   5.1331   5.6070   6.1700   6.5467
     6.6106   6.6338   6.9083   6.9315   8.7062   8.7449   8.9058   8.9796
     9.0032   9.0754   9.1589   9.2520   9.3489   9.4302   9.4456   9.4873
     9.4886   9.5340   9.5538   9.5838   9.6242   9.6743   9.7301   9.7834
     9.7930   9.8480  10.0433  10.0551  10.2515  10.8192  10.8818  10.8854
    11.0500  11.0917  11.2479  11.3082  11.3820  11.4510  11.5552  11.6354
    11.8087  11.9443  12.2431  12.3670  12.5604  12.6796  12.9327  13.6454
    14.3433  14.7286

          k = 0.0556 0.2245 0.0000 (  4420 PWs)   bands (ev):

   -34.7312 -34.7146 -34.6448 -34.5604 -34.4979 -34.4551 -34.4192 -34.3884
   -34.3699 -34.3637 -34.3299 -34.3156 -34.3139 -34.2916 -34.2720 -34.2519
   -34.2421 -34.2317 -34.2076 -34.1912 -34.1790 -34.0132 -34.0129 -33.9064
   -33.9062 -33.8882 -33.8880   5.7614   6.0004   6.3898   6.8634   7.1417
     7.1842   7.3514   7.5664   7.6429   8.0228   8.2466   8.3936   8.4107
     8.5205   8.5890   8.7110   8.7640   9.1341   9.3172   9.4044   9.4935
     9.5704   9.6694   9.6914   9.7185   9.8122   9.8421   9.9914  10.1183
    10.1617  10.2333  10.3715  10.4489  10.5331  10.5683  10.6269  10.7250
    10.8366  10.9235  11.0538  11.1475  11.4559  11.5679  11.6013  11.7782
    12.0113  12.1869  12.5258  12.5433  12.6986  13.2604  14.1776  15.1891
    16.1227  16.8201

          k = 0.0556 0.3528 0.0000 (  4467 PWs)   bands (ev):

   -34.6953 -34.6853 -34.6599 -34.6580 -34.6196 -34.6124 -34.5686 -34.5340
   -34.5121 -34.4512 -34.3880 -34.3693 -34.3673 -34.3309 -34.3271 -34.3009
   -34.2860 -34.2660 -34.2479 -34.2245 -34.2104 -34.1656 -34.1652 -33.9320
   -33.9319 -33.8978 -33.8977   6.5640   6.7482   6.8764   6.9269   6.9558
     7.1244   7.2038   7.3485   7.4346   7.6507   7.7547   7.9347   8.0632
     8.4319   8.7032   8.8586   9.0564   9.1959   9.3507   9.4636   9.5389
     9.5602   9.5858   9.7814   9.8523  10.1233  10.1764  10.4094  10.5511
    10.5923  10.7144  10.8799  11.0906  11.2634  11.3549  11.4172  11.5103
    11.6944  11.7422  11.7953  11.9533  12.0965  12.1602  12.2920  12.3372
    12.3944  12.4284  12.6226  12.7918  13.2349  14.3075  15.4968  16.7211
    17.8806  18.8765

          k = 0.0556 0.4811 0.0000 (  4463 PWs)   bands (ev):

   -34.7856 -34.7803 -34.7504 -34.7394 -34.7185 -34.6951 -34.6690 -34.5483
   -34.5341 -34.4512 -34.4131 -34.4084 -34.3928 -34.3709 -34.3611 -34.3365
   -34.3251 -34.2954 -34.2824 -34.2667 -34.2615 -34.2486 -34.2378 -33.9649
   -33.9647 -33.8916 -33.8912   6.3899   6.4968   6.5435   6.6921   6.7250
     6.7938   6.8829   7.0154   7.1074   7.2184   7.4454   7.4881   7.7519
     8.2485   8.5938   8.9213   9.1033   9.2638   9.3221   9.5275   9.5506
     9.7356   9.9189  10.2413  10.2875  10.4609  10.8866  10.9756  11.1060
    11.5381  11.6219  11.9073  11.9751  12.0906  12.3178  12.3890  12.4334
    12.4657  12.5097  12.5474  12.6243  12.6739  12.8019  12.8966  13.0246
    13.3763  13.7979  14.1861  14.3173  14.6243  15.4815  16.5911  17.7278
    18.7588  20.2431

          k = 0.0556-0.5453 0.0000 (  4486 PWs)   bands (ev):

   -34.8140 -34.8081 -34.7769 -34.7570 -34.7477 -34.7149 -34.7017 -34.5364
   -34.5327 -34.4322 -34.4206 -34.4145 -34.3962 -34.3893 -34.3722 -34.3432
   -34.3375 -34.3032 -34.2975 -34.2840 -34.2752 -34.2524 -34.2482 -33.9726
   -33.9723 -33.8904 -33.8901   6.2689   6.4424   6.4470   6.6107   6.6528
     6.7095   6.7882   6.9651   7.0214   7.1290   7.3679   7.3875   7.6781
     8.2075   8.5794   8.8409   9.0339   9.1939   9.2771   9.4803   9.7002
     9.8060   9.9103  10.4167  10.4433  10.4637  11.0349  11.1730  11.2634
    11.6690  11.8868  12.1303  12.2181  12.3596  12.4432  12.5801  12.6498
    12.6916  12.7347  12.7763  12.8216  12.8524  12.9499  13.0465  13.1286
    13.9774  14.5801  15.2365  15.6968  15.7469  15.9155  16.4496  17.0212
    17.4131  20.0416

          k = 0.0556-0.4170 0.0000 (  4465 PWs)   bands (ev):

   -34.7341 -34.7312 -34.7103 -34.7045 -34.6727 -34.6538 -34.6124 -34.5721
   -34.5343 -34.4593 -34.4008 -34.3922 -34.3856 -34.3513 -34.3460 -34.3217
   -34.3068 -34.2817 -34.2658 -34.2397 -34.2332 -34.2239 -34.2186 -33.9511
   -33.9509 -33.8942 -33.8939   6.5676   6.6094   6.7245   6.7690   6.9051
     6.9437   7.0415   7.1025   7.2488   7.3994   7.5710   7.6875   7.8827
     8.3365   8.6318   8.9891   9.2484   9.2889   9.3756   9.4159   9.5555
     9.6294   9.7759  10.0230  10.0608  10.3045  10.5072  10.6277  10.9695
    11.0712  11.2676  11.3983  11.4941  11.7745  11.8684  11.9467  12.0161
    12.0819  12.1579  12.2515  12.3302  12.4770  12.5203  12.6609  12.7420
    12.8836  12.9836  13.1018  13.1675  13.8016  14.8963  16.1358  17.4106
    18.6517  19.7699

          k = 0.0556-0.2887 0.0000 (  4439 PWs)   bands (ev):

   -34.7015 -34.6921 -34.6404 -34.5995 -34.5683 -34.5366 -34.4952 -34.4605
   -34.4456 -34.4189 -34.3679 -34.3421 -34.3420 -34.3141 -34.2994 -34.2756
   -34.2635 -34.2498 -34.2279 -34.2072 -34.1931 -34.0915 -34.0913 -33.9100
   -33.9100 -33.9017 -33.9014   6.2887   6.4676   6.7326   7.0114   7.1256
     7.2597   7.4900   7.5569   7.7768   7.8155   8.0381   8.0734   8.2721
     8.4356   8.4872   8.6884   8.9012   8.9222   9.2175   9.4509   9.5532
     9.6077   9.6560   9.7001   9.8082   9.8490   9.9851  10.0451  10.1748
    10.3138  10.5701  10.5830  10.6445  10.7762  10.9188  10.9462  11.1169
    11.1689  11.2177  11.4302  11.5222  11.6258  11.8204  11.8532  11.9292
    12.1449  12.2659  12.5649  12.7338  12.8466  13.7649  14.8366  15.9664
    17.0187  17.8791

          k = 0.0556-0.1604 0.0000 (  4443 PWs)   bands (ev):

   -34.7617 -34.7377 -34.6554 -34.5448 -34.4490 -34.3819 -34.3559 -34.3247
   -34.3160 -34.3081 -34.2948 -34.2866 -34.2699 -34.2609 -34.2476 -34.2301
   -34.2232 -34.2108 -34.1878 -34.1784 -34.1679 -33.9441 -33.9439 -33.9101
   -33.9100 -33.8693 -33.8691   5.2345   5.5129   5.9637   6.5091   6.8624
     6.9071   6.9610   7.2256   7.2563   8.3966   8.5146   8.6494   8.7284
     8.7932   8.8328   8.8925   9.0178   9.2676   9.3339   9.5023   9.5693
     9.5941   9.6185   9.6915   9.7267   9.7563   9.7925   9.8194   9.8530
     9.9412  10.0160  10.1030  10.2268  10.3268  10.3400  10.7137  10.7801
    10.8584  10.9596  10.9653  11.1418  11.3547  11.4291  11.5365  11.7348
    11.8205  12.2082  12.2311  12.5346  12.6632  12.8033  13.5299  14.4023
    15.2127  15.7428

          k = 0.0556-0.0321 0.0000 (  4465 PWs)   bands (ev):

   -34.7960 -34.7651 -34.6715 -34.5397 -34.4161 -34.2979 -34.2824 -34.2746
   -34.2727 -34.2722 -34.2400 -34.2300 -34.2215 -34.2115 -34.2040 -34.1951
   -34.1886 -34.1680 -34.1680 -34.1621 -34.1507 -33.9197 -33.9195 -33.8591
   -33.8589 -33.8479 -33.8477   4.6279   4.9294   5.4106   5.9773   6.3659
     6.4328   6.4604   6.7267   6.7468   8.8777   8.9257   9.0819   9.1227
     9.1409   9.2045   9.2794   9.2849   9.3323   9.3447   9.3456   9.3540
     9.4377   9.4714   9.5114   9.5521   9.5812   9.5955   9.6301   9.7466
     9.8195   9.9041   9.9090   9.9545  10.6123  11.0153  11.0160  11.1577
    11.1642  11.2717  11.2934  11.3466  11.3929  11.4773  11.6241  11.7625
    11.9703  11.9722  12.0911  12.3419  12.4225  12.6000  12.7303  13.0391
    13.6714  13.9573

          k = 0.1667 0.2887 0.0000 (  4425 PWs)   bands (ev):

   -34.6797 -34.6796 -34.6413 -34.6177 -34.5943 -34.5712 -34.5357 -34.4953
   -34.4837 -34.4474 -34.3890 -34.3718 -34.3671 -34.3274 -34.3123 -34.3013
   -34.2837 -34.2645 -34.2639 -34.2515 -34.1964 -34.1229 -34.1227 -33.9430
   -33.9428 -33.8980 -33.8980   6.7795   6.8554   7.0124   7.2397   7.5049
     7.7266   7.7403   7.7630   7.8544   7.8566   7.9708   7.9804   8.0718
     8.2139   8.3251   8.4188   8.8361   8.8799   8.9304   9.0168   9.1927
     9.3252   9.3549   9.3758   9.4641   9.5259  10.0721  10.0790  10.2291
    10.3126  10.4651  10.5205  10.9176  10.9335  11.0049  11.2021  11.4089
    11.5070  11.6589  11.8058  12.0233  12.1176  12.2067  12.3569  12.3620
    12.4109  12.4750  12.5607  12.5901  13.3386  14.3153  15.3954  16.5402
    17.6378  18.5926

          k = 0.1667 0.4170 0.0000 (  4459 PWs)   bands (ev):

   -34.7193 -34.7156 -34.6938 -34.6850 -34.6597 -34.6452 -34.6142 -34.5796
   -34.5371 -34.4711 -34.4443 -34.4427 -34.4056 -34.3739 -34.3659 -34.3597
   -34.3365 -34.3285 -34.2995 -34.2770 -34.2301 -34.2167 -34.2158 -34.0050
   -34.0048 -33.8913 -33.8909   6.9415   7.0013   7.0807   7.1804   7.2658
     7.3429   7.4806   7.4891   7.5704   7.7257   7.7983   8.0397   8.1274
     8.3369   8.4441   8.6453   8.8425   8.8924   9.0434   9.1500   9.2443
     9.4595   9.5734   9.7978   9.8791   9.9988  10.0657  10.2228  10.3694
    10.4896  10.7852  11.0102  11.1096  11.1663  11.3294  11.3993  11.6863
    11.7573  12.0454  12.5159  12.6021  12.7271  12.7945  12.8499  13.0033
    14.0077  14.1395  14.2269  14.4716  15.0404  15.9365  17.0210  18.1864
    19.3474  20.4157

          k = 0.1667 0.5453 0.0000 (  4490 PWs)   bands (ev):

   -34.7765 -34.7715 -34.7386 -34.7209 -34.7113 -34.6825 -34.6703 -34.5384
   -34.5317 -34.4899 -34.4837 -34.4621 -34.4438 -34.4185 -34.3898 -34.3770
   -34.3632 -34.3382 -34.3226 -34.2874 -34.2627 -34.2613 -34.2582 -34.0386
   -34.0385 -33.8874 -33.8873   6.6294   6.8236   6.9169   7.0686   7.1019
     7.1368   7.2103   7.4053   7.4856   7.5302   7.7808   7.8810   7.9968
     8.2337   8.3262   8.5344   8.6836   8.9853   9.2498   9.3405   9.5116
     9.7223   9.8140   9.8676  10.1593  10.2286  10.3032  10.6581  10.7574
    11.0862  11.1101  11.2143  11.4827  11.7703  11.9311  12.0386  12.1438
    12.2202  12.3631  12.5075  12.5681  12.6407  12.7952  12.9129  13.0060
    15.8385  16.1468  16.5001  16.8083  17.1260  17.5235  17.9402  18.2383
    18.3962  20.3456

          k = 0.1667-0.4811 0.0000 (  4476 PWs)   bands (ev):

   -34.7561 -34.7510 -34.7221 -34.7078 -34.6943 -34.6680 -34.6514 -34.5548
   -34.5354 -34.4760 -34.4692 -34.4655 -34.4242 -34.4007 -34.3806 -34.3794
   -34.3516 -34.3379 -34.3117 -34.2854 -34.2503 -34.2462 -34.2428 -34.0269
   -34.0268 -33.8887 -33.8886   6.7405   6.9115   6.9480   7.1328   7.1609
     7.1759   7.3205   7.4481   7.5100   7.6053   7.7924   7.9427   8.0464
     8.2423   8.4070   8.6399   8.7808   8.8579   9.1985   9.2501   9.5402
     9.6202   9.7444   9.9007   9.9904  10.0384  10.2839  10.4999  10.6672
    10.8460  10.8931  11.0595  11.3797  11.5940  11.6655  11.7324  11.8428
    11.8916  12.1737  12.5450  12.6621  12.7578  12.8542  12.9652  13.0995
    14.9650  15.1650  15.3735  15.6562  16.1558  16.9036  17.8254  18.7916
    19.6339  20.5944

          k = 0.1667-0.3528 0.0000 (  4458 PWs)   bands (ev):

   -34.6832 -34.6822 -34.6576 -34.6557 -34.6235 -34.6196 -34.5883 -34.5609
   -34.5219 -34.4666 -34.4120 -34.4082 -34.3921 -34.3508 -34.3350 -34.3301
   -34.3147 -34.3054 -34.2841 -34.2649 -34.2120 -34.1747 -34.1745 -33.9756
   -33.9754 -33.8947 -33.8947   7.0332   7.1231   7.1786   7.2509   7.3674
     7.4519   7.5489   7.6254   7.6829   7.7956   7.9668   8.0952   8.1849
     8.2694   8.4130   8.5850   8.6934   8.8056   8.9783   9.1466   9.2274
     9.2658   9.3268   9.5263   9.6720   9.7303   9.9904  10.0039  10.1963
    10.4734  10.5940  10.7092  10.8873  11.0925  11.1532  11.2951  11.5758
    11.6398  11.8938  12.3104  12.3669  12.4943  12.5372  12.6059  12.7772
    13.1125  13.1870  13.2417  13.3984  14.0440  15.0318  16.1531  17.3348
    18.4867  19.5278

          k = 0.1667-0.2245 0.0000 (  4433 PWs)   bands (ev):

   -34.7053 -34.6961 -34.6405 -34.5838 -34.5440 -34.5121 -34.4733 -34.4363
   -34.4260 -34.4110 -34.3666 -34.3394 -34.3373 -34.3123 -34.2899 -34.2728
   -34.2563 -34.2470 -34.2344 -34.2212 -34.1857 -34.0669 -34.0668 -33.9129
   -33.9128 -33.9021 -33.9020   6.2401   6.4256   6.7335   7.1220   7.4196
     7.4730   7.6157   7.7270   7.8483   7.9460   8.0745   8.1529   8.1848
     8.2960   8.4256   8.5833   8.6351   8.8723   9.1324   9.1863   9.2775
     9.4015   9.4613   9.5697   9.6638   9.6949   9.8947  10.0198  10.1835
    10.4123  10.4228  10.5276  10.6282  10.7169  10.8794  10.8996  11.0301
    11.1669  11.2087  11.4681  11.5230  11.5795  11.8607  11.8997  11.9058
    12.0698  12.2203  12.4136  12.5660  12.8881  13.7496  14.7442  15.8229
    16.8411  17.6711

          k = 0.1667-0.0962 0.0000 (  4427 PWs)   bands (ev):

   -34.7518 -34.7299 -34.6512 -34.5488 -34.4649 -34.4092 -34.3798 -34.3468
   -34.3363 -34.3190 -34.3032 -34.3028 -34.2877 -34.2652 -34.2624 -34.2397
   -34.2311 -34.2202 -34.1904 -34.1812 -34.1701 -33.9695 -33.9693 -33.9092
   -33.9089 -33.8739 -33.8738   5.4149   5.6813   6.1130   6.6341   6.9653
     6.9698   7.1132   7.3507   7.3982   8.2087   8.4344   8.5610   8.6223
     8.6961   8.7499   8.8529   8.8987   9.3345   9.3781   9.4886   9.6016
     9.6200   9.6419   9.7292   9.7575   9.8403   9.8628   9.9234   9.9926
    10.0081  10.0543  10.0582  10.2295  10.3314  10.4380  10.5481  10.7146
    10.7409  10.9085  11.0095  11.1565  11.2697  11.4980  11.5192  11.7035
    12.0092  12.0920  12.3754  12.6434  12.7846  12.8475  13.7299  14.6847
    15.5463  16.1366

          k = 0.2778 0.4811 0.0000 (  4485 PWs)   bands (ev):

   -34.7189 -34.7184 -34.6908 -34.6884 -34.6569 -34.6536 -34.6146 -34.5988
   -34.5733 -34.5371 -34.5102 -34.5101 -34.4698 -34.4509 -34.4299 -34.4208
   -34.3650 -34.3441 -34.3273 -34.2984 -34.2669 -34.2256 -34.2255 -34.0976
   -34.0974 -33.8862 -33.8861   7.1670   7.1815   7.2935   7.3422   7.4238
     7.5848   7.7682   7.8668   7.9388   7.9689   8.0660   8.0829   8.1708
     8.2119   8.3551   8.4019   8.6762   8.7750   8.9169   9.0486   9.2084
     9.3675   9.5613   9.6545   9.8847   9.8917  10.1036  10.1062  10.5771
    10.6576  10.7324  10.8514  11.0857  11.1208  11.3016  11.3268  11.6398
    11.8945  12.2198  12.5069  12.6828  12.7005  12.7015  12.8393  12.9957
    16.3304  16.4553  16.7227  17.1463  17.7302  18.4813  19.3580  20.2459
    20.7041  20.7890

          k = 0.2778 0.6094 0.0000 (  4491 PWs)   bands (ev):

   -34.7123 -34.7075 -34.6792 -34.6741 -34.6519 -34.6440 -34.6310 -34.6044
   -34.5829 -34.5620 -34.5379 -34.5283 -34.5090 -34.4774 -34.4437 -34.4337
   -34.3532 -34.3435 -34.3261 -34.3031 -34.2865 -34.2179 -34.2176 -34.1294
   -34.1292 -33.8849 -33.8847   7.1328   7.2999   7.3922   7.5183   7.5405
     7.6380   7.7328   7.8526   7.8950   7.9339   7.9996   8.0729   8.1808
     8.2230   8.3192   8.4644   8.5498   8.9002   8.9427   9.1730   9.2604
     9.3767   9.4492   9.6440   9.8113   9.8597  10.1539  10.1638  10.5485
    10.6608  10.8340  10.9580  11.0520  11.1726  11.3297  11.3792  11.9587
    12.1089  12.2908  12.3774  12.4924  12.5415  12.5911  12.6470  12.7728
    17.5303  17.7076  18.0117  18.3887  18.7327  19.0382  19.4021  19.8076
    20.2273  20.3456

          k = 0.2778-0.4170 0.0000 (  4462 PWs)   bands (ev):

   -34.7253 -34.7221 -34.6983 -34.6860 -34.6679 -34.6506 -34.6270 -34.5801
   -34.5486 -34.4959 -34.4824 -34.4810 -34.4357 -34.4092 -34.3999 -34.3842
   -34.3662 -34.3438 -34.3235 -34.2867 -34.2463 -34.2265 -34.2264 -34.0524
   -34.0521 -33.8882 -33.8879   7.0214   7.1524   7.1742   7.3018   7.3607
     7.4810   7.5860   7.6751   7.7478   7.8684   8.0808   8.0908   8.1808
     8.3082   8.5227   8.5264   8.5768   8.7297   8.9405   9.0072   9.2462
     9.3801   9.5386   9.7611   9.9104   9.9417  10.1230  10.1559  10.3325
    10.5110  10.7645  10.9085  11.0749  11.1838  11.3193  11.3718  11.5416
    11.7101  12.1313  12.5459  12.7553  12.7877  12.8514  12.9433  13.1013
    15.1635  15.2451  15.4235  15.7728  16.3464  17.1604  18.1495  19.2183
    20.2734  21.1693

          k = 0.2778-0.2887 0.0000 (  4463 PWs)   bands (ev):

   -34.7017 -34.7010 -34.6813 -34.6784 -34.6417 -34.6300 -34.5883 -34.5758
   -34.5289 -34.4613 -34.4071 -34.4017 -34.3881 -34.3509 -34.3372 -34.3290
   -34.3176 -34.2857 -34.2700 -34.2572 -34.2181 -34.1959 -34.1953 -33.9632
   -33.9630 -33.8944 -33.8942   6.7791   6.9099   6.9662   7.0067   7.1570
     7.1887   7.2533   7.3574   7.4648   7.6106   7.7682   7.9872   8.0287
     8.3362   8.5240   8.8410   8.9098   9.1433   9.1924   9.3030   9.3885
     9.5125   9.6380   9.7257   9.8339  10.0620  10.1601  10.3401  10.5197
    10.5323  10.7485  10.9815  11.1712  11.2465  11.2833  11.4620  11.7686
    11.7906  12.0746  12.2377  12.3677  12.4358  12.5394  12.6314  12.8049
    12.9536  13.1458  13.1743  13.3118  13.9484  14.9663  16.1322  17.3540
    18.5425  19.6028

          k = 0.2778-0.1604 0.0000 (  4458 PWs)   bands (ev):

   -34.6968 -34.6858 -34.6420 -34.6277 -34.6017 -34.5742 -34.5303 -34.4928
   -34.4814 -34.4352 -34.3772 -34.3504 -34.3497 -34.3232 -34.3110 -34.2831
   -34.2680 -34.2593 -34.2263 -34.2091 -34.2029 -34.1283 -34.1279 -33.9146
   -33.9145 -33.9003 -33.9001   6.3957   6.5728   6.7838   6.9033   6.9613
     7.1370   7.3428   7.3966   7.5604   7.7084   7.8634   7.9513   8.1829
     8.4919   8.7220   8.8516   9.0384   9.1884   9.3379   9.4828   9.5623
     9.6207   9.6645   9.7773   9.9002  10.0641  10.1557  10.3315  10.4371
    10.4492  10.6130  10.6905  10.8671  11.0591  11.1199  11.2248  11.2532
    11.3039  11.4132  11.4418  11.6008  11.7248  11.8400  11.9561  11.9598
    12.0944  12.4101  12.6933  12.8451  12.8551  13.9145  15.0751  16.2638
    17.3698  18.2893

          k = 0.3889 0.6736 0.0000 (  4511 PWs)   bands (ev):

   -34.7482 -34.7429 -34.7090 -34.6952 -34.6821 -34.6622 -34.6485 -34.5624
   -34.5583 -34.5217 -34.5203 -34.4989 -34.4848 -34.4518 -34.4268 -34.4035
   -34.3546 -34.3538 -34.3298 -34.2938 -34.2750 -34.2431 -34.2431 -34.0879
   -34.0878 -33.8860 -33.8858   6.8556   7.0443   7.2434   7.3540   7.3703
     7.4463   7.5555   7.6178   7.7081   7.7829   7.9735   8.0015   8.1725
     8.3119   8.3569   8.4110   8.5074   8.7404   9.0196   9.1898   9.4466
     9.5897   9.6885   9.8321   9.8943  10.1390  10.2388  10.3681  10.6009
    10.6500  10.7013  11.0232  11.2756  11.4695  11.6184  11.7188  12.1378
    12.1960  12.2769  12.3687  12.5211  12.5300  12.7089  12.7880  12.8185
    17.0495  17.2578  17.5065  17.7410  17.9805  18.2562  18.5853  18.8990
    19.1526  20.4833

          k = 0.3889-0.3528 0.0000 (  4485 PWs)   bands (ev):

   -34.7898 -34.7843 -34.7530 -34.7367 -34.7241 -34.6952 -34.6791 -34.5395
   -34.5309 -34.4547 -34.4460 -34.4360 -34.4060 -34.3829 -34.3795 -34.3609
   -34.3490 -34.3109 -34.3014 -34.2797 -34.2678 -34.2636 -34.2463 -33.9958
   -33.9957 -33.8896 -33.8895   6.4692   6.6483   6.6542   6.8123   6.8569
     6.9246   6.9772   7.1768   7.2665   7.2828   7.5826   7.6372   7.7987
     8.2094   8.4768   8.7475   8.9325   9.2143   9.3262   9.4613   9.5121
     9.6459   9.8758  10.0867  10.2074  10.4633  10.6682  10.7931  11.0529
    11.2767  11.5497  11.5938  11.7042  11.9957  12.1827  12.2311  12.2681
    12.2959  12.3823  12.5777  12.6400  12.7410  12.8352  12.9798  13.1031
    14.5659  14.9361  15.3205  15.5617  15.8482  16.4256  17.2035  17.9699
    18.5296  20.2822

          k = 0.3889-0.2245 0.0000 (  4444 PWs)   bands (ev):

   -34.7654 -34.7604 -34.7335 -34.7277 -34.6997 -34.6800 -34.6443 -34.5593
   -34.5355 -34.4561 -34.3983 -34.3912 -34.3900 -34.3584 -34.3521 -34.3203
   -34.3059 -34.2932 -34.2581 -34.2575 -34.2480 -34.2339 -34.2327 -33.9500
   -33.9497 -33.8932 -33.8926   6.4278   6.4674   6.5612   6.6684   6.7563
     6.7953   6.9173   6.9777   7.1069   7.2670   7.4363   7.5007   7.7943
     8.3055   8.6621   9.0126   9.1985   9.2722   9.3701   9.5531   9.5642
     9.7295   9.8963  10.1572  10.3321  10.3994  10.8193  10.9385  11.1240
    11.4750  11.6087  11.9363  11.9550  12.1830  12.2285  12.2936  12.3232
    12.3843  12.4086  12.4898  12.5249  12.5971  12.6591  12.7545  12.8614
    12.8855  12.9629  13.2505  13.2898  13.8451  14.9853  16.2521  17.5312
    18.7741  20.0212

          k =-0.5000-0.8660 0.0000 (  4492 PWs)   bands (ev):

   -34.8219 -34.8173 -34.7861 -34.7636 -34.7581 -34.7208 -34.7106 -34.5364
   -34.5342 -34.4181 -34.4082 -34.4064 -34.3994 -34.3967 -34.3686 -34.3348
   -34.3325 -34.3066 -34.2979 -34.2863 -34.2710 -34.2509 -34.2446 -33.9640
   -33.9640 -33.8909 -33.8906   6.1941   6.3659   6.3757   6.5468   6.5786
     6.6284   6.7310   6.8880   6.9328   7.0789   7.2837   7.3013   7.6415
     8.1989   8.6172   8.8771   9.0611   9.1434   9.2615   9.4533   9.8163
     9.9070   9.9510  10.3514  10.5831  10.6259  10.9375  11.4468  11.4771
    11.5463  12.1148  12.3192  12.3577  12.4936  12.6750  12.7647  12.7701
    12.8085  12.8642  12.9172  12.9398  12.9892  13.0872  13.2343  13.2393
    13.4661  14.3489  15.1708  15.6659  15.8457  16.1037  16.2902  16.4348
    16.4941  19.9523

 ------ SPIN DOWN ----------


          k = 0.0556 0.0962 0.0000 (  4451 PWs)   bands (ev):

   -34.7840 -34.7554 -34.6654 -34.5401 -34.4242 -34.3265 -34.3089 -34.2880
   -34.2822 -34.2820 -34.2642 -34.2519 -34.2326 -34.2306 -34.2223 -34.2110
   -34.1953 -34.1939 -34.1709 -34.1704 -34.1581 -33.9181 -33.9177 -33.8869
   -33.8867 -33.8552 -33.8552   4.8377   5.1331   5.6070   6.1700   6.5467
     6.6106   6.6338   6.9083   6.9315   8.7062   8.7449   8.9058   8.9796
     9.0032   9.0754   9.1589   9.2520   9.3489   9.4302   9.4456   9.4873
     9.4886   9.5340   9.5538   9.5838   9.6242   9.6743   9.7301   9.7834
     9.7930   9.8480  10.0433  10.0551  10.2515  10.8192  10.8818  10.8854
    11.0500  11.0917  11.2479  11.3082  11.3820  11.4510  11.5552  11.6354
    11.8087  11.9443  12.2431  12.3670  12.5604  12.6796  12.9327  13.6454
    14.3433  14.7286

          k = 0.0556 0.2245 0.0000 (  4420 PWs)   bands (ev):

   -34.7312 -34.7146 -34.6448 -34.5604 -34.4979 -34.4551 -34.4192 -34.3884
   -34.3699 -34.3637 -34.3299 -34.3156 -34.3139 -34.2916 -34.2720 -34.2519
   -34.2421 -34.2317 -34.2076 -34.1912 -34.1790 -34.0132 -34.0129 -33.9064
   -33.9062 -33.8882 -33.8880   5.7614   6.0004   6.3898   6.8634   7.1417
     7.1842   7.3514   7.5664   7.6429   8.0228   8.2466   8.3936   8.4107
     8.5205   8.5890   8.7110   8.7640   9.1341   9.3172   9.4044   9.4935
     9.5704   9.6694   9.6914   9.7185   9.8122   9.8421   9.9914  10.1183
    10.1617  10.2333  10.3715  10.4489  10.5331  10.5683  10.6269  10.7250
    10.8366  10.9235  11.0538  11.1475  11.4559  11.5679  11.6013  11.7782
    12.0113  12.1869  12.5258  12.5433  12.6986  13.2604  14.1776  15.1891
    16.1227  16.8201

          k = 0.0556 0.3528 0.0000 (  4467 PWs)   bands (ev):

   -34.6953 -34.6853 -34.6599 -34.6580 -34.6196 -34.6124 -34.5686 -34.5340
   -34.5121 -34.4512 -34.3880 -34.3693 -34.3673 -34.3309 -34.3271 -34.3009
   -34.2860 -34.2660 -34.2479 -34.2245 -34.2104 -34.1656 -34.1652 -33.9320
   -33.9319 -33.8978 -33.8977   6.5640   6.7482   6.8764   6.9269   6.9558
     7.1244   7.2038   7.3485   7.4346   7.6507   7.7547   7.9347   8.0632
     8.4319   8.7032   8.8586   9.0564   9.1959   9.3507   9.4636   9.5389
     9.5602   9.5858   9.7814   9.8523  10.1233  10.1764  10.4094  10.5511
    10.5923  10.7144  10.8799  11.0906  11.2634  11.3549  11.4172  11.5103
    11.6944  11.7422  11.7953  11.9533  12.0965  12.1602  12.2920  12.3372
    12.3944  12.4284  12.6226  12.7918  13.2349  14.3075  15.4968  16.7211
    17.8806  18.8765

          k = 0.0556 0.4811 0.0000 (  4463 PWs)   bands (ev):

   -34.7856 -34.7803 -34.7504 -34.7394 -34.7185 -34.6951 -34.6690 -34.5483
   -34.5341 -34.4512 -34.4131 -34.4084 -34.3928 -34.3709 -34.3611 -34.3365
   -34.3251 -34.2954 -34.2824 -34.2667 -34.2615 -34.2486 -34.2378 -33.9649
   -33.9647 -33.8916 -33.8912   6.3899   6.4968   6.5435   6.6921   6.7250
     6.7938   6.8829   7.0154   7.1074   7.2184   7.4454   7.4881   7.7519
     8.2485   8.5938   8.9213   9.1033   9.2638   9.3221   9.5275   9.5506
     9.7356   9.9189  10.2413  10.2875  10.4609  10.8866  10.9756  11.1060
    11.5381  11.6219  11.9073  11.9751  12.0906  12.3178  12.3890  12.4334
    12.4657  12.5097  12.5474  12.6243  12.6739  12.8019  12.8966  13.0246
    13.3763  13.7979  14.1861  14.3173  14.6243  15.4815  16.5911  17.7278
    18.7588  20.2431

          k = 0.0556-0.5453 0.0000 (  4486 PWs)   bands (ev):

   -34.8140 -34.8081 -34.7769 -34.7570 -34.7477 -34.7149 -34.7017 -34.5364
   -34.5327 -34.4322 -34.4206 -34.4145 -34.3962 -34.3893 -34.3722 -34.3432
   -34.3375 -34.3032 -34.2975 -34.2840 -34.2752 -34.2524 -34.2482 -33.9726
   -33.9723 -33.8904 -33.8901   6.2689   6.4424   6.4470   6.6107   6.6528
     6.7095   6.7882   6.9651   7.0214   7.1290   7.3679   7.3875   7.6781
     8.2075   8.5794   8.8409   9.0339   9.1939   9.2771   9.4803   9.7002
     9.8060   9.9103  10.4167  10.4433  10.4637  11.0349  11.1730  11.2634
    11.6690  11.8868  12.1303  12.2181  12.3596  12.4432  12.5801  12.6498
    12.6916  12.7347  12.7763  12.8216  12.8524  12.9499  13.0465  13.1286
    13.9774  14.5801  15.2365  15.6968  15.7469  15.9155  16.4496  17.0212
    17.4131  20.0410

          k = 0.0556-0.4170 0.0000 (  4465 PWs)   bands (ev):

   -34.7341 -34.7312 -34.7103 -34.7045 -34.6727 -34.6538 -34.6124 -34.5721
   -34.5343 -34.4593 -34.4008 -34.3922 -34.3856 -34.3513 -34.3460 -34.3217
   -34.3068 -34.2817 -34.2658 -34.2397 -34.2332 -34.2239 -34.2186 -33.9511
   -33.9509 -33.8942 -33.8939   6.5676   6.6094   6.7245   6.7690   6.9051
     6.9437   7.0415   7.1025   7.2488   7.3994   7.5710   7.6875   7.8827
     8.3365   8.6318   8.9891   9.2484   9.2889   9.3756   9.4159   9.5555
     9.6294   9.7759  10.0230  10.0608  10.3045  10.5072  10.6277  10.9695
    11.0712  11.2676  11.3983  11.4941  11.7745  11.8684  11.9467  12.0161
    12.0819  12.1579  12.2515  12.3302  12.4770  12.5203  12.6609  12.7420
    12.8836  12.9836  13.1018  13.1675  13.8016  14.8963  16.1358  17.4106
    18.6517  19.7699

          k = 0.0556-0.2887 0.0000 (  4439 PWs)   bands (ev):

   -34.7015 -34.6921 -34.6404 -34.5995 -34.5683 -34.5366 -34.4952 -34.4605
   -34.4456 -34.4189 -34.3679 -34.3421 -34.3420 -34.3141 -34.2994 -34.2756
   -34.2635 -34.2498 -34.2279 -34.2072 -34.1931 -34.0915 -34.0913 -33.9100
   -33.9100 -33.9017 -33.9014   6.2887   6.4676   6.7326   7.0114   7.1256
     7.2597   7.4900   7.5569   7.7768   7.8155   8.0381   8.0734   8.2721
     8.4356   8.4872   8.6884   8.9012   8.9222   9.2175   9.4509   9.5532
     9.6077   9.6560   9.7001   9.8082   9.8490   9.9851  10.0451  10.1748
    10.3138  10.5701  10.5830  10.6445  10.7762  10.9188  10.9462  11.1169
    11.1689  11.2177  11.4302  11.5222  11.6258  11.8204  11.8532  11.9292
    12.1449  12.2659  12.5649  12.7338  12.8466  13.7649  14.8366  15.9664
    17.0187  17.8791

          k = 0.0556-0.1604 0.0000 (  4443 PWs)   bands (ev):

   -34.7617 -34.7377 -34.6554 -34.5448 -34.4490 -34.3819 -34.3559 -34.3247
   -34.3160 -34.3081 -34.2948 -34.2866 -34.2699 -34.2609 -34.2476 -34.2301
   -34.2232 -34.2108 -34.1878 -34.1784 -34.1679 -33.9441 -33.9439 -33.9101
   -33.9100 -33.8693 -33.8691   5.2345   5.5129   5.9637   6.5091   6.8624
     6.9071   6.9610   7.2256   7.2563   8.3966   8.5146   8.6494   8.7284
     8.7932   8.8328   8.8925   9.0178   9.2676   9.3339   9.5023   9.5693
     9.5941   9.6185   9.6915   9.7267   9.7563   9.7925   9.8194   9.8530
     9.9412  10.0160  10.1030  10.2268  10.3268  10.3400  10.7137  10.7801
    10.8584  10.9596  10.9653  11.1418  11.3547  11.4291  11.5365  11.7348
    11.8205  12.2082  12.2311  12.5346  12.6632  12.8033  13.5299  14.4023
    15.2127  15.7428

          k = 0.0556-0.0321 0.0000 (  4465 PWs)   bands (ev):

   -34.7960 -34.7651 -34.6715 -34.5397 -34.4161 -34.2979 -34.2824 -34.2746
   -34.2727 -34.2722 -34.2400 -34.2300 -34.2215 -34.2115 -34.2040 -34.1951
   -34.1886 -34.1680 -34.1680 -34.1621 -34.1507 -33.9197 -33.9195 -33.8591
   -33.8589 -33.8479 -33.8477   4.6279   4.9294   5.4106   5.9773   6.3659
     6.4328   6.4604   6.7267   6.7468   8.8777   8.9257   9.0819   9.1227
     9.1409   9.2045   9.2794   9.2849   9.3323   9.3447   9.3456   9.3540
     9.4377   9.4714   9.5114   9.5521   9.5812   9.5955   9.6301   9.7466
     9.8195   9.9041   9.9090   9.9545  10.6123  11.0153  11.0160  11.1577
    11.1642  11.2717  11.2934  11.3466  11.3929  11.4773  11.6241  11.7625
    11.9703  11.9722  12.0911  12.3419  12.4225  12.6000  12.7303  13.0391
    13.6714  13.9573

          k = 0.1667 0.2887 0.0000 (  4425 PWs)   bands (ev):

   -34.6797 -34.6796 -34.6413 -34.6177 -34.5943 -34.5712 -34.5357 -34.4953
   -34.4837 -34.4474 -34.3890 -34.3718 -34.3671 -34.3274 -34.3123 -34.3013
   -34.2837 -34.2645 -34.2639 -34.2515 -34.1964 -34.1229 -34.1227 -33.9430
   -33.9428 -33.8980 -33.8980   6.7795   6.8554   7.0124   7.2397   7.5049
     7.7266   7.7403   7.7630   7.8544   7.8566   7.9708   7.9804   8.0718
     8.2139   8.3251   8.4188   8.8361   8.8799   8.9304   9.0168   9.1927
     9.3252   9.3549   9.3758   9.4641   9.5259  10.0721  10.0790  10.2291
    10.3126  10.4651  10.5205  10.9176  10.9335  11.0049  11.2021  11.4089
    11.5070  11.6589  11.8058  12.0233  12.1176  12.2067  12.3569  12.3620
    12.4109  12.4750  12.5607  12.5901  13.3386  14.3153  15.3954  16.5402
    17.6378  18.5926

          k = 0.1667 0.4170 0.0000 (  4459 PWs)   bands (ev):

   -34.7193 -34.7156 -34.6938 -34.6850 -34.6597 -34.6452 -34.6142 -34.5796
   -34.5371 -34.4711 -34.4443 -34.4427 -34.4056 -34.3739 -34.3659 -34.3597
   -34.3365 -34.3285 -34.2995 -34.2770 -34.2301 -34.2167 -34.2158 -34.0050
   -34.0048 -33.8913 -33.8909   6.9415   7.0013   7.0807   7.1804   7.2658
     7.3429   7.4806   7.4891   7.5704   7.7257   7.7983   8.0397   8.1274
     8.3369   8.4441   8.6453   8.8425   8.8924   9.0434   9.1500   9.2443
     9.4595   9.5734   9.7978   9.8791   9.9988  10.0657  10.2228  10.3694
    10.4896  10.7852  11.0102  11.1096  11.1663  11.3294  11.3993  11.6863
    11.7573  12.0454  12.5159  12.6021  12.7271  12.7945  12.8499  13.0033
    14.0077  14.1395  14.2269  14.4716  15.0404  15.9365  17.0210  18.1864
    19.3474  20.4157

          k = 0.1667 0.5453 0.0000 (  4490 PWs)   bands (ev):

   -34.7765 -34.7715 -34.7386 -34.7209 -34.7113 -34.6825 -34.6703 -34.5384
   -34.5317 -34.4899 -34.4837 -34.4621 -34.4438 -34.4185 -34.3898 -34.3770
   -34.3632 -34.3382 -34.3226 -34.2874 -34.2627 -34.2613 -34.2582 -34.0386
   -34.0385 -33.8874 -33.8873   6.6294   6.8236   6.9169   7.0686   7.1019
     7.1368   7.2103   7.4053   7.4856   7.5302   7.7808   7.8810   7.9968
     8.2337   8.3262   8.5344   8.6836   8.9853   9.2498   9.3405   9.5116
     9.7223   9.8140   9.8676  10.1593  10.2286  10.3032  10.6581  10.7574
    11.0862  11.1101  11.2143  11.4827  11.7703  11.9311  12.0386  12.1438
    12.2202  12.3631  12.5075  12.5681  12.6407  12.7952  12.9129  13.0060
    15.8385  16.1468  16.5001  16.8083  17.1260  17.5235  17.9402  18.2383
    18.3962  20.3380

          k = 0.1667-0.4811 0.0000 (  4476 PWs)   bands (ev):

   -34.7561 -34.7510 -34.7221 -34.7078 -34.6943 -34.6680 -34.6514 -34.5548
   -34.5354 -34.4760 -34.4692 -34.4655 -34.4242 -34.4007 -34.3806 -34.3794
   -34.3516 -34.3379 -34.3117 -34.2854 -34.2503 -34.2462 -34.2428 -34.0269
   -34.0268 -33.8887 -33.8886   6.7405   6.9115   6.9480   7.1328   7.1609
     7.1759   7.3205   7.4481   7.5100   7.6053   7.7924   7.9427   8.0464
     8.2423   8.4070   8.6399   8.7808   8.8579   9.1985   9.2501   9.5402
     9.6202   9.7444   9.9007   9.9904  10.0384  10.2839  10.4999  10.6672
    10.8460  10.8931  11.0595  11.3797  11.5940  11.6655  11.7324  11.8428
    11.8916  12.1737  12.5450  12.6621  12.7578  12.8542  12.9652  13.0995
    14.9650  15.1650  15.3735  15.6562  16.1558  16.9036  17.8254  18.7916
    19.6339  20.5938

          k = 0.1667-0.3528 0.0000 (  4458 PWs)   bands (ev):

   -34.6832 -34.6822 -34.6576 -34.6557 -34.6235 -34.6196 -34.5883 -34.5609
   -34.5219 -34.4666 -34.4120 -34.4082 -34.3921 -34.3508 -34.3350 -34.3301
   -34.3147 -34.3054 -34.2841 -34.2649 -34.2120 -34.1747 -34.1745 -33.9756
   -33.9754 -33.8947 -33.8947   7.0332   7.1231   7.1786   7.2509   7.3674
     7.4519   7.5489   7.6254   7.6829   7.7956   7.9668   8.0952   8.1849
     8.2694   8.4130   8.5850   8.6934   8.8056   8.9783   9.1466   9.2274
     9.2658   9.3268   9.5263   9.6720   9.7303   9.9904  10.0039  10.1963
    10.4734  10.5940  10.7092  10.8873  11.0925  11.1532  11.2951  11.5758
    11.6398  11.8938  12.3104  12.3669  12.4943  12.5372  12.6059  12.7772
    13.1125  13.1870  13.2417  13.3984  14.0440  15.0318  16.1531  17.3348
    18.4867  19.5278

          k = 0.1667-0.2245 0.0000 (  4433 PWs)   bands (ev):

   -34.7053 -34.6961 -34.6405 -34.5838 -34.5440 -34.5121 -34.4733 -34.4363
   -34.4260 -34.4110 -34.3666 -34.3394 -34.3373 -34.3123 -34.2899 -34.2728
   -34.2563 -34.2470 -34.2344 -34.2212 -34.1857 -34.0669 -34.0668 -33.9129
   -33.9128 -33.9021 -33.9020   6.2401   6.4256   6.7335   7.1220   7.4196
     7.4730   7.6157   7.7270   7.8483   7.9460   8.0745   8.1529   8.1848
     8.2960   8.4256   8.5833   8.6351   8.8723   9.1324   9.1863   9.2775
     9.4015   9.4613   9.5697   9.6638   9.6949   9.8947  10.0198  10.1835
    10.4123  10.4228  10.5276  10.6282  10.7169  10.8794  10.8996  11.0301
    11.1669  11.2087  11.4681  11.5230  11.5795  11.8607  11.8997  11.9058
    12.0698  12.2203  12.4136  12.5660  12.8881  13.7496  14.7442  15.8229
    16.8411  17.6711

          k = 0.1667-0.0962 0.0000 (  4427 PWs)   bands (ev):

   -34.7518 -34.7299 -34.6512 -34.5488 -34.4649 -34.4092 -34.3798 -34.3468
   -34.3363 -34.3190 -34.3032 -34.3028 -34.2877 -34.2652 -34.2624 -34.2397
   -34.2311 -34.2202 -34.1904 -34.1812 -34.1701 -33.9695 -33.9693 -33.9092
   -33.9089 -33.8739 -33.8738   5.4149   5.6813   6.1130   6.6341   6.9653
     6.9698   7.1132   7.3507   7.3982   8.2087   8.4344   8.5610   8.6223
     8.6961   8.7499   8.8529   8.8987   9.3345   9.3781   9.4886   9.6016
     9.6200   9.6419   9.7292   9.7575   9.8403   9.8628   9.9234   9.9926
    10.0081  10.0543  10.0582  10.2295  10.3314  10.4380  10.5482  10.7146
    10.7409  10.9085  11.0095  11.1565  11.2697  11.4980  11.5192  11.7035
    12.0092  12.0920  12.3754  12.6434  12.7846  12.8475  13.7299  14.6847
    15.5463  16.1366

          k = 0.2778 0.4811 0.0000 (  4485 PWs)   bands (ev):

   -34.7189 -34.7184 -34.6908 -34.6884 -34.6569 -34.6536 -34.6146 -34.5988
   -34.5733 -34.5371 -34.5102 -34.5101 -34.4698 -34.4509 -34.4299 -34.4208
   -34.3650 -34.3441 -34.3273 -34.2984 -34.2669 -34.2256 -34.2255 -34.0976
   -34.0974 -33.8862 -33.8861   7.1670   7.1815   7.2935   7.3422   7.4238
     7.5848   7.7682   7.8668   7.9388   7.9689   8.0660   8.0829   8.1708
     8.2119   8.3551   8.4019   8.6762   8.7750   8.9169   9.0486   9.2084
     9.3675   9.5613   9.6545   9.8847   9.8917  10.1036  10.1062  10.5771
    10.6576  10.7324  10.8514  11.0857  11.1208  11.3016  11.3268  11.6398
    11.8945  12.2198  12.5069  12.6828  12.7005  12.7015  12.8393  12.9957
    16.3304  16.4553  16.7227  17.1463  17.7302  18.4813  19.3580  20.2459
    20.7041  20.7887

          k = 0.2778 0.6094 0.0000 (  4491 PWs)   bands (ev):

   -34.7123 -34.7075 -34.6792 -34.6741 -34.6519 -34.6440 -34.6310 -34.6044
   -34.5829 -34.5620 -34.5379 -34.5283 -34.5090 -34.4774 -34.4437 -34.4337
   -34.3532 -34.3435 -34.3261 -34.3031 -34.2865 -34.2179 -34.2176 -34.1294
   -34.1292 -33.8849 -33.8847   7.1328   7.2999   7.3922   7.5183   7.5405
     7.6380   7.7328   7.8526   7.8950   7.9339   7.9996   8.0729   8.1808
     8.2230   8.3192   8.4644   8.5498   8.9002   8.9427   9.1730   9.2604
     9.3767   9.4492   9.6440   9.8113   9.8597  10.1539  10.1638  10.5485
    10.6608  10.8340  10.9580  11.0520  11.1726  11.3297  11.3792  11.9587
    12.1089  12.2908  12.3774  12.4924  12.5415  12.5911  12.6470  12.7728
    17.5303  17.7076  18.0117  18.3887  18.7327  19.0382  19.4021  19.8076
    20.2273  20.3456

          k = 0.2778-0.4170 0.0000 (  4462 PWs)   bands (ev):

   -34.7253 -34.7221 -34.6983 -34.6860 -34.6679 -34.6506 -34.6270 -34.5801
   -34.5486 -34.4959 -34.4824 -34.4810 -34.4357 -34.4092 -34.3999 -34.3842
   -34.3662 -34.3438 -34.3235 -34.2867 -34.2463 -34.2265 -34.2264 -34.0524
   -34.0521 -33.8882 -33.8879   7.0214   7.1524   7.1742   7.3018   7.3607
     7.4810   7.5860   7.6751   7.7478   7.8684   8.0808   8.0908   8.1808
     8.3082   8.5227   8.5264   8.5768   8.7297   8.9405   9.0072   9.2462
     9.3801   9.5386   9.7611   9.9104   9.9417  10.1230  10.1559  10.3325
    10.5110  10.7645  10.9085  11.0749  11.1838  11.3193  11.3718  11.5416
    11.7101  12.1313  12.5459  12.7553  12.7877  12.8514  12.9433  13.1013
    15.1635  15.2451  15.4235  15.7728  16.3464  17.1604  18.1495  19.2183
    20.2734  21.1692

          k = 0.2778-0.2887 0.0000 (  4463 PWs)   bands (ev):

   -34.7017 -34.7010 -34.6813 -34.6784 -34.6417 -34.6300 -34.5883 -34.5758
   -34.5289 -34.4613 -34.4071 -34.4017 -34.3881 -34.3509 -34.3372 -34.3290
   -34.3176 -34.2857 -34.2700 -34.2572 -34.2181 -34.1959 -34.1953 -33.9632
   -33.9630 -33.8944 -33.8942   6.7791   6.9099   6.9662   7.0067   7.1570
     7.1887   7.2533   7.3574   7.4648   7.6106   7.7682   7.9872   8.0287
     8.3362   8.5240   8.8410   8.9098   9.1433   9.1924   9.3030   9.3885
     9.5125   9.6380   9.7257   9.8339  10.0620  10.1601  10.3401  10.5197
    10.5323  10.7485  10.9815  11.1712  11.2465  11.2833  11.4620  11.7686
    11.7906  12.0746  12.2377  12.3677  12.4358  12.5394  12.6314  12.8049
    12.9536  13.1458  13.1743  13.3118  13.9484  14.9663  16.1322  17.3540
    18.5425  19.6028

          k = 0.2778-0.1604 0.0000 (  4458 PWs)   bands (ev):

   -34.6968 -34.6858 -34.6420 -34.6277 -34.6017 -34.5742 -34.5303 -34.4928
   -34.4814 -34.4352 -34.3772 -34.3504 -34.3497 -34.3232 -34.3110 -34.2831
   -34.2680 -34.2593 -34.2263 -34.2091 -34.2029 -34.1283 -34.1279 -33.9146
   -33.9145 -33.9003 -33.9001   6.3957   6.5728   6.7838   6.9033   6.9613
     7.1370   7.3428   7.3966   7.5604   7.7084   7.8634   7.9513   8.1829
     8.4919   8.7220   8.8516   9.0384   9.1884   9.3379   9.4828   9.5623
     9.6207   9.6645   9.7773   9.9002  10.0641  10.1557  10.3315  10.4371
    10.4492  10.6130  10.6905  10.8671  11.0591  11.1199  11.2248  11.2532
    11.3039  11.4132  11.4418  11.6008  11.7248  11.8400  11.9561  11.9598
    12.0944  12.4101  12.6933  12.8451  12.8551  13.9145  15.0751  16.2638
    17.3698  18.2893

          k = 0.3889 0.6736 0.0000 (  4511 PWs)   bands (ev):

   -34.7482 -34.7429 -34.7090 -34.6952 -34.6821 -34.6622 -34.6485 -34.5624
   -34.5583 -34.5217 -34.5203 -34.4989 -34.4848 -34.4518 -34.4268 -34.4035
   -34.3546 -34.3538 -34.3298 -34.2938 -34.2750 -34.2431 -34.2431 -34.0879
   -34.0878 -33.8860 -33.8858   6.8556   7.0443   7.2434   7.3540   7.3703
     7.4463   7.5555   7.6178   7.7081   7.7829   7.9735   8.0015   8.1725
     8.3119   8.3569   8.4110   8.5074   8.7404   9.0196   9.1898   9.4466
     9.5897   9.6885   9.8321   9.8943  10.1390  10.2388  10.3681  10.6009
    10.6500  10.7013  11.0232  11.2756  11.4695  11.6184  11.7188  12.1378
    12.1960  12.2769  12.3687  12.5211  12.5300  12.7089  12.7880  12.8185
    17.0495  17.2578  17.5065  17.7410  17.9805  18.2562  18.5853  18.8990
    19.1526  20.4829

          k = 0.3889-0.3528 0.0000 (  4485 PWs)   bands (ev):

   -34.7898 -34.7843 -34.7530 -34.7367 -34.7241 -34.6952 -34.6791 -34.5395
   -34.5309 -34.4547 -34.4460 -34.4360 -34.4060 -34.3829 -34.3795 -34.3609
   -34.3490 -34.3109 -34.3014 -34.2797 -34.2678 -34.2636 -34.2463 -33.9958
   -33.9957 -33.8896 -33.8895   6.4692   6.6483   6.6542   6.8123   6.8569
     6.9246   6.9772   7.1768   7.2665   7.2828   7.5826   7.6372   7.7987
     8.2094   8.4768   8.7475   8.9325   9.2143   9.3262   9.4613   9.5121
     9.6459   9.8758  10.0867  10.2074  10.4633  10.6682  10.7931  11.0529
    11.2767  11.5497  11.5938  11.7042  11.9957  12.1827  12.2311  12.2681
    12.2959  12.3823  12.5777  12.6400  12.7410  12.8352  12.9798  13.1031
    14.5659  14.9361  15.3205  15.5617  15.8482  16.4256  17.2035  17.9699
    18.5296  20.2822

          k = 0.3889-0.2245 0.0000 (  4444 PWs)   bands (ev):

   -34.7654 -34.7604 -34.7335 -34.7277 -34.6997 -34.6800 -34.6443 -34.5593
   -34.5355 -34.4561 -34.3983 -34.3912 -34.3900 -34.3584 -34.3521 -34.3203
   -34.3059 -34.2932 -34.2581 -34.2575 -34.2480 -34.2339 -34.2327 -33.9500
   -33.9497 -33.8932 -33.8926   6.4278   6.4674   6.5612   6.6684   6.7563
     6.7953   6.9173   6.9777   7.1069   7.2670   7.4363   7.5007   7.7943
     8.3055   8.6621   9.0126   9.1985   9.2722   9.3701   9.5531   9.5642
     9.7295   9.8963  10.1572  10.3321  10.3994  10.8193  10.9385  11.1240
    11.4750  11.6087  11.9363  11.9550  12.1830  12.2285  12.2936  12.3232
    12.3843  12.4086  12.4898  12.5249  12.5971  12.6591  12.7545  12.8614
    12.8855  12.9629  13.2505  13.2899  13.8451  14.9853  16.2521  17.5312
    18.7741  20.0212

          k =-0.5000-0.8660 0.0000 (  4492 PWs)   bands (ev):

   -34.8219 -34.8173 -34.7861 -34.7636 -34.7581 -34.7208 -34.7106 -34.5364
   -34.5342 -34.4181 -34.4082 -34.4064 -34.3994 -34.3967 -34.3686 -34.3348
   -34.3325 -34.3066 -34.2979 -34.2863 -34.2710 -34.2509 -34.2446 -33.9640
   -33.9640 -33.8909 -33.8906   6.1941   6.3659   6.3757   6.5468   6.5786
     6.6284   6.7310   6.8880   6.9328   7.0789   7.2837   7.3013   7.6415
     8.1989   8.6172   8.8771   9.0611   9.1434   9.2615   9.4533   9.8163
     9.9070   9.9510  10.3514  10.5831  10.6259  10.9375  11.4468  11.4771
    11.5463  12.1148  12.3192  12.3577  12.4936  12.6750  12.7647  12.7701
    12.8085  12.8642  12.9172  12.9398  12.9892  13.0872  13.2343  13.2393
    13.4661  14.3489  15.1708  15.6659  15.8457  16.1037  16.2902  16.4348
    16.4941  19.9517

     the Fermi energy is    12.2120 ev

!    total energy              =   -1540.61889000 Ry
     estimated scf accuracy    <       0.00000007 Ry
     smearing contrib. (-TS)   =      -0.03836298 Ry
     internal energy E=F+TS    =   -1540.58052702 Ry

     The total energy is F=E-TS. E is the sum of the following terms:
     one-electron contribution =  -10660.52457769 Ry
     hartree contribution      =    5408.16812098 Ry
     xc contribution           =    -269.23706104 Ry
     ewald contribution        =    3981.01299074 Ry

     total magnetization       =     0.00 Bohr mag/cell
     absolute magnetization    =     0.00 Bohr mag/cell

     convergence has been achieved in  10 iterations

     negative rho (up, down):  2.533E-01 2.533E-01

     Forces acting on atoms (cartesian axes, Ry/au):

     atom    1 type  1   force =     0.00000000    0.00000000    0.00043303
     atom    2 type  1   force =     0.00000000    0.00000000    0.00223889
     atom    3 type  1   force =     0.00000000    0.00000000   -0.00056803
     atom    4 type  1   force =     0.00000000    0.00000000   -0.00164492
     atom    5 type  1   force =     0.00000000    0.00000000    0.00000402
     atom    6 type  1   force =     0.00000000    0.00000000    0.00164717
     atom    7 type  1   force =     0.00000000    0.00000000    0.00056440
     atom    8 type  1   force =     0.00000000    0.00000000   -0.00223927
     atom    9 type  1   force =     0.00000000    0.00000000   -0.00043528

     Total force =     0.004058     Total SCF correction =     0.002463
     SCF correction compared to forces is large: reduce conv_thr to get better values
     Energy error            =      4.8E-05
     Gradient error          =      2.2E-03

     number of scf cycles    =   5
     number of bfgs steps    =   4

     energy   old            =   -1540.6188422197 Ry
     energy   new            =   -1540.6188900006 Ry

     CASE: energy  _new < energy  _old

     new trust radius        =       0.0045564193 bohr
     new conv_thr            =       0.0000001000 Ry


ATOMIC_POSITIONS (angstrom)
Rh            0.0000000000        0.0000000000        0.0312181549
Rh            1.3554284000       -0.7825569000        2.2029005447
Rh            1.3554284000        0.7825569000        4.4079377991
Rh            0.0000000000        0.0000000000        6.6366239281
Rh            1.3554284000       -0.7825569000        8.8536164577
Rh            1.3554284000        0.7825569000       11.0706083576
Rh            0.0000000000        0.0000000000       13.2993002036
Rh            1.3554284000       -0.7825569000       15.5043479481
Rh            1.3554284000        0.7825569000       17.6760370061



     Writing output data file /home/STUDENTI/leonardo.razzai/Rh_work/surf_111/9-L.save/
     NEW-OLD atomic charge density approx. for the potential

     negative rho (up, down):  2.529E-01 2.529E-01
     Generating pointlists ...

     total cpu time spent up to now is      633.2 secs

     Self-consistent Calculation

     iteration #  1     ecut=    35.00 Ry     beta= 0.40
     Davidson diagonalization with overlap
     ethr =  1.00E-06,  avg # of iterations =  5.0

     negative rho (up, down):  2.529E-01 2.529E-01

     total cpu time spent up to now is      653.8 secs

     total energy              =   -1540.61869243 Ry
     estimated scf accuracy    <       0.01129347 Ry

     total magnetization       =     0.00 Bohr mag/cell
     absolute magnetization    =     0.00 Bohr mag/cell

     iteration #  2     ecut=    35.00 Ry     beta= 0.40
     Davidson diagonalization with overlap
     ethr =  8.37E-06,  avg # of iterations =  1.0

     negative rho (up, down):  2.529E-01 2.529E-01

     total cpu time spent up to now is      664.2 secs

     total energy              =   -1540.61886116 Ry
     estimated scf accuracy    <       0.00482059 Ry

     total magnetization       =     0.00 Bohr mag/cell
     absolute magnetization    =     0.00 Bohr mag/cell

     iteration #  3     ecut=    35.00 Ry     beta= 0.40
     Davidson diagonalization with overlap
     ethr =  3.57E-06,  avg # of iterations =  1.0

     negative rho (up, down):  2.529E-01 2.529E-01

     total cpu time spent up to now is      674.6 secs

     total energy              =   -1540.61891268 Ry
     estimated scf accuracy    <       0.00024059 Ry

     total magnetization       =     0.00 Bohr mag/cell
     absolute magnetization    =     0.00 Bohr mag/cell

     iteration #  4     ecut=    35.00 Ry     beta= 0.40
     Davidson diagonalization with overlap
     ethr =  1.78E-07,  avg # of iterations =  1.0

     negative rho (up, down):  2.529E-01 2.529E-01

     total cpu time spent up to now is      685.1 secs

     total energy              =   -1540.61890801 Ry
     estimated scf accuracy    <       0.00011550 Ry

     total magnetization       =     0.00 Bohr mag/cell
     absolute magnetization    =     0.00 Bohr mag/cell

     iteration #  5     ecut=    35.00 Ry     beta= 0.40
     Davidson diagonalization with overlap
     ethr =  8.56E-08,  avg # of iterations =  1.0

     negative rho (up, down):  2.529E-01 2.529E-01

     total cpu time spent up to now is      695.5 secs

     total energy              =   -1540.61891042 Ry
     estimated scf accuracy    <       0.00000177 Ry

     total magnetization       =    -0.00 Bohr mag/cell
     absolute magnetization    =     0.00 Bohr mag/cell

     iteration #  6     ecut=    35.00 Ry     beta= 0.40
     Davidson diagonalization with overlap
     ethr =  1.31E-09,  avg # of iterations =  2.2

     negative rho (up, down):  2.529E-01 2.529E-01

     total cpu time spent up to now is      707.2 secs

     total energy              =   -1540.61891053 Ry
     estimated scf accuracy    <       0.00000052 Ry

     total magnetization       =    -0.00 Bohr mag/cell
     absolute magnetization    =     0.00 Bohr mag/cell

     iteration #  7     ecut=    35.00 Ry     beta= 0.40
     Davidson diagonalization with overlap
     ethr =  3.85E-10,  avg # of iterations =  1.1

     negative rho (up, down):  2.529E-01 2.529E-01

     total cpu time spent up to now is      718.0 secs

     total energy              =   -1540.61891054 Ry
     estimated scf accuracy    <       0.00000080 Ry

     total magnetization       =    -0.00 Bohr mag/cell
     absolute magnetization    =     0.00 Bohr mag/cell

     iteration #  8     ecut=    35.00 Ry     beta= 0.40
     Davidson diagonalization with overlap
     ethr =  3.85E-10,  avg # of iterations =  1.0

     negative rho (up, down):  2.529E-01 2.529E-01

     total cpu time spent up to now is      728.5 secs

     total energy              =   -1540.61891059 Ry
     estimated scf accuracy    <       0.00000090 Ry

     total magnetization       =    -0.00 Bohr mag/cell
     absolute magnetization    =     0.00 Bohr mag/cell

     iteration #  9     ecut=    35.00 Ry     beta= 0.40
     Davidson diagonalization with overlap
     ethr =  3.85E-10,  avg # of iterations =  1.1

     negative rho (up, down):  2.529E-01 2.529E-01
 
     Magnetic moment per site:
     atom:    1    charge:   13.1086    magn:    0.0000    constr:    0.0000
     atom:    2    charge:   13.1643    magn:    0.0000    constr:    0.0000
     atom:    3    charge:   13.1595    magn:   -0.0000    constr:    0.0000
     atom:    4    charge:   13.1563    magn:    0.0000    constr:    0.0000
     atom:    5    charge:   13.1590    magn:    0.0000    constr:    0.0000
     atom:    6    charge:   13.1565    magn:    0.0000    constr:    0.0000
     atom:    7    charge:   13.1589    magn:   -0.0000    constr:    0.0000
     atom:    8    charge:   13.1649    magn:   -0.0000    constr:    0.0000
     atom:    9    charge:   13.1088    magn:   -0.0000    constr:    0.0000

     total cpu time spent up to now is      738.9 secs

     End of self-consistent calculation

 ------ SPIN UP ------------


          k = 0.0556 0.0962 0.0000 (  4451 PWs)   bands (ev):

   -34.7853 -34.7594 -34.6651 -34.5403 -34.4249 -34.3280 -34.3108 -34.2890
   -34.2845 -34.2838 -34.2628 -34.2520 -34.2316 -34.2311 -34.2217 -34.2114
   -34.1952 -34.1925 -34.1702 -34.1693 -34.1567 -33.9186 -33.9182 -33.8871
   -33.8869 -33.8554 -33.8554   4.8383   5.1295   5.6058   6.1695   6.5433
     6.6148   6.6311   6.9059   6.9296   8.7055   8.7463   8.9012   8.9799
     9.0038   9.0720   9.1583   9.2515   9.3497   9.4291   9.4457   9.4832
     9.4891   9.5327   9.5493   9.5845   9.6238   9.6747   9.7299   9.7844
     9.7931   9.8484  10.0421  10.0540  10.2524  10.8182  10.8822  10.8860
    11.0492  11.0898  11.2476  11.3086  11.3822  11.4514  11.5551  11.6356
    11.8083  11.9450  12.2425  12.3677  12.5621  12.6803  12.9334  13.6454
    14.3466  14.7305

          k = 0.0556 0.2245 0.0000 (  4420 PWs)   bands (ev):

   -34.7330 -34.7185 -34.6442 -34.5609 -34.4993 -34.4564 -34.4196 -34.3879
   -34.3698 -34.3640 -34.3302 -34.3177 -34.3158 -34.2912 -34.2706 -34.2521
   -34.2417 -34.2319 -34.2070 -34.1900 -34.1777 -34.0134 -34.0131 -33.9069
   -33.9067 -33.8884 -33.8882   5.7620   5.9970   6.3885   6.8626   7.1418
     7.1812   7.3503   7.5637   7.6414   8.0230   8.2434   8.3937   8.4112
     8.5180   8.5857   8.7096   8.7645   9.1339   9.3172   9.4041   9.4930
     9.5710   9.6686   9.6916   9.7179   9.8097   9.8404   9.9922  10.1173
    10.1615  10.2298  10.3715  10.4482  10.5330  10.5685  10.6269  10.7250
    10.8375  10.9237  11.0533  11.1466  11.4560  11.5675  11.6019  11.7784
    12.0116  12.1866  12.5270  12.5448  12.6999  13.2618  14.1790  15.1903
    16.1261  16.8219

          k = 0.0556 0.3528 0.0000 (  4467 PWs)   bands (ev):

   -34.6974 -34.6888 -34.6612 -34.6600 -34.6188 -34.6121 -34.5688 -34.5328
   -34.5125 -34.4514 -34.3885 -34.3715 -34.3695 -34.3312 -34.3254 -34.3008
   -34.2859 -34.2661 -34.2474 -34.2232 -34.2090 -34.1658 -34.1655 -33.9323
   -33.9321 -33.8983 -33.8982   6.5644   6.7441   6.8762   6.9248   6.9545
     7.1217   7.2033   7.3448   7.4332   7.6498   7.7538   7.9343   8.0625
     8.4310   8.7031   8.8568   9.0555   9.1936   9.3503   9.4626   9.5396
     9.5596   9.5863   9.7770   9.8524  10.1220  10.1763  10.4095  10.5505
    10.5918  10.7143  10.8788  11.0896  11.2642  11.3549  11.4167  11.5099
    11.6953  11.7427  11.7943  11.9534  12.0964  12.1599  12.2922  12.3374
    12.3945  12.4289  12.6250  12.7929  13.2362  14.3092  15.4990  16.7237
    17.8830  18.8784

          k = 0.0556 0.4811 0.0000 (  4463 PWs)   bands (ev):

   -34.7874 -34.7829 -34.7509 -34.7409 -34.7186 -34.6939 -34.6678 -34.5502
   -34.5365 -34.4505 -34.4151 -34.4103 -34.3939 -34.3694 -34.3603 -34.3364
   -34.3250 -34.2954 -34.2821 -34.2670 -34.2618 -34.2474 -34.2366 -33.9651
   -33.9649 -33.8921 -33.8918   6.3900   6.4970   6.5387   6.6886   6.7236
     6.7927   6.8779   7.0151   7.1076   7.2170   7.4441   7.4874   7.7516
     8.2482   8.5931   8.9198   9.1050   9.2643   9.3206   9.5215   9.5510
     9.7358   9.9174  10.2384  10.2871  10.4606  10.8868  10.9756  11.1057
    11.5380  11.6212  11.9072  11.9748  12.0909  12.3181  12.3892  12.4339
    12.4653  12.5100  12.5483  12.6250  12.6735  12.8024  12.8973  13.0254
    13.3766  13.7972  14.1868  14.3179  14.6252  15.4824  16.5929  17.7308
    18.7595  20.2441

          k = 0.0556-0.5453 0.0000 (  4486 PWs)   bands (ev):

   -34.8159 -34.8107 -34.7771 -34.7590 -34.7473 -34.7137 -34.7005 -34.5388
   -34.5352 -34.4325 -34.4228 -34.4155 -34.3968 -34.3879 -34.3708 -34.3431
   -34.3376 -34.3033 -34.2975 -34.2846 -34.2753 -34.2512 -34.2469 -33.9728
   -33.9725 -33.8909 -33.8907   6.2690   6.4374   6.4470   6.6103   6.6485
     6.7084   6.7830   6.9644   7.0220   7.1277   7.3670   7.3864   7.6778
     8.2071   8.5786   8.8395   9.0352   9.1945   9.2766   9.4740   9.7000
     9.8063   9.9093  10.4157  10.4425  10.4617  11.0342  11.1723  11.2646
    11.6682  11.8867  12.1305  12.2186  12.3598  12.4448  12.5804  12.6486
    12.6917  12.7351  12.7773  12.8219  12.8530  12.9499  13.0465  13.1292
    13.9777  14.5791  15.2372  15.6980  15.7470  15.9165  16.4505  17.0232
    17.4137  20.0413

          k = 0.0556-0.4170 0.0000 (  4465 PWs)   bands (ev):

   -34.7360 -34.7336 -34.7117 -34.7063 -34.6723 -34.6530 -34.6114 -34.5729
   -34.5359 -34.4591 -34.4021 -34.3943 -34.3872 -34.3500 -34.3456 -34.3216
   -34.3067 -34.2817 -34.2654 -34.2385 -34.2326 -34.2243 -34.2182 -33.9513
   -33.9512 -33.8947 -33.8944   6.5679   6.6094   6.7202   6.7648   6.9032
     6.9433   7.0395   7.0996   7.2485   7.3980   7.5699   7.6869   7.8824
     8.3362   8.6313   8.9881   9.2487   9.2879   9.3748   9.4151   9.5575
     9.6236   9.7724  10.0212  10.0606  10.3052  10.5070  10.6276  10.9688
    11.0711  11.2672  11.3978  11.4931  11.7742  11.8687  11.9471  12.0159
    12.0824  12.1581  12.2522  12.3294  12.4773  12.5205  12.6623  12.7429
    12.8847  12.9834  13.1024  13.1679  13.8027  14.8977  16.1380  17.4137
    18.6533  19.7717

          k = 0.0556-0.2887 0.0000 (  4439 PWs)   bands (ev):

   -34.7038 -34.6959 -34.6394 -34.6005 -34.5699 -34.5371 -34.4953 -34.4598
   -34.4450 -34.4195 -34.3681 -34.3443 -34.3442 -34.3142 -34.2979 -34.2757
   -34.2633 -34.2499 -34.2273 -34.2060 -34.1918 -34.0917 -34.0916 -33.9103
   -33.9102 -33.9022 -33.9019   6.2893   6.4642   6.7312   7.0101   7.1252
     7.2565   7.4870   7.5564   7.7744   7.8152   8.0369   8.0732   8.2713
     8.4326   8.4863   8.6857   8.9015   8.9224   9.2173   9.4513   9.5537
     9.6073   9.6551   9.6995   9.8056   9.8464   9.9854  10.0456  10.1747
    10.3121  10.5681  10.5832  10.6439  10.7758  10.9196  10.9452  11.1169
    11.1694  11.2182  11.4298  11.5218  11.6254  11.8206  11.8537  11.9297
    12.1447  12.2662  12.5671  12.7347  12.8480  13.7666  14.8384  15.9683
    17.0217  17.8809

          k = 0.0556-0.1604 0.0000 (  4443 PWs)   bands (ev):

   -34.7631 -34.7416 -34.6551 -34.5451 -34.4500 -34.3835 -34.3572 -34.3250
   -34.3158 -34.3090 -34.2964 -34.2880 -34.2702 -34.2600 -34.2465 -34.2299
   -34.2229 -34.2109 -34.1870 -34.1773 -34.1666 -33.9444 -33.9442 -33.9105
   -33.9104 -33.8695 -33.8693   5.2351   5.5093   5.9625   6.5085   6.8593
     6.9081   6.9607   7.2231   7.2543   8.3966   8.5138   8.6463   8.7290
     8.7923   8.8298   8.8915   9.0168   9.2676   9.3339   9.5024   9.5691
     9.5938   9.6181   9.6867   9.7274   9.7564   9.7914   9.8172   9.8526
     9.9406  10.0167  10.1041  10.2262  10.3262  10.3391  10.7142  10.7806
    10.8579  10.9587  10.9662  11.1408  11.3550  11.4284  11.5369  11.7348
    11.8206  12.2078  12.2318  12.5363  12.6639  12.8046  13.5309  14.4029
    15.2162  15.7447

          k = 0.0556-0.0321 0.0000 (  4465 PWs)   bands (ev):

   -34.7972 -34.7690 -34.6714 -34.5399 -34.4168 -34.2990 -34.2846 -34.2760
   -34.2750 -34.2745 -34.2384 -34.2283 -34.2220 -34.2118 -34.2042 -34.1954
   -34.1877 -34.1675 -34.1671 -34.1606 -34.1493 -33.9202 -33.9200 -33.8593
   -33.8591 -33.8482 -33.8479   4.6284   4.9257   5.4094   5.9769   6.3625
     6.4369   6.4579   6.7244   6.7448   8.8776   8.9268   9.0791   9.1227
     9.1411   9.2013   9.2789   9.2851   9.3297   9.3439   9.3439   9.3544
     9.4337   9.4705   9.5108   9.5524   9.5814   9.5957   9.6312   9.7462
     9.8187   9.9029   9.9078   9.9550  10.6134  11.0159  11.0167  11.1558
    11.1622  11.2716  11.2934  11.3459  11.3930  11.4771  11.6238  11.7628
    11.9697  11.9726  12.0923  12.3416  12.4231  12.6019  12.7312  13.0387
    13.6744  13.9593

          k = 0.1667 0.2887 0.0000 (  4425 PWs)   bands (ev):

   -34.6833 -34.6830 -34.6397 -34.6190 -34.5957 -34.5717 -34.5358 -34.4942
   -34.4833 -34.4477 -34.3893 -34.3739 -34.3690 -34.3270 -34.3120 -34.3020
   -34.2839 -34.2635 -34.2619 -34.2515 -34.1951 -34.1231 -34.1229 -33.9432
   -33.9430 -33.8985 -33.8985   6.7802   6.8528   7.0107   7.2376   7.5025
     7.7252   7.7385   7.7614   7.8514   7.8523   7.9676   7.9824   8.0696
     8.2131   8.3240   8.4200   8.8356   8.8792   8.9305   9.0162   9.1920
     9.3250   9.3524   9.3731   9.4629   9.5282  10.0730  10.0796  10.2277
    10.3123  10.4659  10.5210  10.9164  10.9318  11.0064  11.2006  11.4081
    11.5061  11.6596  11.8064  12.0237  12.1174  12.2066  12.3571  12.3631
    12.4124  12.4752  12.5607  12.5909  13.3398  14.3169  15.3975  16.5426
    17.6403  18.5944

          k = 0.1667 0.4170 0.0000 (  4459 PWs)   bands (ev):

   -34.7214 -34.7183 -34.6948 -34.6872 -34.6588 -34.6445 -34.6130 -34.5807
   -34.5387 -34.4707 -34.4462 -34.4448 -34.4056 -34.3736 -34.3657 -34.3599
   -34.3361 -34.3280 -34.2984 -34.2765 -34.2288 -34.2171 -34.2160 -34.0052
   -34.0050 -33.8918 -33.8914   6.9418   7.0017   7.0765   7.1760   7.2631
     7.3408   7.4792   7.4866   7.5686   7.7250   7.7979   8.0394   8.1269
     8.3357   8.4425   8.6441   8.8389   8.8912   9.0440   9.1490   9.2414
     9.4598   9.5724   9.7980   9.8797   9.9977  10.0663  10.2228  10.3689
    10.4894  10.7858  11.0104  11.1092  11.1675  11.3288  11.3998  11.6862
    11.7571  12.0467  12.5172  12.6027  12.7273  12.7949  12.8507  13.0038
    14.0081  14.1393  14.2269  14.4717  15.0410  15.9377  17.0231  18.1893
    19.3488  20.4174

          k = 0.1667 0.5453 0.0000 (  4490 PWs)   bands (ev):

   -34.7783 -34.7741 -34.7388 -34.7233 -34.7108 -34.6811 -34.6691 -34.5408
   -34.5343 -34.4919 -34.4861 -34.4605 -34.4429 -34.4184 -34.3905 -34.3771
   -34.3624 -34.3378 -34.3223 -34.2865 -34.2627 -34.2617 -34.2571 -34.0388
   -34.0387 -33.8879 -33.8878   6.6296   6.8181   6.9173   7.0682   7.0975
     7.1350   7.2057   7.4037   7.4845   7.5301   7.7809   7.8803   7.9958
     8.2325   8.3238   8.5308   8.6852   8.9838   9.2492   9.3382   9.5120
     9.7225   9.8128   9.8653  10.1593  10.2283  10.3043  10.6581  10.7572
    11.0858  11.1097  11.2142  11.4824  11.7707  11.9319  12.0391  12.1441
    12.2206  12.3640  12.5089  12.5688  12.6414  12.7961  12.9138  13.0065
    15.8389  16.1463  16.5003  16.8086  17.1264  17.5238  17.9409  18.2400
    18.3968  20.3457

          k = 0.1667-0.4811 0.0000 (  4476 PWs)   bands (ev):

   -34.7580 -34.7536 -34.7226 -34.7101 -34.6935 -34.6669 -34.6502 -34.5566
   -34.5378 -34.4773 -34.4714 -34.4652 -34.4236 -34.4004 -34.3812 -34.3790
   -34.3513 -34.3376 -34.3111 -34.2845 -34.2498 -34.2467 -34.2422 -34.0271
   -34.0270 -33.8892 -33.8891   6.7407   6.9066   6.9484   7.1282   7.1584
     7.1750   7.3166   7.4467   7.5088   7.6051   7.7921   7.9424   8.0456
     8.2413   8.4046   8.6365   8.7839   8.8548   9.1982   9.2473   9.5393
     9.6187   9.7447   9.8993   9.9909  10.0391  10.2837  10.5001  10.6673
    10.8456  10.8929  11.0593  11.3793  11.5942  11.6663  11.7329  11.8434
    11.8918  12.1750  12.5464  12.6627  12.7583  12.8547  12.9660  13.1000
    14.9655  15.1645  15.3736  15.6565  16.1564  16.9045  17.8270  18.7939
    19.6345  20.5950

          k = 0.1667-0.3528 0.0000 (  4458 PWs)   bands (ev):

   -34.6861 -34.6852 -34.6593 -34.6573 -34.6222 -34.6195 -34.5888 -34.5599
   -34.5222 -34.4665 -34.4136 -34.4103 -34.3927 -34.3500 -34.3358 -34.3307
   -34.3144 -34.3038 -34.2827 -34.2648 -34.2106 -34.1750 -34.1747 -33.9758
   -33.9756 -33.8952 -33.8952   7.0335   7.1223   7.1757   7.2477   7.3657
     7.4504   7.5443   7.6245   7.6814   7.7932   7.9667   8.0934   8.1850
     8.2660   8.4126   8.5847   8.6932   8.8047   8.9762   9.1436   9.2261
     9.2669   9.3266   9.5263   9.6712   9.7298   9.9911  10.0046  10.1948
    10.4743  10.5940  10.7102  10.8872  11.0919  11.1537  11.2946  11.5747
    11.6393  11.8949  12.3112  12.3674  12.4947  12.5377  12.6068  12.7778
    13.1129  13.1877  13.2413  13.3983  14.0449  15.0333  16.1554  17.3377
    18.4886  19.5297

          k = 0.1667-0.2245 0.0000 (  4433 PWs)   bands (ev):

   -34.7077 -34.6999 -34.6395 -34.5846 -34.5457 -34.5131 -34.4735 -34.4358
   -34.4251 -34.4117 -34.3667 -34.3414 -34.3394 -34.3123 -34.2888 -34.2733
   -34.2562 -34.2470 -34.2334 -34.2199 -34.1845 -34.0671 -34.0670 -33.9131
   -33.9130 -33.9026 -33.9025   6.2407   6.4223   6.7320   7.1209   7.4194
     7.4702   7.6129   7.7247   7.8467   7.9443   8.0726   8.1539   8.1831
     8.2947   8.4231   8.5841   8.6342   8.8715   9.1322   9.1857   9.2767
     9.4013   9.4614   9.5677   9.6608   9.6965   9.8945  10.0215  10.1820
    10.4117  10.4220  10.5270  10.6294  10.7147  10.8788  10.8985  11.0298
    11.1674  11.2094  11.4676  11.5227  11.5790  11.8610  11.9001  11.9063
    12.0701  12.2205  12.4156  12.5669  12.8892  13.7512  14.7460  15.8247
    16.8442  17.6729

          k = 0.1667-0.0962 0.0000 (  4427 PWs)   bands (ev):

   -34.7534 -34.7337 -34.6508 -34.5491 -34.4662 -34.4107 -34.3806 -34.3465
   -34.3360 -34.3193 -34.3055 -34.3051 -34.2878 -34.2647 -34.2607 -34.2398
   -34.2304 -34.2205 -34.1900 -34.1800 -34.1687 -33.9697 -33.9695 -33.9096
   -33.9094 -33.8742 -33.8740   5.4154   5.6777   6.1117   6.6334   6.9636
     6.9690   7.1127   7.3482   7.3965   8.2089   8.4310   8.5615   8.6229
     8.6934   8.7465   8.8523   8.8980   9.3344   9.3785   9.4887   9.6025
     9.6197   9.6409   9.7306   9.7512   9.8410   9.8627   9.9198   9.9932
    10.0066  10.0544  10.0576  10.2305  10.3307  10.4372  10.5484  10.7142
    10.7413  10.9097  11.0083  11.1561  11.2697  11.4987  11.5186  11.7038
    12.0087  12.0926  12.3752  12.6456  12.7856  12.8489  13.7309  14.6854
    15.5498  16.1384

          k = 0.2778 0.4811 0.0000 (  4485 PWs)   bands (ev):

   -34.7214 -34.7209 -34.6918 -34.6896 -34.6555 -34.6529 -34.6152 -34.6002
   -34.5745 -34.5367 -34.5119 -34.5110 -34.4696 -34.4497 -34.4308 -34.4216
   -34.3645 -34.3446 -34.3265 -34.2973 -34.2652 -34.2259 -34.2258 -34.0978
   -34.0976 -33.8867 -33.8866   7.1664   7.1820   7.2874   7.3391   7.4231
     7.5815   7.7636   7.8653   7.9393   7.9694   8.0645   8.0801   8.1679
     8.2081   8.3536   8.4018   8.6755   8.7748   8.9151   9.0487   9.2075
     9.3660   9.5621   9.6548   9.8841   9.8913  10.1031  10.1057  10.5772
    10.6587  10.7338  10.8526  11.0861  11.1212  11.3019  11.3274  11.6400
    11.8949  12.2209  12.5082  12.6835  12.7009  12.7020  12.8407  12.9962
    16.3311  16.4547  16.7227  17.1467  17.7308  18.4822  19.3593  20.2475
    20.7050  20.7892

          k = 0.2778 0.6094 0.0000 (  4491 PWs)   bands (ev):

   -34.7142 -34.7102 -34.6804 -34.6759 -34.6513 -34.6433 -34.6319 -34.6061
   -34.5834 -34.5616 -34.5379 -34.5294 -34.5080 -34.4769 -34.4452 -34.4347
   -34.3538 -34.3446 -34.3244 -34.3017 -34.2847 -34.2182 -34.2179 -34.1296
   -34.1294 -33.8854 -33.8852   7.1329   7.2941   7.3920   7.5139   7.5396
     7.6376   7.7294   7.8477   7.8941   7.9328   7.9951   8.0703   8.1807
     8.2233   8.3192   8.4624   8.5479   8.9001   8.9413   9.1727   9.2595
     9.3757   9.4498   9.6442   9.8107   9.8594  10.1533  10.1633  10.5485
    10.6626  10.8356  10.9588  11.0521  11.1726  11.3307  11.3801  11.9590
    12.1092  12.2917  12.3786  12.4934  12.5421  12.5920  12.6480  12.7733
    17.5309  17.7070  18.0119  18.3891  18.7331  19.0382  19.4022  19.8091
    20.2277  20.3460

          k = 0.2778-0.4170 0.0000 (  4462 PWs)   bands (ev):

   -34.7276 -34.7248 -34.6989 -34.6883 -34.6665 -34.6495 -34.6265 -34.5814
   -34.5504 -34.4955 -34.4842 -34.4827 -34.4355 -34.4087 -34.4007 -34.3845
   -34.3652 -34.3435 -34.3230 -34.2861 -34.2447 -34.2269 -34.2268 -34.0526
   -34.0523 -33.8887 -33.8884   7.0215   7.1505   7.1717   7.2970   7.3595
     7.4789   7.5829   7.6749   7.7445   7.8670   8.0794   8.0908   8.1799
     8.3064   8.5216   8.5224   8.5763   8.7292   8.9393   9.0071   9.2446
     9.3786   9.5393   9.7611   9.9101   9.9417  10.1228  10.1559  10.3318
    10.5121  10.7658  10.9088  11.0750  11.1842  11.3197  11.3720  11.5416
    11.7104  12.1325  12.5472  12.7559  12.7883  12.8519  12.9443  13.1018
    15.1640  15.2447  15.4234  15.7730  16.3470  17.1615  18.1512  19.2208
    20.2745  21.1704

          k = 0.2778-0.2887 0.0000 (  4463 PWs)   bands (ev):

   -34.7041 -34.7033 -34.6831 -34.6805 -34.6410 -34.6292 -34.5885 -34.5751
   -34.5300 -34.4612 -34.4087 -34.4039 -34.3890 -34.3496 -34.3377 -34.3288
   -34.3174 -34.2853 -34.2698 -34.2559 -34.2167 -34.1963 -34.1956 -33.9634
   -33.9633 -33.8949 -33.8947   6.7795   6.9102   6.9618   7.0035   7.1537
     7.1874   7.2524   7.3543   7.4636   7.6098   7.7673   7.9869   8.0282
     8.3359   8.5225   8.8393   8.9092   9.1403   9.1902   9.3039   9.3863
     9.5127   9.6381   9.7256   9.8324  10.0615  10.1601  10.3401  10.5195
    10.5316  10.7483  10.9810  11.1717  11.2477  11.2825  11.4617  11.7678
    11.7906  12.0750  12.2386  12.3679  12.4359  12.5398  12.6329  12.8056
    12.9540  13.1457  13.1746  13.3119  13.9493  14.9677  16.1345  17.3570
    18.5443  19.6047

          k = 0.2778-0.1604 0.0000 (  4458 PWs)   bands (ev):

   -34.6991 -34.6896 -34.6417 -34.6290 -34.6027 -34.5741 -34.5304 -34.4919
   -34.4811 -34.4356 -34.3775 -34.3526 -34.3521 -34.3233 -34.3092 -34.2831
   -34.2678 -34.2596 -34.2260 -34.2077 -34.2016 -34.1285 -34.1282 -33.9148
   -33.9147 -33.9008 -33.9006   6.3961   6.5692   6.7826   6.9028   6.9595
     7.1341   7.3416   7.3948   7.5579   7.7079   7.8624   7.9508   8.1820
     8.4903   8.7212   8.8505   9.0360   9.1881   9.3388   9.4833   9.5631
     9.6204   9.6649   9.7703   9.9001  10.0622  10.1554  10.3312  10.4367
    10.4487  10.6129  10.6892  10.8651  11.0578  11.1207  11.2260  11.2538
    11.3045  11.4135  11.4411  11.6006  11.7244  11.8401  11.9564  11.9602
    12.0944  12.4101  12.6960  12.8464  12.8561  13.9163  15.0771  16.2660
    17.3725  18.2912

          k = 0.3889 0.6736 0.0000 (  4511 PWs)   bands (ev):

   -34.7500 -34.7455 -34.7095 -34.6976 -34.6820 -34.6605 -34.6474 -34.5649
   -34.5609 -34.5228 -34.5216 -34.4974 -34.4844 -34.4520 -34.4278 -34.4036
   -34.3549 -34.3532 -34.3293 -34.2928 -34.2732 -34.2435 -34.2435 -34.0881
   -34.0880 -33.8865 -33.8863   6.8557   7.0386   7.2439   7.3519   7.3663
     7.4464   7.5504   7.6160   7.7080   7.7815   7.9700   7.9990   8.1722
     8.3109   8.3539   8.4127   8.5066   8.7395   9.0189   9.1874   9.4456
     9.5877   9.6885   9.8333   9.8941  10.1382  10.2396  10.3689  10.6004
    10.6497  10.7024  11.0234  11.2754  11.4697  11.6195  11.7196  12.1379
    12.1962  12.2777  12.3704  12.5223  12.5306  12.7103  12.7883  12.8192
    17.0499  17.2577  17.5065  17.7409  17.9807  18.2562  18.5855  18.9012
    19.1533  20.4840

          k = 0.3889-0.3528 0.0000 (  4485 PWs)   bands (ev):

   -34.7917 -34.7869 -34.7533 -34.7386 -34.7239 -34.6939 -34.6779 -34.5417
   -34.5334 -34.4556 -34.4483 -34.4361 -34.4056 -34.3823 -34.3786 -34.3612
   -34.3491 -34.3106 -34.3012 -34.2790 -34.2681 -34.2635 -34.2449 -33.9960
   -33.9959 -33.8901 -33.8900   6.4694   6.6433   6.6544   6.8116   6.8527
     6.9224   6.9730   7.1756   7.2669   7.2817   7.5818   7.6365   7.7982
     8.2089   8.4752   8.7447   8.9344   9.2116   9.3253   9.4626   9.5106
     9.6444   9.8755  10.0838  10.2063  10.4636  10.6686  10.7929  11.0525
    11.2763  11.5495  11.5932  11.7040  11.9964  12.1832  12.2313  12.2680
    12.2964  12.3836  12.5788  12.6407  12.7413  12.8359  12.9803  13.1037
    14.5663  14.9353  15.3209  15.5622  15.8489  16.4263  17.2048  17.9720
    18.5301  20.2825

          k = 0.3889-0.2245 0.0000 (  4444 PWs)   bands (ev):

   -34.7672 -34.7629 -34.7345 -34.7291 -34.6997 -34.6790 -34.6432 -34.5607
   -34.5376 -34.4555 -34.3990 -34.3933 -34.3924 -34.3581 -34.3503 -34.3203
   -34.3053 -34.2935 -34.2578 -34.2573 -34.2485 -34.2330 -34.2315 -33.9502
   -33.9499 -33.8937 -33.8931   6.4279   6.4676   6.5566   6.6642   6.7552
     6.7948   6.9131   6.9768   7.1069   7.2655   7.4351   7.5000   7.7940
     8.3052   8.6618   9.0121   9.1997   9.2728   9.3699   9.5461   9.5635
     9.7298   9.8944  10.1543  10.3312  10.3993  10.8198  10.9379  11.1241
    11.4737  11.6091  11.9354  11.9551  12.1833  12.2281  12.2945  12.3214
    12.3845  12.4087  12.4896  12.5251  12.5980  12.6596  12.7539  12.8629
    12.8852  12.9640  13.2521  13.2903  13.8463  14.9865  16.2542  17.5344
    18.7752  20.0228

          k =-0.5000-0.8660 0.0000 (  4492 PWs)   bands (ev):

   -34.8238 -34.8199 -34.7862 -34.7660 -34.7573 -34.7196 -34.7095 -34.5389
   -34.5367 -34.4182 -34.4103 -34.4088 -34.4000 -34.3947 -34.3669 -34.3348
   -34.3322 -34.3069 -34.2982 -34.2869 -34.2708 -34.2496 -34.2434 -33.9642
   -33.9642 -33.8914 -33.8912   6.1942   6.3607   6.3759   6.5466   6.5742
     6.6274   6.7257   6.8873   6.9336   7.0776   7.2828   7.3000   7.6412
     8.1985   8.6167   8.8766   9.0624   9.1442   9.2613   9.4463   9.8144
     9.9067   9.9513  10.3515  10.5810  10.6243  10.9370  11.4484  11.4766
    11.5453  12.1146  12.3202  12.3584  12.4953  12.6752  12.7638  12.7678
    12.8094  12.8647  12.9176  12.9403  12.9894  13.0876  13.2342  13.2393
    13.4664  14.3478  15.1716  15.6666  15.8463  16.1061  16.2911  16.4357
    16.4945  19.9519

 ------ SPIN DOWN ----------


          k = 0.0556 0.0962 0.0000 (  4451 PWs)   bands (ev):

   -34.7853 -34.7594 -34.6651 -34.5403 -34.4249 -34.3280 -34.3108 -34.2890
   -34.2845 -34.2838 -34.2628 -34.2520 -34.2316 -34.2311 -34.2217 -34.2114
   -34.1952 -34.1925 -34.1702 -34.1693 -34.1567 -33.9186 -33.9182 -33.8871
   -33.8869 -33.8554 -33.8554   4.8383   5.1295   5.6058   6.1695   6.5433
     6.6148   6.6311   6.9059   6.9296   8.7055   8.7463   8.9012   8.9799
     9.0038   9.0720   9.1583   9.2515   9.3497   9.4291   9.4457   9.4832
     9.4891   9.5327   9.5493   9.5845   9.6238   9.6747   9.7299   9.7844
     9.7931   9.8484  10.0421  10.0540  10.2524  10.8182  10.8822  10.8860
    11.0492  11.0898  11.2476  11.3086  11.3822  11.4514  11.5551  11.6356
    11.8083  11.9450  12.2425  12.3677  12.5621  12.6803  12.9334  13.6454
    14.3466  14.7305

          k = 0.0556 0.2245 0.0000 (  4420 PWs)   bands (ev):

   -34.7330 -34.7185 -34.6442 -34.5609 -34.4993 -34.4564 -34.4196 -34.3879
   -34.3698 -34.3640 -34.3302 -34.3177 -34.3158 -34.2912 -34.2706 -34.2521
   -34.2417 -34.2319 -34.2070 -34.1900 -34.1777 -34.0134 -34.0131 -33.9069
   -33.9067 -33.8884 -33.8882   5.7620   5.9970   6.3885   6.8626   7.1418
     7.1812   7.3503   7.5637   7.6414   8.0230   8.2434   8.3937   8.4112
     8.5180   8.5857   8.7096   8.7645   9.1339   9.3172   9.4041   9.4930
     9.5710   9.6686   9.6916   9.7179   9.8097   9.8404   9.9922  10.1173
    10.1615  10.2298  10.3715  10.4482  10.5330  10.5685  10.6269  10.7250
    10.8375  10.9237  11.0533  11.1466  11.4560  11.5675  11.6019  11.7784
    12.0116  12.1866  12.5270  12.5448  12.6999  13.2618  14.1790  15.1903
    16.1261  16.8219

          k = 0.0556 0.3528 0.0000 (  4467 PWs)   bands (ev):

   -34.6974 -34.6888 -34.6612 -34.6600 -34.6188 -34.6121 -34.5688 -34.5328
   -34.5125 -34.4514 -34.3885 -34.3715 -34.3695 -34.3312 -34.3254 -34.3008
   -34.2859 -34.2661 -34.2474 -34.2232 -34.2090 -34.1658 -34.1655 -33.9323
   -33.9321 -33.8983 -33.8982   6.5644   6.7441   6.8762   6.9248   6.9545
     7.1217   7.2033   7.3448   7.4332   7.6498   7.7538   7.9343   8.0625
     8.4310   8.7031   8.8568   9.0555   9.1936   9.3503   9.4626   9.5396
     9.5596   9.5863   9.7770   9.8524  10.1220  10.1763  10.4095  10.5505
    10.5918  10.7143  10.8788  11.0896  11.2642  11.3549  11.4167  11.5099
    11.6953  11.7427  11.7943  11.9534  12.0964  12.1599  12.2922  12.3374
    12.3945  12.4289  12.6250  12.7929  13.2362  14.3092  15.4990  16.7237
    17.8830  18.8784

          k = 0.0556 0.4811 0.0000 (  4463 PWs)   bands (ev):

   -34.7874 -34.7829 -34.7509 -34.7409 -34.7186 -34.6939 -34.6678 -34.5502
   -34.5365 -34.4505 -34.4151 -34.4103 -34.3939 -34.3694 -34.3603 -34.3364
   -34.3250 -34.2954 -34.2821 -34.2670 -34.2618 -34.2474 -34.2366 -33.9651
   -33.9649 -33.8921 -33.8918   6.3900   6.4970   6.5387   6.6886   6.7236
     6.7927   6.8779   7.0151   7.1076   7.2170   7.4441   7.4874   7.7516
     8.2482   8.5931   8.9198   9.1050   9.2643   9.3206   9.5215   9.5510
     9.7358   9.9174  10.2384  10.2871  10.4606  10.8868  10.9756  11.1057
    11.5380  11.6212  11.9072  11.9748  12.0909  12.3181  12.3892  12.4339
    12.4653  12.5100  12.5483  12.6250  12.6735  12.8024  12.8973  13.0254
    13.3766  13.7972  14.1868  14.3179  14.6252  15.4824  16.5929  17.7308
    18.7595  20.2441

          k = 0.0556-0.5453 0.0000 (  4486 PWs)   bands (ev):

   -34.8159 -34.8107 -34.7771 -34.7590 -34.7473 -34.7137 -34.7005 -34.5388
   -34.5352 -34.4325 -34.4228 -34.4155 -34.3968 -34.3879 -34.3708 -34.3431
   -34.3376 -34.3033 -34.2975 -34.2846 -34.2753 -34.2512 -34.2469 -33.9728
   -33.9725 -33.8909 -33.8907   6.2690   6.4374   6.4470   6.6103   6.6485
     6.7084   6.7830   6.9644   7.0220   7.1277   7.3670   7.3864   7.6778
     8.2071   8.5786   8.8395   9.0352   9.1945   9.2766   9.4740   9.7000
     9.8063   9.9093  10.4157  10.4425  10.4617  11.0342  11.1723  11.2646
    11.6682  11.8867  12.1305  12.2186  12.3598  12.4448  12.5804  12.6486
    12.6917  12.7351  12.7773  12.8219  12.8530  12.9499  13.0465  13.1292
    13.9777  14.5791  15.2372  15.6980  15.7470  15.9165  16.4505  17.0232
    17.4137  20.0407

          k = 0.0556-0.4170 0.0000 (  4465 PWs)   bands (ev):

   -34.7360 -34.7336 -34.7117 -34.7063 -34.6723 -34.6530 -34.6114 -34.5729
   -34.5359 -34.4591 -34.4021 -34.3943 -34.3872 -34.3500 -34.3456 -34.3216
   -34.3067 -34.2817 -34.2654 -34.2385 -34.2326 -34.2243 -34.2182 -33.9513
   -33.9512 -33.8947 -33.8944   6.5679   6.6094   6.7202   6.7648   6.9032
     6.9433   7.0395   7.0996   7.2485   7.3980   7.5699   7.6869   7.8824
     8.3362   8.6313   8.9881   9.2487   9.2879   9.3748   9.4151   9.5575
     9.6236   9.7724  10.0212  10.0606  10.3052  10.5070  10.6276  10.9688
    11.0711  11.2672  11.3978  11.4931  11.7742  11.8687  11.9471  12.0159
    12.0824  12.1581  12.2522  12.3294  12.4773  12.5205  12.6623  12.7429
    12.8847  12.9834  13.1024  13.1679  13.8027  14.8977  16.1380  17.4137
    18.6533  19.7717

          k = 0.0556-0.2887 0.0000 (  4439 PWs)   bands (ev):

   -34.7038 -34.6959 -34.6394 -34.6005 -34.5699 -34.5371 -34.4953 -34.4598
   -34.4450 -34.4195 -34.3681 -34.3443 -34.3442 -34.3142 -34.2979 -34.2757
   -34.2633 -34.2499 -34.2273 -34.2060 -34.1918 -34.0917 -34.0916 -33.9103
   -33.9102 -33.9022 -33.9019   6.2893   6.4642   6.7312   7.0101   7.1252
     7.2565   7.4870   7.5564   7.7744   7.8152   8.0369   8.0732   8.2713
     8.4326   8.4863   8.6857   8.9015   8.9224   9.2173   9.4513   9.5537
     9.6073   9.6551   9.6995   9.8056   9.8464   9.9854  10.0456  10.1747
    10.3121  10.5681  10.5832  10.6439  10.7758  10.9196  10.9452  11.1169
    11.1694  11.2182  11.4298  11.5218  11.6254  11.8206  11.8537  11.9297
    12.1447  12.2662  12.5671  12.7347  12.8480  13.7666  14.8384  15.9683
    17.0217  17.8809

          k = 0.0556-0.1604 0.0000 (  4443 PWs)   bands (ev):

   -34.7631 -34.7416 -34.6551 -34.5451 -34.4500 -34.3835 -34.3572 -34.3250
   -34.3158 -34.3090 -34.2964 -34.2880 -34.2702 -34.2600 -34.2465 -34.2299
   -34.2229 -34.2109 -34.1870 -34.1773 -34.1666 -33.9444 -33.9442 -33.9105
   -33.9104 -33.8695 -33.8693   5.2351   5.5093   5.9625   6.5085   6.8593
     6.9081   6.9607   7.2231   7.2543   8.3966   8.5138   8.6463   8.7290
     8.7923   8.8298   8.8915   9.0168   9.2676   9.3339   9.5024   9.5691
     9.5938   9.6181   9.6867   9.7274   9.7564   9.7914   9.8172   9.8526
     9.9406  10.0167  10.1041  10.2262  10.3262  10.3391  10.7142  10.7806
    10.8579  10.9587  10.9662  11.1408  11.3550  11.4284  11.5369  11.7348
    11.8206  12.2078  12.2318  12.5363  12.6639  12.8046  13.5309  14.4029
    15.2162  15.7447

          k = 0.0556-0.0321 0.0000 (  4465 PWs)   bands (ev):

   -34.7972 -34.7690 -34.6714 -34.5399 -34.4168 -34.2990 -34.2846 -34.2760
   -34.2750 -34.2745 -34.2384 -34.2283 -34.2220 -34.2118 -34.2042 -34.1954
   -34.1877 -34.1675 -34.1671 -34.1606 -34.1493 -33.9202 -33.9200 -33.8593
   -33.8591 -33.8482 -33.8479   4.6284   4.9257   5.4094   5.9769   6.3625
     6.4369   6.4579   6.7244   6.7448   8.8776   8.9268   9.0791   9.1227
     9.1411   9.2013   9.2789   9.2851   9.3297   9.3439   9.3439   9.3544
     9.4337   9.4705   9.5108   9.5524   9.5814   9.5957   9.6312   9.7462
     9.8187   9.9029   9.9078   9.9550  10.6134  11.0159  11.0167  11.1558
    11.1622  11.2716  11.2934  11.3459  11.3930  11.4771  11.6238  11.7628
    11.9697  11.9726  12.0923  12.3416  12.4231  12.6019  12.7312  13.0387
    13.6744  13.9593

          k = 0.1667 0.2887 0.0000 (  4425 PWs)   bands (ev):

   -34.6833 -34.6830 -34.6397 -34.6190 -34.5957 -34.5717 -34.5358 -34.4942
   -34.4833 -34.4477 -34.3893 -34.3739 -34.3690 -34.3270 -34.3120 -34.3020
   -34.2839 -34.2635 -34.2619 -34.2515 -34.1951 -34.1231 -34.1229 -33.9432
   -33.9430 -33.8985 -33.8985   6.7802   6.8528   7.0107   7.2376   7.5025
     7.7252   7.7385   7.7614   7.8514   7.8523   7.9676   7.9824   8.0696
     8.2131   8.3240   8.4200   8.8356   8.8792   8.9305   9.0162   9.1920
     9.3250   9.3524   9.3731   9.4629   9.5282  10.0730  10.0796  10.2277
    10.3123  10.4659  10.5210  10.9164  10.9318  11.0064  11.2006  11.4081
    11.5061  11.6596  11.8064  12.0237  12.1174  12.2066  12.3571  12.3631
    12.4124  12.4752  12.5607  12.5909  13.3398  14.3169  15.3975  16.5426
    17.6403  18.5944

          k = 0.1667 0.4170 0.0000 (  4459 PWs)   bands (ev):

   -34.7214 -34.7183 -34.6948 -34.6872 -34.6588 -34.6445 -34.6130 -34.5807
   -34.5387 -34.4707 -34.4462 -34.4448 -34.4056 -34.3736 -34.3657 -34.3599
   -34.3361 -34.3280 -34.2984 -34.2765 -34.2288 -34.2171 -34.2160 -34.0052
   -34.0050 -33.8918 -33.8914   6.9418   7.0017   7.0765   7.1760   7.2631
     7.3408   7.4792   7.4866   7.5686   7.7250   7.7979   8.0394   8.1269
     8.3357   8.4425   8.6441   8.8389   8.8912   9.0440   9.1490   9.2414
     9.4598   9.5724   9.7980   9.8797   9.9977  10.0663  10.2228  10.3689
    10.4894  10.7858  11.0104  11.1092  11.1675  11.3288  11.3998  11.6862
    11.7571  12.0467  12.5172  12.6027  12.7273  12.7949  12.8507  13.0038
    14.0081  14.1393  14.2269  14.4717  15.0410  15.9377  17.0231  18.1893
    19.3488  20.4174

          k = 0.1667 0.5453 0.0000 (  4490 PWs)   bands (ev):

   -34.7783 -34.7741 -34.7388 -34.7233 -34.7108 -34.6811 -34.6691 -34.5408
   -34.5343 -34.4919 -34.4861 -34.4605 -34.4429 -34.4184 -34.3905 -34.3771
   -34.3624 -34.3378 -34.3223 -34.2865 -34.2627 -34.2617 -34.2571 -34.0388
   -34.0387 -33.8879 -33.8878   6.6296   6.8181   6.9173   7.0682   7.0975
     7.1350   7.2057   7.4037   7.4845   7.5301   7.7809   7.8803   7.9958
     8.2325   8.3238   8.5308   8.6852   8.9838   9.2492   9.3382   9.5120
     9.7225   9.8128   9.8653  10.1593  10.2283  10.3043  10.6581  10.7572
    11.0858  11.1097  11.2142  11.4824  11.7707  11.9319  12.0391  12.1441
    12.2206  12.3640  12.5089  12.5688  12.6414  12.7961  12.9138  13.0065
    15.8389  16.1463  16.5003  16.8086  17.1264  17.5238  17.9409  18.2400
    18.3968  20.3382

          k = 0.1667-0.4811 0.0000 (  4476 PWs)   bands (ev):

   -34.7580 -34.7536 -34.7226 -34.7101 -34.6935 -34.6669 -34.6502 -34.5566
   -34.5378 -34.4773 -34.4714 -34.4652 -34.4236 -34.4004 -34.3812 -34.3790
   -34.3513 -34.3376 -34.3111 -34.2845 -34.2498 -34.2467 -34.2422 -34.0271
   -34.0270 -33.8892 -33.8891   6.7407   6.9066   6.9484   7.1282   7.1584
     7.1750   7.3166   7.4467   7.5088   7.6051   7.7921   7.9424   8.0456
     8.2413   8.4046   8.6365   8.7839   8.8548   9.1982   9.2473   9.5393
     9.6187   9.7447   9.8993   9.9909  10.0391  10.2837  10.5001  10.6673
    10.8456  10.8929  11.0593  11.3793  11.5942  11.6663  11.7329  11.8434
    11.8918  12.1750  12.5464  12.6627  12.7583  12.8547  12.9660  13.1000
    14.9655  15.1645  15.3736  15.6565  16.1564  16.9045  17.8270  18.7939
    19.6345  20.5946

          k = 0.1667-0.3528 0.0000 (  4458 PWs)   bands (ev):

   -34.6861 -34.6852 -34.6593 -34.6573 -34.6222 -34.6195 -34.5888 -34.5599
   -34.5222 -34.4665 -34.4136 -34.4103 -34.3927 -34.3500 -34.3358 -34.3307
   -34.3144 -34.3038 -34.2827 -34.2648 -34.2106 -34.1750 -34.1747 -33.9758
   -33.9756 -33.8952 -33.8952   7.0335   7.1223   7.1757   7.2477   7.3657
     7.4504   7.5443   7.6245   7.6814   7.7932   7.9667   8.0934   8.1850
     8.2660   8.4126   8.5847   8.6932   8.8047   8.9762   9.1436   9.2261
     9.2669   9.3266   9.5263   9.6712   9.7298   9.9911  10.0046  10.1948
    10.4743  10.5940  10.7102  10.8872  11.0919  11.1537  11.2946  11.5747
    11.6393  11.8949  12.3112  12.3674  12.4947  12.5377  12.6068  12.7778
    13.1129  13.1877  13.2413  13.3983  14.0449  15.0333  16.1554  17.3377
    18.4886  19.5297

          k = 0.1667-0.2245 0.0000 (  4433 PWs)   bands (ev):

   -34.7077 -34.6999 -34.6395 -34.5846 -34.5457 -34.5131 -34.4735 -34.4358
   -34.4251 -34.4117 -34.3667 -34.3414 -34.3394 -34.3123 -34.2888 -34.2733
   -34.2562 -34.2470 -34.2334 -34.2199 -34.1845 -34.0671 -34.0670 -33.9131
   -33.9130 -33.9026 -33.9025   6.2407   6.4223   6.7320   7.1209   7.4194
     7.4702   7.6129   7.7247   7.8467   7.9443   8.0726   8.1539   8.1831
     8.2947   8.4231   8.5841   8.6342   8.8715   9.1322   9.1857   9.2767
     9.4013   9.4614   9.5677   9.6608   9.6965   9.8945  10.0215  10.1820
    10.4117  10.4220  10.5270  10.6294  10.7147  10.8788  10.8985  11.0298
    11.1674  11.2094  11.4676  11.5227  11.5790  11.8610  11.9001  11.9063
    12.0701  12.2205  12.4156  12.5669  12.8892  13.7512  14.7460  15.8247
    16.8442  17.6729

          k = 0.1667-0.0962 0.0000 (  4427 PWs)   bands (ev):

   -34.7534 -34.7337 -34.6508 -34.5491 -34.4662 -34.4107 -34.3806 -34.3465
   -34.3360 -34.3193 -34.3055 -34.3051 -34.2878 -34.2647 -34.2607 -34.2398
   -34.2304 -34.2205 -34.1900 -34.1800 -34.1687 -33.9697 -33.9695 -33.9096
   -33.9094 -33.8742 -33.8740   5.4154   5.6777   6.1117   6.6334   6.9636
     6.9690   7.1127   7.3482   7.3965   8.2089   8.4310   8.5615   8.6229
     8.6934   8.7465   8.8523   8.8980   9.3344   9.3785   9.4887   9.6025
     9.6197   9.6409   9.7306   9.7512   9.8410   9.8627   9.9198   9.9932
    10.0066  10.0544  10.0576  10.2305  10.3307  10.4372  10.5484  10.7142
    10.7413  10.9097  11.0083  11.1561  11.2697  11.4987  11.5186  11.7038
    12.0087  12.0926  12.3752  12.6456  12.7856  12.8489  13.7309  14.6854
    15.5498  16.1384

          k = 0.2778 0.4811 0.0000 (  4485 PWs)   bands (ev):

   -34.7214 -34.7209 -34.6918 -34.6896 -34.6555 -34.6529 -34.6152 -34.6002
   -34.5745 -34.5367 -34.5119 -34.5110 -34.4696 -34.4497 -34.4308 -34.4216
   -34.3645 -34.3446 -34.3265 -34.2973 -34.2652 -34.2259 -34.2258 -34.0978
   -34.0976 -33.8867 -33.8866   7.1664   7.1820   7.2874   7.3391   7.4231
     7.5815   7.7636   7.8653   7.9393   7.9694   8.0645   8.0801   8.1679
     8.2081   8.3536   8.4018   8.6755   8.7748   8.9151   9.0487   9.2075
     9.3660   9.5621   9.6548   9.8841   9.8913  10.1031  10.1057  10.5772
    10.6587  10.7338  10.8526  11.0861  11.1212  11.3019  11.3274  11.6400
    11.8949  12.2209  12.5082  12.6835  12.7009  12.7020  12.8407  12.9962
    16.3311  16.4547  16.7227  17.1467  17.7308  18.4822  19.3593  20.2475
    20.7050  20.7890

          k = 0.2778 0.6094 0.0000 (  4491 PWs)   bands (ev):

   -34.7142 -34.7102 -34.6804 -34.6759 -34.6513 -34.6433 -34.6319 -34.6061
   -34.5834 -34.5616 -34.5379 -34.5294 -34.5080 -34.4769 -34.4452 -34.4347
   -34.3538 -34.3446 -34.3244 -34.3017 -34.2847 -34.2182 -34.2179 -34.1296
   -34.1294 -33.8854 -33.8852   7.1329   7.2941   7.3920   7.5139   7.5396
     7.6376   7.7294   7.8477   7.8941   7.9328   7.9951   8.0703   8.1807
     8.2233   8.3192   8.4624   8.5479   8.9001   8.9413   9.1727   9.2595
     9.3757   9.4498   9.6442   9.8107   9.8594  10.1533  10.1633  10.5485
    10.6626  10.8356  10.9588  11.0521  11.1726  11.3307  11.3801  11.9590
    12.1092  12.2917  12.3786  12.4934  12.5421  12.5920  12.6480  12.7733
    17.5309  17.7070  18.0119  18.3891  18.7331  19.0382  19.4022  19.8091
    20.2277  20.3460

          k = 0.2778-0.4170 0.0000 (  4462 PWs)   bands (ev):

   -34.7276 -34.7248 -34.6989 -34.6883 -34.6665 -34.6495 -34.6265 -34.5814
   -34.5504 -34.4955 -34.4842 -34.4827 -34.4355 -34.4087 -34.4007 -34.3845
   -34.3652 -34.3435 -34.3230 -34.2861 -34.2447 -34.2269 -34.2268 -34.0526
   -34.0523 -33.8887 -33.8884   7.0215   7.1505   7.1717   7.2970   7.3595
     7.4789   7.5829   7.6749   7.7445   7.8670   8.0794   8.0908   8.1799
     8.3064   8.5216   8.5224   8.5763   8.7292   8.9393   9.0071   9.2446
     9.3786   9.5393   9.7611   9.9101   9.9417  10.1228  10.1559  10.3318
    10.5121  10.7658  10.9088  11.0750  11.1842  11.3197  11.3720  11.5416
    11.7104  12.1325  12.5472  12.7559  12.7883  12.8519  12.9443  13.1018
    15.1640  15.2447  15.4234  15.7730  16.3470  17.1615  18.1512  19.2208
    20.2745  21.1703

          k = 0.2778-0.2887 0.0000 (  4463 PWs)   bands (ev):

   -34.7041 -34.7033 -34.6831 -34.6805 -34.6410 -34.6292 -34.5885 -34.5751
   -34.5300 -34.4612 -34.4087 -34.4039 -34.3890 -34.3496 -34.3377 -34.3288
   -34.3174 -34.2853 -34.2698 -34.2559 -34.2167 -34.1963 -34.1956 -33.9634
   -33.9633 -33.8949 -33.8947   6.7795   6.9102   6.9618   7.0035   7.1537
     7.1874   7.2524   7.3543   7.4636   7.6098   7.7673   7.9869   8.0282
     8.3359   8.5225   8.8393   8.9092   9.1403   9.1902   9.3039   9.3863
     9.5127   9.6381   9.7256   9.8324  10.0615  10.1601  10.3401  10.5195
    10.5316  10.7483  10.9810  11.1717  11.2477  11.2825  11.4617  11.7678
    11.7906  12.0750  12.2386  12.3679  12.4359  12.5398  12.6329  12.8056
    12.9540  13.1457  13.1746  13.3119  13.9493  14.9677  16.1345  17.3570
    18.5443  19.6047

          k = 0.2778-0.1604 0.0000 (  4458 PWs)   bands (ev):

   -34.6991 -34.6896 -34.6417 -34.6290 -34.6027 -34.5741 -34.5304 -34.4919
   -34.4811 -34.4356 -34.3775 -34.3526 -34.3521 -34.3233 -34.3092 -34.2831
   -34.2678 -34.2596 -34.2260 -34.2077 -34.2016 -34.1285 -34.1282 -33.9148
   -33.9147 -33.9008 -33.9006   6.3961   6.5692   6.7826   6.9028   6.9595
     7.1341   7.3416   7.3948   7.5579   7.7079   7.8624   7.9508   8.1820
     8.4903   8.7212   8.8505   9.0360   9.1881   9.3388   9.4833   9.5631
     9.6204   9.6649   9.7703   9.9001  10.0622  10.1554  10.3312  10.4367
    10.4487  10.6129  10.6892  10.8651  11.0578  11.1207  11.2260  11.2538
    11.3045  11.4135  11.4411  11.6006  11.7244  11.8401  11.9564  11.9602
    12.0944  12.4101  12.6960  12.8464  12.8561  13.9163  15.0771  16.2660
    17.3725  18.2912

          k = 0.3889 0.6736 0.0000 (  4511 PWs)   bands (ev):

   -34.7500 -34.7455 -34.7095 -34.6976 -34.6820 -34.6605 -34.6474 -34.5649
   -34.5609 -34.5228 -34.5216 -34.4974 -34.4844 -34.4520 -34.4278 -34.4036
   -34.3549 -34.3532 -34.3293 -34.2928 -34.2732 -34.2435 -34.2435 -34.0881
   -34.0880 -33.8865 -33.8863   6.8557   7.0386   7.2439   7.3519   7.3663
     7.4464   7.5504   7.6160   7.7080   7.7815   7.9700   7.9990   8.1722
     8.3109   8.3539   8.4127   8.5066   8.7395   9.0189   9.1874   9.4456
     9.5877   9.6885   9.8333   9.8941  10.1382  10.2396  10.3689  10.6004
    10.6497  10.7024  11.0234  11.2754  11.4697  11.6195  11.7196  12.1379
    12.1962  12.2777  12.3704  12.5223  12.5306  12.7103  12.7883  12.8192
    17.0499  17.2577  17.5065  17.7409  17.9807  18.2562  18.5855  18.9012
    19.1533  20.4837

          k = 0.3889-0.3528 0.0000 (  4485 PWs)   bands (ev):

   -34.7917 -34.7869 -34.7533 -34.7386 -34.7239 -34.6939 -34.6779 -34.5417
   -34.5334 -34.4556 -34.4483 -34.4361 -34.4056 -34.3823 -34.3786 -34.3612
   -34.3491 -34.3106 -34.3012 -34.2790 -34.2681 -34.2635 -34.2449 -33.9960
   -33.9959 -33.8901 -33.8900   6.4694   6.6433   6.6544   6.8116   6.8527
     6.9224   6.9730   7.1756   7.2669   7.2817   7.5818   7.6365   7.7982
     8.2089   8.4752   8.7447   8.9344   9.2116   9.3253   9.4626   9.5106
     9.6444   9.8755  10.0838  10.2063  10.4636  10.6686  10.7929  11.0525
    11.2763  11.5495  11.5932  11.7040  11.9964  12.1832  12.2313  12.2680
    12.2964  12.3836  12.5788  12.6407  12.7413  12.8359  12.9803  13.1037
    14.5663  14.9353  15.3209  15.5622  15.8489  16.4263  17.2048  17.9720
    18.5301  20.2825

          k = 0.3889-0.2245 0.0000 (  4444 PWs)   bands (ev):

   -34.7672 -34.7629 -34.7345 -34.7291 -34.6997 -34.6790 -34.6432 -34.5607
   -34.5376 -34.4555 -34.3990 -34.3933 -34.3924 -34.3581 -34.3503 -34.3203
   -34.3053 -34.2935 -34.2578 -34.2573 -34.2485 -34.2330 -34.2315 -33.9502
   -33.9499 -33.8937 -33.8931   6.4279   6.4676   6.5566   6.6642   6.7552
     6.7948   6.9131   6.9768   7.1069   7.2655   7.4351   7.5000   7.7940
     8.3052   8.6618   9.0121   9.1997   9.2728   9.3699   9.5461   9.5635
     9.7298   9.8944  10.1543  10.3312  10.3993  10.8198  10.9379  11.1241
    11.4737  11.6091  11.9354  11.9551  12.1833  12.2281  12.2945  12.3214
    12.3845  12.4087  12.4896  12.5251  12.5980  12.6596  12.7539  12.8629
    12.8852  12.9640  13.2521  13.2903  13.8463  14.9865  16.2542  17.5344
    18.7752  20.0228

          k =-0.5000-0.8660 0.0000 (  4492 PWs)   bands (ev):

   -34.8238 -34.8199 -34.7862 -34.7660 -34.7573 -34.7196 -34.7095 -34.5389
   -34.5367 -34.4182 -34.4103 -34.4088 -34.4000 -34.3947 -34.3669 -34.3348
   -34.3322 -34.3069 -34.2982 -34.2869 -34.2708 -34.2496 -34.2434 -33.9642
   -33.9642 -33.8914 -33.8912   6.1942   6.3607   6.3759   6.5466   6.5742
     6.6274   6.7257   6.8873   6.9336   7.0776   7.2828   7.3000   7.6412
     8.1985   8.6167   8.8766   9.0624   9.1442   9.2613   9.4463   9.8144
     9.9067   9.9513  10.3515  10.5810  10.6243  10.9370  11.4484  11.4766
    11.5453  12.1146  12.3202  12.3584  12.4953  12.6752  12.7638  12.7678
    12.8094  12.8647  12.9176  12.9403  12.9894  13.0876  13.2342  13.2393
    13.4664  14.3478  15.1716  15.6666  15.8463  16.1061  16.2911  16.4357
    16.4945  19.9514

     the Fermi energy is    12.2124 ev

!    total energy              =   -1540.61891062 Ry
     estimated scf accuracy    <       0.00000008 Ry
     smearing contrib. (-TS)   =      -0.03833055 Ry
     internal energy E=F+TS    =   -1540.58058007 Ry

     The total energy is F=E-TS. E is the sum of the following terms:
     one-electron contribution =  -10665.52113373 Ry
     hartree contribution      =    5410.66844221 Ry
     xc contribution           =    -269.23950519 Ry
     ewald contribution        =    3983.51161664 Ry

     total magnetization       =    -0.00 Bohr mag/cell
     absolute magnetization    =     0.00 Bohr mag/cell

     convergence has been achieved in   9 iterations

     negative rho (up, down):  2.529E-01 2.529E-01

     Forces acting on atoms (cartesian axes, Ry/au):

     atom    1 type  1   force =     0.00000000    0.00000000   -0.00004563
     atom    2 type  1   force =     0.00000000    0.00000000    0.00191509
     atom    3 type  1   force =     0.00000000    0.00000000    0.00021618
     atom    4 type  1   force =     0.00000000    0.00000000   -0.00114048
     atom    5 type  1   force =     0.00000000    0.00000000   -0.00000029
     atom    6 type  1   force =     0.00000000    0.00000000    0.00113756
     atom    7 type  1   force =     0.00000000    0.00000000   -0.00021559
     atom    8 type  1   force =     0.00000000    0.00000000   -0.00191277
     atom    9 type  1   force =     0.00000000    0.00000000    0.00004592

     Total force =     0.003165     Total SCF correction =     0.002565
     SCF correction compared to forces is large: reduce conv_thr to get better values
     Energy error            =      2.1E-05
     Gradient error          =      1.9E-03

     number of scf cycles    =   6
     number of bfgs steps    =   5

     energy   old            =   -1540.6188900006 Ry
     energy   new            =   -1540.6189106186 Ry

     CASE: energy  _new < energy  _old

     new trust radius        =       0.0047403125 bohr
     new conv_thr            =       0.0000001000 Ry


ATOMIC_POSITIONS (angstrom)
Rh            0.0000000000        0.0000000000        0.0329411587
Rh            1.3554284000       -0.7825569000        2.2054090100
Rh            1.3554284000        0.7825569000        4.4069066341
Rh            0.0000000000        0.0000000000        6.6344814017
Rh            1.3554284000       -0.7825569000        8.8536163485
Rh            1.3554284000        0.7825569000       11.0727486615
Rh            0.0000000000        0.0000000000       13.3003340678
Rh            1.3554284000       -0.7825569000       15.5018449713
Rh            1.3554284000        0.7825569000       17.6743081463



     Writing output data file /home/STUDENTI/leonardo.razzai/Rh_work/surf_111/9-L.save/
     NEW-OLD atomic charge density approx. for the potential

     negative rho (up, down):  2.526E-01 2.526E-01
     Generating pointlists ...

     total cpu time spent up to now is      741.6 secs

     Self-consistent Calculation

     iteration #  1     ecut=    35.00 Ry     beta= 0.40
     Davidson diagonalization with overlap
     ethr =  1.00E-06,  avg # of iterations =  4.6

     negative rho (up, down):  2.527E-01 2.527E-01

     total cpu time spent up to now is      762.1 secs

     total energy              =   -1540.61874271 Ry
     estimated scf accuracy    <       0.00517831 Ry

     total magnetization       =    -0.00 Bohr mag/cell
     absolute magnetization    =     0.00 Bohr mag/cell

     iteration #  2     ecut=    35.00 Ry     beta= 0.40
     Davidson diagonalization with overlap
     ethr =  3.84E-06,  avg # of iterations =  1.0

     negative rho (up, down):  2.527E-01 2.527E-01

     total cpu time spent up to now is      772.6 secs

     total energy              =   -1540.61888276 Ry
     estimated scf accuracy    <       0.00146498 Ry

     total magnetization       =     0.00 Bohr mag/cell
     absolute magnetization    =     0.00 Bohr mag/cell

     iteration #  3     ecut=    35.00 Ry     beta= 0.40
     Davidson diagonalization with overlap
     ethr =  1.09E-06,  avg # of iterations =  1.0

     negative rho (up, down):  2.527E-01 2.527E-01

     total cpu time spent up to now is      783.0 secs

     total energy              =   -1540.61893034 Ry
     estimated scf accuracy    <       0.00016993 Ry

     total magnetization       =     0.00 Bohr mag/cell
     absolute magnetization    =     0.00 Bohr mag/cell

     iteration #  4     ecut=    35.00 Ry     beta= 0.40
     Davidson diagonalization with overlap
     ethr =  1.26E-07,  avg # of iterations =  1.0

     negative rho (up, down):  2.527E-01 2.527E-01

     total cpu time spent up to now is      793.5 secs

     total energy              =   -1540.61892380 Ry
     estimated scf accuracy    <       0.00009692 Ry

     total magnetization       =     0.00 Bohr mag/cell
     absolute magnetization    =     0.00 Bohr mag/cell

     iteration #  5     ecut=    35.00 Ry     beta= 0.40
     Davidson diagonalization with overlap
     ethr =  7.18E-08,  avg # of iterations =  1.0

     negative rho (up, down):  2.527E-01 2.527E-01

     total cpu time spent up to now is      803.9 secs

     total energy              =   -1540.61892698 Ry
     estimated scf accuracy    <       0.00000109 Ry

     total magnetization       =     0.00 Bohr mag/cell
     absolute magnetization    =     0.00 Bohr mag/cell

     iteration #  6     ecut=    35.00 Ry     beta= 0.40
     Davidson diagonalization with overlap
     ethr =  8.08E-10,  avg # of iterations =  2.1

     negative rho (up, down):  2.527E-01 2.527E-01

     total cpu time spent up to now is      816.1 secs

     total energy              =   -1540.61892706 Ry
     estimated scf accuracy    <       0.00000065 Ry

     total magnetization       =     0.00 Bohr mag/cell
     absolute magnetization    =     0.00 Bohr mag/cell

     iteration #  7     ecut=    35.00 Ry     beta= 0.40
     Davidson diagonalization with overlap
     ethr =  4.80E-10,  avg # of iterations =  1.0

     negative rho (up, down):  2.527E-01 2.527E-01

     total cpu time spent up to now is      826.5 secs

     total energy              =   -1540.61892709 Ry
     estimated scf accuracy    <       0.00000050 Ry

     total magnetization       =    -0.00 Bohr mag/cell
     absolute magnetization    =     0.00 Bohr mag/cell

     iteration #  8     ecut=    35.00 Ry     beta= 0.40
     Davidson diagonalization with overlap
     ethr =  3.71E-10,  avg # of iterations =  1.0

     negative rho (up, down):  2.527E-01 2.527E-01

     total cpu time spent up to now is      837.0 secs

     total energy              =   -1540.61892716 Ry
     estimated scf accuracy    <       0.00000051 Ry

     total magnetization       =    -0.00 Bohr mag/cell
     absolute magnetization    =     0.00 Bohr mag/cell

     iteration #  9     ecut=    35.00 Ry     beta= 0.40
     Davidson diagonalization with overlap
     ethr =  3.71E-10,  avg # of iterations =  1.2

     negative rho (up, down):  2.527E-01 2.527E-01

     total cpu time spent up to now is      847.6 secs

     total energy              =   -1540.61892722 Ry
     estimated scf accuracy    <       0.00000033 Ry

     total magnetization       =    -0.00 Bohr mag/cell
     absolute magnetization    =     0.00 Bohr mag/cell

     iteration # 10     ecut=    35.00 Ry     beta= 0.40
     Davidson diagonalization with overlap
     ethr =  2.42E-10,  avg # of iterations =  1.0

     negative rho (up, down):  2.527E-01 2.527E-01
 
     Magnetic moment per site:
     atom:    1    charge:   13.1086    magn:   -0.0000    constr:    0.0000
     atom:    2    charge:   13.1651    magn:   -0.0000    constr:    0.0000
     atom:    3    charge:   13.1608    magn:   -0.0000    constr:    0.0000
     atom:    4    charge:   13.1560    magn:   -0.0000    constr:    0.0000
     atom:    5    charge:   13.1578    magn:   -0.0000    constr:    0.0000
     atom:    6    charge:   13.1562    magn:   -0.0000    constr:    0.0000
     atom:    7    charge:   13.1602    magn:   -0.0000    constr:    0.0000
     atom:    8    charge:   13.1657    magn:   -0.0000    constr:    0.0000
     atom:    9    charge:   13.1087    magn:    0.0000    constr:    0.0000

     total cpu time spent up to now is      857.9 secs

     End of self-consistent calculation

 ------ SPIN UP ------------


          k = 0.0556 0.0962 0.0000 (  4451 PWs)   bands (ev):

   -34.7870 -34.7633 -34.6630 -34.5399 -34.4253 -34.3285 -34.3116 -34.2900
   -34.2857 -34.2846 -34.2607 -34.2526 -34.2321 -34.2304 -34.2212 -34.2123
   -34.1952 -34.1910 -34.1694 -34.1681 -34.1549 -33.9165 -33.9161 -33.8850
   -33.8848 -33.8533 -33.8532   4.8385   5.1256   5.6068   6.1701   6.5389
     6.6200   6.6274   6.9072   6.9309   8.7056   8.7474   8.8973   8.9801
     9.0032   9.0683   9.1603   9.2532   9.3511   9.4282   9.4452   9.4800
     9.4898   9.5328   9.5438   9.5861   9.6251   9.6749   9.7315   9.7859
     9.7947   9.8500  10.0441  10.0561  10.2544  10.8184  10.8826  10.8864
    11.0485  11.0882  11.2487  11.3106  11.3832  11.4526  11.5557  11.6358
    11.8094  11.9460  12.2424  12.3695  12.5636  12.6815  12.9351  13.6451
    14.3492  14.7325

          k = 0.0556 0.2245 0.0000 (  4420 PWs)   bands (ev):

   -34.7352 -34.7224 -34.6419 -34.5611 -34.5000 -34.4563 -34.4192 -34.3878
   -34.3702 -34.3637 -34.3305 -34.3188 -34.3168 -34.2905 -34.2691 -34.2528
   -34.2412 -34.2323 -34.2064 -34.1885 -34.1761 -34.0113 -34.0110 -33.9048
   -33.9046 -33.8862 -33.8861   5.7622   5.9932   6.3890   6.8629   7.1414
     7.1782   7.3505   7.5638   7.6419   8.0234   8.2405   8.3950   8.4120
     8.5156   8.5846   8.7089   8.7662   9.1348   9.3187   9.4052   9.4933
     9.5721   9.6681   9.6917   9.7174   9.8078   9.8390   9.9948  10.1173
    10.1619  10.2268  10.3739  10.4491  10.5338  10.5694  10.6275  10.7261
    10.8395  10.9251  11.0534  11.1464  11.4567  11.5674  11.6034  11.7796
    12.0124  12.1865  12.5286  12.5457  12.7015  13.2638  14.1810  15.1910
    16.1291  16.8241

          k = 0.0556 0.3528 0.0000 (  4467 PWs)   bands (ev):

   -34.6999 -34.6923 -34.6624 -34.6615 -34.6164 -34.6103 -34.5690 -34.5315
   -34.5126 -34.4511 -34.3888 -34.3727 -34.3707 -34.3314 -34.3232 -34.3011
   -34.2859 -34.2662 -34.2470 -34.2218 -34.2072 -34.1641 -34.1637 -33.9301
   -33.9300 -33.8960 -33.8959   6.5644   6.7398   6.8752   6.9218   6.9557
     7.1204   7.2027   7.3423   7.4334   7.6512   7.7553   7.9354   8.0634
     8.4315   8.7036   8.8565   9.0548   9.1914   9.3506   9.4617   9.5403
     9.5593   9.5871   9.7734   9.8531  10.1242  10.1769  10.4113  10.5516
    10.5927  10.7149  10.8791  11.0896  11.2649  11.3554  11.4158  11.5108
    11.6967  11.7439  11.7941  11.9546  12.0975  12.1595  12.2929  12.3384
    12.3945  12.4300  12.6273  12.7944  13.2377  14.3110  15.5010  16.7264
    17.8853  18.8806

          k = 0.0556 0.4811 0.0000 (  4463 PWs)   bands (ev):

   -34.7887 -34.7847 -34.7516 -34.7429 -34.7182 -34.6919 -34.6664 -34.5509
   -34.5372 -34.4493 -34.4167 -34.4114 -34.3951 -34.3678 -34.3589 -34.3365
   -34.3250 -34.2954 -34.2813 -34.2658 -34.2611 -34.2459 -34.2350 -33.9630
   -33.9628 -33.8897 -33.8894   6.3896   6.4969   6.5337   6.6851   6.7216
     6.7939   6.8729   7.0161   7.1093   7.2183   7.4460   7.4889   7.7532
     8.2491   8.5935   8.9183   9.1066   9.2653   9.3189   9.5160   9.5524
     9.7359   9.9195  10.2350  10.2872  10.4624  10.8885  10.9764  11.1065
    11.5387  11.6220  11.9080  11.9742  12.0914  12.3186  12.3903  12.4346
    12.4654  12.5110  12.5491  12.6265  12.6728  12.8043  12.8987  13.0267
    13.3773  13.7971  14.1886  14.3189  14.6264  15.4833  16.5940  17.7343
    18.7607  20.2454

          k = 0.0556-0.5453 0.0000 (  4486 PWs)   bands (ev):

   -34.8172 -34.8125 -34.7773 -34.7616 -34.7466 -34.7115 -34.6994 -34.5393
   -34.5356 -34.4332 -34.4246 -34.4157 -34.3981 -34.3858 -34.3690 -34.3430
   -34.3377 -34.3034 -34.2964 -34.2837 -34.2750 -34.2497 -34.2453 -33.9707
   -33.9704 -33.8885 -33.8883   6.2687   6.4322   6.4468   6.6095   6.6443
     6.7102   6.7772   6.9655   7.0236   7.1292   7.3687   7.3881   7.6795
     8.2081   8.5791   8.8379   9.0363   9.1955   9.2760   9.4684   9.7011
     9.8069   9.9111  10.4160  10.4434  10.4593  11.0351  11.1731  11.2666
    11.6681  11.8871  12.1313  12.2196  12.3599  12.4465  12.5810  12.6481
    12.6926  12.7356  12.7787  12.8225  12.8539  12.9509  13.0477  13.1305
    13.9783  14.5788  15.2392  15.6998  15.7474  15.9176  16.4507  17.0253
    17.4146  20.0424

          k = 0.0556-0.4170 0.0000 (  4465 PWs)   bands (ev):

   -34.7376 -34.7354 -34.7136 -34.7083 -34.6708 -34.6514 -34.6100 -34.5732
   -34.5366 -34.4579 -34.4031 -34.3956 -34.3882 -34.3490 -34.3444 -34.3218
   -34.3067 -34.2818 -34.2649 -34.2370 -34.2308 -34.2229 -34.2168 -33.9492
   -33.9490 -33.8923 -33.8921   6.5678   6.6090   6.7158   6.7605   6.9012
     6.9442   7.0389   7.0971   7.2501   7.3994   7.5716   7.6882   7.8838
     8.3370   8.6317   8.9878   9.2494   9.2875   9.3742   9.4145   9.5599
     9.6185   9.7691  10.0224  10.0615  10.3065  10.5088  10.6283  10.9696
    11.0728  11.2681  11.3985  11.4927  11.7737  11.8688  11.9481  12.0163
    12.0835  12.1590  12.2535  12.3283  12.4788  12.5203  12.6642  12.7443
    12.8862  12.9839  13.1033  13.1695  13.8041  14.8991  16.1398  17.4172
    18.6552  19.7737

          k = 0.0556-0.2887 0.0000 (  4439 PWs)   bands (ev):

   -34.7066 -34.6997 -34.6374 -34.6013 -34.5703 -34.5362 -34.4950 -34.4592
   -34.4440 -34.4202 -34.3682 -34.3455 -34.3454 -34.3140 -34.2960 -34.2763
   -34.2630 -34.2502 -34.2268 -34.2045 -34.1902 -34.0897 -34.0896 -33.9081
   -33.9081 -33.9000 -33.8997   6.2895   6.4605   6.7312   7.0094   7.1247
     7.2541   7.4852   7.5571   7.7730   7.8165   8.0364   8.0748   8.2716
     8.4324   8.4860   8.6838   8.9018   8.9236   9.2179   9.4522   9.5549
     9.6079   9.6540   9.6995   9.8032   9.8455   9.9870  10.0480  10.1748
    10.3129  10.5679  10.5833  10.6447  10.7759  10.9211  10.9450  11.1172
    11.1704  11.2188  11.4309  11.5232  11.6259  11.8213  11.8545  11.9307
    12.1450  12.2662  12.5688  12.7360  12.8497  13.7685  14.8405  15.9700
    17.0245  17.8830

          k = 0.0556-0.1604 0.0000 (  4443 PWs)   bands (ev):

   -34.7650 -34.7455 -34.6529 -34.5449 -34.4505 -34.3839 -34.3574 -34.3257
   -34.3158 -34.3091 -34.2966 -34.2889 -34.2710 -34.2589 -34.2453 -34.2302
   -34.2224 -34.2109 -34.1863 -34.1759 -34.1649 -33.9422 -33.9420 -33.9085
   -33.9084 -33.8674 -33.8672   5.2353   5.5055   5.9633   6.5090   6.8553
     6.9086   6.9612   7.2241   7.2553   8.3970   8.5139   8.6425   8.7291
     8.7924   8.8267   8.8922   9.0182   9.2698   9.3352   9.5031   9.5696
     9.5930   9.6178   9.6821   9.7278   9.7573   9.7909   9.8160   9.8534
     9.9416  10.0188  10.1055  10.2262  10.3283  10.3412  10.7150  10.7811
    10.8586  10.9583  10.9683  11.1402  11.3561  11.4278  11.5380  11.7361
    11.8214  12.2076  12.2331  12.5379  12.6652  12.8062  13.5327  14.4029
    15.2192  15.7467

          k = 0.0556-0.0321 0.0000 (  4465 PWs)   bands (ev):

   -34.7988 -34.7730 -34.6692 -34.5394 -34.4170 -34.2995 -34.2856 -34.2769
   -34.2761 -34.2756 -34.2366 -34.2264 -34.2230 -34.2127 -34.2045 -34.1957
   -34.1868 -34.1672 -34.1660 -34.1589 -34.1475 -33.9182 -33.9180 -33.8571
   -33.8570 -33.8460 -33.8458   4.6287   4.9218   5.4105   5.9775   6.3582
     6.4420   6.4544   6.7258   6.7462   8.8784   8.9275   9.0774   9.1228
     9.1403   9.1981   9.2783   9.2869   9.3273   9.3424   9.3430   9.3560
     9.4292   9.4710   9.5098   9.5535   9.5827   9.5973   9.6326   9.7475
     9.8208   9.9051   9.9100   9.9562  10.6160  11.0162  11.0174  11.1537
    11.1602  11.2725  11.2943  11.3465  11.3941  11.4777  11.6251  11.7646
    11.9705  11.9733  12.0935  12.3411  12.4250  12.6039  12.7326  13.0381
    13.6767  13.9612

          k = 0.1667 0.2887 0.0000 (  4425 PWs)   bands (ev):

   -34.6869 -34.6866 -34.6378 -34.6199 -34.5956 -34.5708 -34.5357 -34.4929
   -34.4829 -34.4478 -34.3895 -34.3747 -34.3695 -34.3265 -34.3117 -34.3035
   -34.2841 -34.2625 -34.2594 -34.2516 -34.1935 -34.1212 -34.1210 -33.9411
   -33.9409 -33.8963 -33.8963   6.7805   6.8496   7.0098   7.2363   7.5014
     7.7254   7.7360   7.7596   7.8466   7.8495   7.9669   7.9854   8.0707
     8.2150   8.3239   8.4213   8.8364   8.8802   8.9313   9.0171   9.1923
     9.3269   9.3531   9.3721   9.4600   9.5301  10.0746  10.0809  10.2271
    10.3131  10.4679  10.5226  10.9154  10.9311  11.0087  11.1981  11.4089
    11.5064  11.6606  11.8078  12.0246  12.1172  12.2072  12.3580  12.3640
    12.4145  12.4758  12.5617  12.5923  13.3411  14.3187  15.3995  16.5450
    17.6427  18.5966

          k = 0.1667 0.4170 0.0000 (  4459 PWs)   bands (ev):

   -34.7231 -34.7203 -34.6963 -34.6896 -34.6571 -34.6427 -34.6119 -34.5813
   -34.5395 -34.4692 -34.4469 -34.4456 -34.4055 -34.3740 -34.3662 -34.3597
   -34.3356 -34.3276 -34.2971 -34.2762 -34.2269 -34.2156 -34.2145 -34.0032
   -34.0029 -33.8895 -33.8890   6.9415   7.0016   7.0719   7.1712   7.2614
     7.3383   7.4797   7.4865   7.5688   7.7264   7.7987   8.0405   8.1278
     8.3363   8.4425   8.6449   8.8354   8.8905   9.0447   9.1491   9.2382
     9.4608   9.5731   9.7992   9.8810   9.9980  10.0684  10.2248  10.3694
    10.4914  10.7871  11.0109  11.1092  11.1694  11.3290  11.4001  11.6854
    11.7569  12.0483  12.5188  12.6036  12.7279  12.7962  12.8517  13.0047
    14.0087  14.1393  14.2277  14.4730  15.0423  15.9391  17.0249  18.1926
    19.3506  20.4194

          k = 0.1667 0.5453 0.0000 (  4490 PWs)   bands (ev):

   -34.7797 -34.7758 -34.7389 -34.7261 -34.7101 -34.6786 -34.6681 -34.5419
   -34.5353 -34.4931 -34.4872 -34.4583 -34.4419 -34.4183 -34.3916 -34.3775
   -34.3615 -34.3376 -34.3219 -34.2854 -34.2613 -34.2605 -34.2553 -34.0368
   -34.0367 -33.8855 -33.8854   6.6292   6.8124   6.9173   7.0674   7.0930
     7.1356   7.2014   7.4047   7.4858   7.5316   7.7821   7.8815   7.9976
     8.2331   8.3233   8.5262   8.6864   8.9837   9.2500   9.3375   9.5137
     9.7235   9.8125   9.8618  10.1616  10.2292  10.3055  10.6594  10.7584
    11.0870  11.1111  11.2149  11.4823  11.7712  11.9330  12.0398  12.1446
    12.2207  12.3646  12.5107  12.5697  12.6426  12.7975  12.9149  13.0075
    15.8396  16.1462  16.5013  16.8096  17.1275  17.5246  17.9413  18.2420
    18.3978  20.3469

          k = 0.1667-0.4811 0.0000 (  4476 PWs)   bands (ev):

   -34.7594 -34.7554 -34.7234 -34.7130 -34.6923 -34.6647 -34.6492 -34.5576
   -34.5390 -34.4777 -34.4724 -34.4637 -34.4231 -34.4006 -34.3825 -34.3782
   -34.3508 -34.3374 -34.3103 -34.2837 -34.2481 -34.2454 -34.2407 -34.0251
   -34.0249 -33.8868 -33.8867   6.7404   6.9014   6.9483   7.1235   7.1563
     7.1747   7.3141   7.4476   7.5100   7.6066   7.7930   7.9434   8.0472
     8.2421   8.4040   8.6325   8.7868   8.8530   9.1981   9.2469   9.5392
     9.6176   9.7454   9.8987   9.9921  10.0406  10.2855  10.5016  10.6689
    10.8470  10.8943  11.0594  11.3792  11.5946  11.6678  11.7331  11.8437
    11.8917  12.1765  12.5480  12.6635  12.7592  12.8558  12.9671  13.1010
    14.9661  15.1642  15.3747  15.6577  16.1576  16.9057  17.8284  18.7968
    19.6357  20.5960

          k = 0.1667-0.3528 0.0000 (  4458 PWs)   bands (ev):

   -34.6890 -34.6882 -34.6608 -34.6586 -34.6196 -34.6181 -34.5893 -34.5586
   -34.5222 -34.4657 -34.4143 -34.4111 -34.3927 -34.3493 -34.3373 -34.3313
   -34.3142 -34.3020 -34.2811 -34.2648 -34.2089 -34.1733 -34.1730 -33.9737
   -33.9735 -33.8929 -33.8929   7.0334   7.1207   7.1728   7.2440   7.3654
     7.4504   7.5402   7.6246   7.6815   7.7922   7.9688   8.0926   8.1867
     8.2640   8.4138   8.5855   8.6943   8.8048   8.9748   9.1419   9.2245
     9.2683   9.3280   9.5281   9.6725   9.7305   9.9927  10.0062  10.1941
    10.4771  10.5947  10.7116  10.8877  11.0918  11.1546  11.2942  11.5736
    11.6393  11.8961  12.3123  12.3684  12.4954  12.5386  12.6081  12.7788
    13.1135  13.1887  13.2414  13.3997  14.0463  15.0348  16.1573  17.3408
    18.4907  19.5318

          k = 0.1667-0.2245 0.0000 (  4433 PWs)   bands (ev):

   -34.7104 -34.7037 -34.6372 -34.5852 -34.5462 -34.5127 -34.4732 -34.4353
   -34.4238 -34.4127 -34.3667 -34.3424 -34.3403 -34.3119 -34.2877 -34.2744
   -34.2560 -34.2471 -34.2323 -34.2184 -34.1829 -34.0651 -34.0650 -33.9110
   -33.9109 -33.9005 -33.9004   6.2410   6.4186   6.7320   7.1208   7.4190
     7.4678   7.6105   7.7243   7.8464   7.9435   8.0709   8.1564   8.1821
     8.2960   8.4212   8.5856   8.6347   8.8723   9.1332   9.1864   9.2774
     9.4020   9.4629   9.5673   9.6569   9.6981   9.8950  10.0240  10.1814
    10.4124  10.4231  10.5277  10.6305  10.7129  10.8783  10.8982  11.0306
    11.1688  11.2104  11.4689  11.5237  11.5795  11.8617  11.9008  11.9072
    12.0705  12.2206  12.4179  12.5681  12.8904  13.7531  14.7480  15.8263
    16.8469  17.6750

          k = 0.1667-0.0962 0.0000 (  4427 PWs)   bands (ev):

   -34.7553 -34.7376 -34.6486 -34.5491 -34.4667 -34.4110 -34.3805 -34.3466
   -34.3356 -34.3197 -34.3067 -34.3064 -34.2882 -34.2642 -34.2585 -34.2405
   -34.2294 -34.2209 -34.1898 -34.1784 -34.1671 -33.9676 -33.9674 -33.9076
   -33.9074 -33.8720 -33.8718   5.4157   5.6739   6.1125   6.6338   6.9600
     6.9692   7.1132   7.3490   7.3974   8.2092   8.4283   8.5619   8.6231
     8.6909   8.7461   8.8510   8.9004   9.3359   9.3804   9.4893   9.6039
     9.6188   9.6405   9.7321   9.7450   9.8428   9.8621   9.9167   9.9944
    10.0078  10.0551  10.0590  10.2319  10.3324  10.4389  10.5493  10.7151
    10.7424  10.9118  11.0074  11.1552  11.2711  11.5002  11.5183  11.7050
    12.0093  12.0938  12.3744  12.6478  12.7869  12.8509  13.7328  14.6856
    15.5528  16.1405

          k = 0.2778 0.4811 0.0000 (  4485 PWs)   bands (ev):

   -34.7231 -34.7226 -34.6932 -34.6915 -34.6533 -34.6516 -34.6157 -34.6014
   -34.5751 -34.5351 -34.5124 -34.5109 -34.4690 -34.4482 -34.4314 -34.4227
   -34.3643 -34.3457 -34.3253 -34.2964 -34.2632 -34.2243 -34.2242 -34.0958
   -34.0957 -33.8842 -33.8842   7.1653   7.1820   7.2807   7.3356   7.4239
     7.5805   7.7608   7.8642   7.9409   7.9697   8.0645   8.0791   8.1677
     8.2050   8.3534   8.4033   8.6760   8.7753   8.9151   9.0503   9.2078
     9.3643   9.5638   9.6554   9.8853   9.8925  10.1052  10.1078  10.5778
    10.6608  10.7357  10.8543  11.0868  11.1219  11.3017  11.3274  11.6401
    11.8951  12.2223  12.5097  12.6844  12.7018  12.7027  12.8423  12.9971
    16.3319  16.4542  16.7238  17.1479  17.7320  18.4834  19.3606  20.2495
    20.7064  20.7897

          k = 0.2778 0.6094 0.0000 (  4491 PWs)   bands (ev):

   -34.7157 -34.7120 -34.6818 -34.6781 -34.6499 -34.6422 -34.6327 -34.6069
   -34.5828 -34.5605 -34.5379 -34.5297 -34.5067 -34.4756 -34.4459 -34.4352
   -34.3552 -34.3464 -34.3221 -34.3003 -34.2824 -34.2164 -34.2162 -34.1278
   -34.1276 -33.8830 -33.8827   7.1323   7.2881   7.3910   7.5096   7.5408
     7.6375   7.7268   7.8426   7.8946   7.9317   7.9947   8.0718   8.1807
     8.2235   8.3207   8.4621   8.5479   8.9009   8.9416   9.1737   9.2600
     9.3744   9.4504   9.6457   9.8121   9.8605  10.1553  10.1652  10.5491
    10.6658  10.8374  10.9601  11.0529  11.1726  11.3308  11.3803  11.9593
    12.1093  12.2925  12.3802  12.4945  12.5430  12.5934  12.6491  12.7743
    17.5317  17.7066  18.0129  18.3901  18.7339  19.0386  19.4024  19.8112
    20.2287  20.3469

          k = 0.2778-0.4170 0.0000 (  4462 PWs)   bands (ev):

   -34.7292 -34.7267 -34.7001 -34.6911 -34.6644 -34.6474 -34.6261 -34.5825
   -34.5517 -34.4939 -34.4846 -34.4827 -34.4352 -34.4085 -34.4019 -34.3848
   -34.3640 -34.3432 -34.3222 -34.2856 -34.2428 -34.2253 -34.2253 -34.0506
   -34.0503 -33.8863 -33.8860   7.0211   7.1479   7.1689   7.2923   7.3590
     7.4777   7.5814   7.6765   7.7431   7.8671   8.0798   8.0912   8.1809
     8.3062   8.5184   8.5228   8.5767   8.7293   8.9398   9.0079   9.2436
     9.3775   9.5404   9.7625   9.9112   9.9431  10.1251  10.1577  10.3318
    10.5149  10.7675  10.9096  11.0756  11.1851  11.3203  11.3723  11.5410
    11.7102  12.1339  12.5488  12.7568  12.7892  12.8527  12.9456  13.1027
    15.1648  15.2444  15.4243  15.7743  16.3483  17.1628  18.1529  19.2237
    20.2761  21.1718

          k = 0.2778-0.2887 0.0000 (  4463 PWs)   bands (ev):

   -34.7063 -34.7054 -34.6850 -34.6824 -34.6391 -34.6273 -34.5884 -34.5742
   -34.5304 -34.4603 -34.4095 -34.4049 -34.3894 -34.3480 -34.3385 -34.3289
   -34.3170 -34.2850 -34.2698 -34.2544 -34.2149 -34.1947 -34.1940 -33.9613
   -33.9611 -33.8926 -33.8924   6.7795   6.9099   6.9571   7.0001   7.1512
     7.1857   7.2537   7.3523   7.4646   7.6113   7.7686   7.9880   8.0294
     8.3367   8.5225   8.8394   8.9088   9.1376   9.1877   9.3046   9.3845
     9.5143   9.6388   9.7265   9.8320  10.0618  10.1628  10.3419  10.5200
    10.5327  10.7497  10.9812  11.1725  11.2495  11.2819  11.4615  11.7675
    11.7907  12.0765  12.2393  12.3686  12.4361  12.5410  12.6346  12.8068
    12.9547  13.1460  13.1754  13.3133  13.9507  14.9693  16.1364  17.3602
    18.5463  19.6068

          k = 0.2778-0.1604 0.0000 (  4458 PWs)   bands (ev):

   -34.7018 -34.6935 -34.6411 -34.6301 -34.6019 -34.5727 -34.5304 -34.4909
   -34.4806 -34.4358 -34.3776 -34.3540 -34.3535 -34.3233 -34.3069 -34.2835
   -34.2676 -34.2600 -34.2259 -34.2059 -34.2001 -34.1266 -34.1263 -33.9127
   -33.9126 -33.8986 -33.8984   6.3962   6.5653   6.7823   6.9022   6.9583
     7.1326   7.3401   7.3952   7.5559   7.7094   7.8637   7.9519   8.1827
     8.4904   8.7212   8.8501   9.0340   9.1882   9.3410   9.4841   9.5643
     9.6193   9.6656   9.7631   9.9007  10.0642  10.1563  10.3329  10.4379
    10.4498  10.6134  10.6891  10.8647  11.0576  11.1217  11.2276  11.2553
    11.3052  11.4133  11.4411  11.6023  11.7256  11.8410  11.9568  11.9613
    12.0950  12.4092  12.6986  12.8478  12.8575  13.9182  15.0791  16.2681
    17.3751  18.2933

          k = 0.3889 0.6736 0.0000 (  4511 PWs)   bands (ev):

   -34.7514 -34.7474 -34.7098 -34.7005 -34.6816 -34.6578 -34.6465 -34.5664
   -34.5623 -34.5229 -34.5223 -34.4954 -34.4833 -34.4516 -34.4287 -34.4040
   -34.3557 -34.3531 -34.3284 -34.2918 -34.2709 -34.2420 -34.2420 -34.0861
   -34.0860 -33.8840 -33.8839   6.8553   7.0327   7.2439   7.3527   7.3618
     7.4461   7.5451   7.6158   7.7093   7.7830   7.9687   7.9992   8.1734
     8.3115   8.3504   8.4147   8.5075   8.7400   9.0197   9.1866   9.4461
     9.5855   9.6901   9.8343   9.8948  10.1381  10.2414  10.3716  10.6023
    10.6514  10.7038  11.0237  11.2755  11.4698  11.6206  11.7204  12.1381
    12.1958  12.2784  12.3724  12.5238  12.5316  12.7120  12.7891  12.8202
    17.0506  17.2579  17.5069  17.7415  17.9816  18.2570  18.5854  18.9038
    19.1546  20.4853

          k = 0.3889-0.3528 0.0000 (  4485 PWs)   bands (ev):

   -34.7930 -34.7886 -34.7537 -34.7412 -34.7232 -34.6917 -34.6766 -34.5424
   -34.5341 -34.4561 -34.4498 -34.4353 -34.4056 -34.3819 -34.3775 -34.3616
   -34.3491 -34.3104 -34.3011 -34.2773 -34.2671 -34.2624 -34.2433 -33.9939
   -33.9938 -33.8877 -33.8876   6.4691   6.6380   6.6543   6.8105   6.8486
     6.9219   6.9696   7.1767   7.2685   7.2832   7.5834   7.6379   7.7999
     8.2098   8.4751   8.7410   8.9358   9.2101   9.3256   9.4647   9.5098
     9.6432   9.8775  10.0808  10.2062  10.4655  10.6698  10.7937  11.0533
    11.2774  11.5509  11.5929  11.7046  11.9969  12.1839  12.2321  12.2679
    12.2973  12.3850  12.5804  12.6414  12.7418  12.8374  12.9813  13.1048
    14.5669  14.9350  15.3223  15.5633  15.8500  16.4271  17.2057  17.9745
    18.5311  20.2835

          k = 0.3889-0.2245 0.0000 (  4444 PWs)   bands (ev):

   -34.7686 -34.7647 -34.7360 -34.7307 -34.6989 -34.6772 -34.6418 -34.5613
   -34.5383 -34.4542 -34.4000 -34.3947 -34.3938 -34.3578 -34.3479 -34.3205
   -34.3048 -34.2939 -34.2577 -34.2555 -34.2474 -34.2315 -34.2299 -33.9481
   -33.9478 -33.8913 -33.8908   6.4275   6.4676   6.5519   6.6599   6.7535
     6.7963   6.9093   6.9767   7.1086   7.2669   7.4369   7.5015   7.7956
     8.3062   8.6624   9.0119   9.2012   9.2739   9.3690   9.5389   9.5636
     9.7302   9.8966  10.1509  10.3312  10.4013  10.8216  10.9390  11.1246
    11.4739  11.6109  11.9346  11.9562  12.1838  12.2289  12.2950  12.3197
    12.3849  12.4100  12.4891  12.5254  12.5993  12.6612  12.7549  12.8651
    12.8855  12.9656  13.2545  13.2911  13.8476  14.9877  16.2557  17.5381
    18.7768  20.0247

          k =-0.5000-0.8660 0.0000 (  4492 PWs)   bands (ev):

   -34.8251 -34.8216 -34.7863 -34.7689 -34.7562 -34.7174 -34.7084 -34.5393
   -34.5370 -34.4192 -34.4117 -34.4103 -34.4020 -34.3914 -34.3645 -34.3350
   -34.3318 -34.3072 -34.2969 -34.2862 -34.2707 -34.2480 -34.2419 -33.9621
   -33.9621 -33.8890 -33.8888   6.1938   6.3554   6.3759   6.5459   6.5697
     6.6293   6.7199   6.8884   6.9352   7.0790   7.2846   7.3019   7.6429
     8.1995   8.6174   8.8761   9.0638   9.1454   9.2604   9.4391   9.8167
     9.9068   9.9518  10.3537  10.5783  10.6235  10.9383  11.4509  11.4772
    11.5454  12.1136  12.3220  12.3599  12.4971  12.6759  12.7627  12.7657
    12.8114  12.8656  12.9184  12.9413  12.9898  13.0886  13.2361  13.2411
    13.4669  14.3474  15.1738  15.6674  15.8467  16.1090  16.2918  16.4366
    16.4951  19.9531

 ------ SPIN DOWN ----------


          k = 0.0556 0.0962 0.0000 (  4451 PWs)   bands (ev):

   -34.7870 -34.7633 -34.6630 -34.5399 -34.4253 -34.3285 -34.3116 -34.2900
   -34.2857 -34.2846 -34.2607 -34.2526 -34.2321 -34.2304 -34.2212 -34.2123
   -34.1952 -34.1910 -34.1694 -34.1681 -34.1549 -33.9165 -33.9161 -33.8850
   -33.8848 -33.8533 -33.8532   4.8385   5.1256   5.6068   6.1701   6.5389
     6.6200   6.6274   6.9072   6.9309   8.7056   8.7474   8.8973   8.9801
     9.0032   9.0683   9.1603   9.2532   9.3511   9.4282   9.4452   9.4800
     9.4898   9.5328   9.5438   9.5861   9.6251   9.6749   9.7315   9.7859
     9.7947   9.8500  10.0441  10.0561  10.2544  10.8184  10.8826  10.8864
    11.0485  11.0882  11.2487  11.3106  11.3832  11.4526  11.5557  11.6358
    11.8094  11.9460  12.2424  12.3695  12.5636  12.6815  12.9351  13.6451
    14.3492  14.7325

          k = 0.0556 0.2245 0.0000 (  4420 PWs)   bands (ev):

   -34.7352 -34.7224 -34.6419 -34.5611 -34.5000 -34.4563 -34.4192 -34.3878
   -34.3702 -34.3637 -34.3305 -34.3188 -34.3168 -34.2905 -34.2691 -34.2528
   -34.2412 -34.2323 -34.2064 -34.1885 -34.1761 -34.0113 -34.0110 -33.9048
   -33.9046 -33.8862 -33.8861   5.7622   5.9932   6.3890   6.8629   7.1414
     7.1782   7.3505   7.5638   7.6419   8.0234   8.2405   8.3950   8.4120
     8.5156   8.5846   8.7089   8.7662   9.1348   9.3187   9.4052   9.4933
     9.5721   9.6681   9.6917   9.7174   9.8078   9.8390   9.9948  10.1173
    10.1619  10.2268  10.3739  10.4491  10.5338  10.5694  10.6275  10.7261
    10.8395  10.9251  11.0534  11.1464  11.4567  11.5674  11.6034  11.7796
    12.0124  12.1865  12.5286  12.5457  12.7015  13.2638  14.1810  15.1910
    16.1291  16.8241

          k = 0.0556 0.3528 0.0000 (  4467 PWs)   bands (ev):

   -34.6999 -34.6923 -34.6624 -34.6615 -34.6164 -34.6103 -34.5690 -34.5315
   -34.5126 -34.4511 -34.3888 -34.3727 -34.3707 -34.3314 -34.3232 -34.3011
   -34.2859 -34.2662 -34.2470 -34.2218 -34.2072 -34.1641 -34.1637 -33.9301
   -33.9300 -33.8960 -33.8959   6.5644   6.7398   6.8752   6.9218   6.9557
     7.1204   7.2027   7.3423   7.4334   7.6512   7.7553   7.9354   8.0634
     8.4315   8.7036   8.8565   9.0548   9.1914   9.3506   9.4617   9.5403
     9.5593   9.5871   9.7734   9.8531  10.1242  10.1769  10.4113  10.5516
    10.5927  10.7149  10.8791  11.0896  11.2649  11.3554  11.4158  11.5108
    11.6967  11.7439  11.7941  11.9546  12.0975  12.1595  12.2929  12.3384
    12.3945  12.4300  12.6273  12.7944  13.2377  14.3110  15.5010  16.7264
    17.8853  18.8806

          k = 0.0556 0.4811 0.0000 (  4463 PWs)   bands (ev):

   -34.7887 -34.7847 -34.7516 -34.7429 -34.7182 -34.6919 -34.6664 -34.5509
   -34.5372 -34.4493 -34.4167 -34.4114 -34.3951 -34.3678 -34.3589 -34.3365
   -34.3250 -34.2954 -34.2813 -34.2658 -34.2611 -34.2459 -34.2350 -33.9630
   -33.9628 -33.8897 -33.8894   6.3896   6.4969   6.5337   6.6851   6.7216
     6.7939   6.8729   7.0161   7.1093   7.2183   7.4460   7.4889   7.7532
     8.2491   8.5935   8.9183   9.1066   9.2653   9.3189   9.5160   9.5524
     9.7359   9.9195  10.2350  10.2872  10.4624  10.8885  10.9764  11.1065
    11.5387  11.6220  11.9080  11.9742  12.0914  12.3186  12.3903  12.4346
    12.4654  12.5110  12.5491  12.6265  12.6728  12.8043  12.8987  13.0267
    13.3773  13.7971  14.1886  14.3189  14.6264  15.4833  16.5940  17.7343
    18.7607  20.2454

          k = 0.0556-0.5453 0.0000 (  4486 PWs)   bands (ev):

   -34.8172 -34.8125 -34.7773 -34.7616 -34.7466 -34.7115 -34.6994 -34.5393
   -34.5356 -34.4332 -34.4246 -34.4157 -34.3981 -34.3858 -34.3690 -34.3430
   -34.3377 -34.3034 -34.2964 -34.2837 -34.2750 -34.2497 -34.2453 -33.9707
   -33.9704 -33.8885 -33.8883   6.2687   6.4322   6.4468   6.6095   6.6443
     6.7102   6.7772   6.9655   7.0236   7.1292   7.3687   7.3881   7.6795
     8.2081   8.5791   8.8379   9.0363   9.1955   9.2760   9.4684   9.7011
     9.8069   9.9111  10.4160  10.4434  10.4593  11.0351  11.1731  11.2666
    11.6681  11.8871  12.1313  12.2196  12.3599  12.4465  12.5810  12.6481
    12.6926  12.7356  12.7787  12.8225  12.8539  12.9509  13.0477  13.1305
    13.9783  14.5788  15.2392  15.6998  15.7474  15.9176  16.4507  17.0253
    17.4146  20.0418

          k = 0.0556-0.4170 0.0000 (  4465 PWs)   bands (ev):

   -34.7376 -34.7354 -34.7136 -34.7083 -34.6708 -34.6514 -34.6100 -34.5732
   -34.5366 -34.4579 -34.4031 -34.3956 -34.3882 -34.3490 -34.3444 -34.3218
   -34.3067 -34.2818 -34.2649 -34.2370 -34.2308 -34.2229 -34.2168 -33.9492
   -33.9490 -33.8923 -33.8921   6.5678   6.6090   6.7158   6.7605   6.9012
     6.9442   7.0389   7.0971   7.2501   7.3994   7.5716   7.6882   7.8838
     8.3370   8.6317   8.9878   9.2494   9.2875   9.3742   9.4145   9.5599
     9.6185   9.7691  10.0224  10.0615  10.3065  10.5088  10.6283  10.9696
    11.0728  11.2681  11.3985  11.4927  11.7737  11.8688  11.9481  12.0163
    12.0835  12.1590  12.2535  12.3283  12.4788  12.5203  12.6642  12.7443
    12.8862  12.9839  13.1033  13.1695  13.8041  14.8991  16.1398  17.4172
    18.6552  19.7737

          k = 0.0556-0.2887 0.0000 (  4439 PWs)   bands (ev):

   -34.7066 -34.6997 -34.6374 -34.6013 -34.5703 -34.5362 -34.4950 -34.4592
   -34.4440 -34.4202 -34.3682 -34.3455 -34.3454 -34.3140 -34.2960 -34.2763
   -34.2630 -34.2502 -34.2268 -34.2045 -34.1902 -34.0897 -34.0896 -33.9081
   -33.9081 -33.9000 -33.8997   6.2895   6.4605   6.7312   7.0094   7.1247
     7.2541   7.4852   7.5571   7.7730   7.8165   8.0364   8.0748   8.2716
     8.4324   8.4860   8.6838   8.9018   8.9236   9.2179   9.4522   9.5549
     9.6079   9.6540   9.6995   9.8032   9.8455   9.9870  10.0480  10.1748
    10.3129  10.5679  10.5833  10.6447  10.7759  10.9211  10.9450  11.1172
    11.1704  11.2188  11.4309  11.5232  11.6259  11.8213  11.8545  11.9307
    12.1450  12.2662  12.5688  12.7360  12.8497  13.7685  14.8405  15.9700
    17.0245  17.8830

          k = 0.0556-0.1604 0.0000 (  4443 PWs)   bands (ev):

   -34.7650 -34.7455 -34.6529 -34.5449 -34.4505 -34.3839 -34.3574 -34.3257
   -34.3158 -34.3091 -34.2966 -34.2889 -34.2710 -34.2589 -34.2453 -34.2302
   -34.2224 -34.2109 -34.1863 -34.1759 -34.1649 -33.9422 -33.9420 -33.9085
   -33.9084 -33.8674 -33.8672   5.2353   5.5055   5.9633   6.5090   6.8553
     6.9086   6.9612   7.2241   7.2553   8.3970   8.5139   8.6425   8.7291
     8.7924   8.8267   8.8922   9.0182   9.2698   9.3352   9.5031   9.5696
     9.5930   9.6178   9.6821   9.7278   9.7573   9.7909   9.8160   9.8534
     9.9416  10.0188  10.1055  10.2262  10.3283  10.3412  10.7150  10.7811
    10.8586  10.9583  10.9683  11.1402  11.3561  11.4278  11.5380  11.7361
    11.8214  12.2076  12.2331  12.5379  12.6652  12.8062  13.5327  14.4029
    15.2192  15.7467

          k = 0.0556-0.0321 0.0000 (  4465 PWs)   bands (ev):

   -34.7988 -34.7730 -34.6692 -34.5394 -34.4170 -34.2995 -34.2856 -34.2769
   -34.2761 -34.2756 -34.2366 -34.2264 -34.2230 -34.2127 -34.2045 -34.1957
   -34.1868 -34.1672 -34.1660 -34.1589 -34.1475 -33.9182 -33.9180 -33.8571
   -33.8570 -33.8460 -33.8458   4.6287   4.9218   5.4105   5.9775   6.3582
     6.4420   6.4544   6.7258   6.7462   8.8784   8.9275   9.0774   9.1228
     9.1403   9.1981   9.2783   9.2869   9.3273   9.3424   9.3430   9.3560
     9.4292   9.4710   9.5098   9.5535   9.5827   9.5973   9.6326   9.7475
     9.8208   9.9051   9.9100   9.9562  10.6160  11.0162  11.0174  11.1537
    11.1602  11.2725  11.2943  11.3465  11.3941  11.4777  11.6251  11.7646
    11.9705  11.9733  12.0935  12.3411  12.4250  12.6039  12.7326  13.0381
    13.6767  13.9612

          k = 0.1667 0.2887 0.0000 (  4425 PWs)   bands (ev):

   -34.6869 -34.6866 -34.6378 -34.6199 -34.5956 -34.5708 -34.5357 -34.4929
   -34.4829 -34.4478 -34.3895 -34.3747 -34.3695 -34.3265 -34.3117 -34.3035
   -34.2841 -34.2625 -34.2594 -34.2516 -34.1935 -34.1212 -34.1210 -33.9411
   -33.9409 -33.8963 -33.8963   6.7805   6.8496   7.0098   7.2363   7.5014
     7.7254   7.7360   7.7596   7.8466   7.8495   7.9669   7.9854   8.0707
     8.2150   8.3239   8.4213   8.8364   8.8802   8.9313   9.0171   9.1923
     9.3269   9.3531   9.3721   9.4600   9.5301  10.0746  10.0809  10.2271
    10.3131  10.4679  10.5226  10.9154  10.9311  11.0087  11.1981  11.4089
    11.5064  11.6606  11.8078  12.0246  12.1172  12.2072  12.3580  12.3640
    12.4145  12.4758  12.5617  12.5923  13.3411  14.3187  15.3995  16.5450
    17.6427  18.5966

          k = 0.1667 0.4170 0.0000 (  4459 PWs)   bands (ev):

   -34.7231 -34.7203 -34.6963 -34.6896 -34.6571 -34.6427 -34.6119 -34.5813
   -34.5395 -34.4692 -34.4469 -34.4456 -34.4055 -34.3740 -34.3662 -34.3597
   -34.3356 -34.3276 -34.2971 -34.2762 -34.2269 -34.2156 -34.2145 -34.0032
   -34.0029 -33.8895 -33.8890   6.9415   7.0016   7.0719   7.1712   7.2614
     7.3383   7.4797   7.4865   7.5688   7.7264   7.7987   8.0405   8.1278
     8.3363   8.4425   8.6449   8.8354   8.8905   9.0447   9.1491   9.2382
     9.4608   9.5731   9.7992   9.8810   9.9980  10.0684  10.2248  10.3694
    10.4914  10.7871  11.0109  11.1092  11.1694  11.3290  11.4001  11.6854
    11.7569  12.0483  12.5188  12.6036  12.7279  12.7962  12.8517  13.0047
    14.0087  14.1393  14.2277  14.4730  15.0423  15.9391  17.0249  18.1926
    19.3506  20.4194

          k = 0.1667 0.5453 0.0000 (  4490 PWs)   bands (ev):

   -34.7797 -34.7758 -34.7389 -34.7261 -34.7101 -34.6786 -34.6681 -34.5419
   -34.5353 -34.4931 -34.4872 -34.4583 -34.4419 -34.4183 -34.3916 -34.3775
   -34.3615 -34.3376 -34.3219 -34.2854 -34.2613 -34.2605 -34.2553 -34.0368
   -34.0367 -33.8855 -33.8854   6.6292   6.8124   6.9173   7.0674   7.0930
     7.1356   7.2014   7.4047   7.4858   7.5316   7.7821   7.8815   7.9976
     8.2331   8.3233   8.5262   8.6864   8.9837   9.2500   9.3375   9.5137
     9.7235   9.8125   9.8618  10.1616  10.2292  10.3055  10.6594  10.7584
    11.0870  11.1111  11.2149  11.4823  11.7712  11.9330  12.0398  12.1446
    12.2207  12.3646  12.5107  12.5697  12.6426  12.7975  12.9149  13.0075
    15.8396  16.1462  16.5013  16.8096  17.1275  17.5246  17.9413  18.2420
    18.3978  20.3394

          k = 0.1667-0.4811 0.0000 (  4476 PWs)   bands (ev):

   -34.7594 -34.7554 -34.7234 -34.7130 -34.6923 -34.6647 -34.6492 -34.5576
   -34.5390 -34.4777 -34.4724 -34.4637 -34.4231 -34.4006 -34.3825 -34.3782
   -34.3508 -34.3374 -34.3103 -34.2837 -34.2481 -34.2454 -34.2407 -34.0251
   -34.0249 -33.8868 -33.8867   6.7404   6.9014   6.9483   7.1235   7.1563
     7.1747   7.3141   7.4476   7.5100   7.6066   7.7930   7.9434   8.0472
     8.2421   8.4040   8.6325   8.7868   8.8530   9.1981   9.2469   9.5392
     9.6176   9.7454   9.8987   9.9921  10.0406  10.2855  10.5016  10.6689
    10.8470  10.8943  11.0594  11.3792  11.5946  11.6678  11.7331  11.8437
    11.8917  12.1765  12.5480  12.6635  12.7592  12.8558  12.9671  13.1010
    14.9661  15.1642  15.3747  15.6577  16.1576  16.9057  17.8284  18.7968
    19.6357  20.5957

          k = 0.1667-0.3528 0.0000 (  4458 PWs)   bands (ev):

   -34.6890 -34.6882 -34.6608 -34.6586 -34.6196 -34.6181 -34.5893 -34.5586
   -34.5222 -34.4657 -34.4143 -34.4111 -34.3927 -34.3493 -34.3373 -34.3313
   -34.3142 -34.3020 -34.2811 -34.2648 -34.2089 -34.1733 -34.1730 -33.9737
   -33.9735 -33.8929 -33.8929   7.0334   7.1207   7.1728   7.2440   7.3654
     7.4504   7.5402   7.6246   7.6815   7.7922   7.9688   8.0926   8.1867
     8.2640   8.4138   8.5855   8.6943   8.8048   8.9748   9.1419   9.2245
     9.2683   9.3280   9.5281   9.6725   9.7305   9.9927  10.0062  10.1941
    10.4771  10.5947  10.7116  10.8877  11.0918  11.1546  11.2942  11.5736
    11.6393  11.8961  12.3123  12.3684  12.4954  12.5386  12.6081  12.7788
    13.1135  13.1887  13.2414  13.3997  14.0463  15.0348  16.1573  17.3408
    18.4907  19.5318

          k = 0.1667-0.2245 0.0000 (  4433 PWs)   bands (ev):

   -34.7104 -34.7037 -34.6372 -34.5852 -34.5462 -34.5127 -34.4732 -34.4353
   -34.4238 -34.4127 -34.3667 -34.3424 -34.3403 -34.3119 -34.2877 -34.2744
   -34.2560 -34.2471 -34.2323 -34.2184 -34.1829 -34.0651 -34.0650 -33.9110
   -33.9109 -33.9005 -33.9004   6.2410   6.4186   6.7320   7.1208   7.4190
     7.4678   7.6105   7.7243   7.8464   7.9435   8.0709   8.1564   8.1821
     8.2960   8.4212   8.5856   8.6347   8.8723   9.1332   9.1864   9.2774
     9.4020   9.4629   9.5673   9.6569   9.6981   9.8950  10.0240  10.1814
    10.4124  10.4231  10.5277  10.6305  10.7129  10.8783  10.8982  11.0306
    11.1688  11.2104  11.4689  11.5237  11.5795  11.8617  11.9008  11.9072
    12.0705  12.2206  12.4179  12.5681  12.8904  13.7531  14.7480  15.8263
    16.8469  17.6750

          k = 0.1667-0.0962 0.0000 (  4427 PWs)   bands (ev):

   -34.7553 -34.7376 -34.6486 -34.5491 -34.4667 -34.4110 -34.3805 -34.3466
   -34.3356 -34.3197 -34.3067 -34.3064 -34.2882 -34.2642 -34.2585 -34.2405
   -34.2294 -34.2209 -34.1898 -34.1784 -34.1671 -33.9676 -33.9674 -33.9076
   -33.9074 -33.8720 -33.8718   5.4157   5.6739   6.1125   6.6338   6.9600
     6.9692   7.1132   7.3490   7.3974   8.2092   8.4283   8.5619   8.6231
     8.6909   8.7461   8.8510   8.9004   9.3359   9.3804   9.4893   9.6039
     9.6188   9.6405   9.7321   9.7450   9.8428   9.8621   9.9167   9.9944
    10.0078  10.0551  10.0590  10.2319  10.3324  10.4389  10.5493  10.7151
    10.7424  10.9118  11.0074  11.1552  11.2711  11.5002  11.5183  11.7050
    12.0093  12.0938  12.3744  12.6478  12.7869  12.8509  13.7328  14.6856
    15.5528  16.1405

          k = 0.2778 0.4811 0.0000 (  4485 PWs)   bands (ev):

   -34.7231 -34.7226 -34.6932 -34.6915 -34.6533 -34.6516 -34.6157 -34.6014
   -34.5751 -34.5351 -34.5124 -34.5109 -34.4690 -34.4482 -34.4314 -34.4227
   -34.3643 -34.3457 -34.3253 -34.2964 -34.2632 -34.2243 -34.2242 -34.0958
   -34.0957 -33.8842 -33.8842   7.1653   7.1820   7.2807   7.3356   7.4239
     7.5805   7.7608   7.8642   7.9409   7.9697   8.0645   8.0791   8.1677
     8.2050   8.3534   8.4033   8.6760   8.7753   8.9151   9.0503   9.2078
     9.3643   9.5638   9.6554   9.8853   9.8925  10.1052  10.1078  10.5778
    10.6608  10.7357  10.8543  11.0868  11.1219  11.3017  11.3274  11.6401
    11.8951  12.2223  12.5097  12.6844  12.7018  12.7027  12.8423  12.9971
    16.3319  16.4542  16.7238  17.1479  17.7320  18.4834  19.3606  20.2495
    20.7064  20.7896

          k = 0.2778 0.6094 0.0000 (  4491 PWs)   bands (ev):

   -34.7157 -34.7120 -34.6818 -34.6781 -34.6499 -34.6422 -34.6327 -34.6069
   -34.5828 -34.5605 -34.5379 -34.5297 -34.5067 -34.4756 -34.4459 -34.4352
   -34.3552 -34.3464 -34.3221 -34.3003 -34.2824 -34.2164 -34.2162 -34.1278
   -34.1276 -33.8830 -33.8827   7.1323   7.2881   7.3910   7.5096   7.5408
     7.6375   7.7268   7.8426   7.8946   7.9317   7.9947   8.0718   8.1807
     8.2235   8.3207   8.4621   8.5479   8.9009   8.9416   9.1737   9.2600
     9.3744   9.4504   9.6457   9.8121   9.8605  10.1553  10.1652  10.5491
    10.6658  10.8374  10.9601  11.0529  11.1726  11.3308  11.3803  11.9593
    12.1093  12.2925  12.3802  12.4945  12.5430  12.5934  12.6491  12.7743
    17.5317  17.7066  18.0129  18.3901  18.7339  19.0386  19.4024  19.8112
    20.2287  20.3469

          k = 0.2778-0.4170 0.0000 (  4462 PWs)   bands (ev):

   -34.7292 -34.7267 -34.7001 -34.6911 -34.6644 -34.6474 -34.6261 -34.5825
   -34.5517 -34.4939 -34.4846 -34.4827 -34.4352 -34.4085 -34.4019 -34.3848
   -34.3640 -34.3432 -34.3222 -34.2856 -34.2428 -34.2253 -34.2253 -34.0506
   -34.0503 -33.8863 -33.8860   7.0211   7.1479   7.1689   7.2923   7.3590
     7.4777   7.5814   7.6765   7.7431   7.8671   8.0798   8.0912   8.1809
     8.3062   8.5184   8.5228   8.5767   8.7293   8.9398   9.0079   9.2436
     9.3775   9.5404   9.7625   9.9112   9.9431  10.1251  10.1577  10.3318
    10.5149  10.7675  10.9096  11.0756  11.1851  11.3203  11.3723  11.5410
    11.7102  12.1339  12.5488  12.7568  12.7892  12.8527  12.9456  13.1027
    15.1648  15.2444  15.4243  15.7743  16.3483  17.1628  18.1529  19.2237
    20.2761  21.1718

          k = 0.2778-0.2887 0.0000 (  4463 PWs)   bands (ev):

   -34.7063 -34.7054 -34.6850 -34.6824 -34.6391 -34.6273 -34.5884 -34.5742
   -34.5304 -34.4603 -34.4095 -34.4049 -34.3894 -34.3480 -34.3385 -34.3289
   -34.3170 -34.2850 -34.2698 -34.2544 -34.2149 -34.1947 -34.1940 -33.9613
   -33.9611 -33.8926 -33.8924   6.7795   6.9099   6.9571   7.0001   7.1512
     7.1857   7.2537   7.3523   7.4646   7.6113   7.7686   7.9880   8.0294
     8.3367   8.5225   8.8394   8.9088   9.1376   9.1877   9.3046   9.3845
     9.5143   9.6388   9.7265   9.8320  10.0618  10.1628  10.3419  10.5200
    10.5327  10.7497  10.9812  11.1725  11.2495  11.2819  11.4615  11.7675
    11.7907  12.0765  12.2393  12.3686  12.4361  12.5410  12.6346  12.8068
    12.9547  13.1460  13.1754  13.3133  13.9507  14.9693  16.1364  17.3602
    18.5463  19.6068

          k = 0.2778-0.1604 0.0000 (  4458 PWs)   bands (ev):

   -34.7018 -34.6935 -34.6411 -34.6301 -34.6019 -34.5727 -34.5304 -34.4909
   -34.4806 -34.4358 -34.3776 -34.3540 -34.3535 -34.3233 -34.3069 -34.2835
   -34.2676 -34.2600 -34.2259 -34.2059 -34.2001 -34.1266 -34.1263 -33.9127
   -33.9126 -33.8986 -33.8984   6.3962   6.5653   6.7823   6.9022   6.9583
     7.1326   7.3401   7.3952   7.5559   7.7094   7.8637   7.9519   8.1827
     8.4904   8.7212   8.8501   9.0340   9.1882   9.3410   9.4841   9.5643
     9.6193   9.6656   9.7631   9.9007  10.0642  10.1563  10.3329  10.4379
    10.4498  10.6134  10.6891  10.8647  11.0576  11.1217  11.2276  11.2553
    11.3052  11.4133  11.4411  11.6023  11.7256  11.8410  11.9568  11.9613
    12.0950  12.4092  12.6986  12.8478  12.8575  13.9182  15.0791  16.2681
    17.3751  18.2933

          k = 0.3889 0.6736 0.0000 (  4511 PWs)   bands (ev):

   -34.7514 -34.7474 -34.7098 -34.7005 -34.6816 -34.6578 -34.6465 -34.5664
   -34.5623 -34.5229 -34.5223 -34.4954 -34.4833 -34.4516 -34.4287 -34.4040
   -34.3557 -34.3531 -34.3284 -34.2918 -34.2709 -34.2420 -34.2420 -34.0861
   -34.0860 -33.8840 -33.8839   6.8553   7.0327   7.2439   7.3527   7.3618
     7.4461   7.5451   7.6158   7.7093   7.7830   7.9687   7.9992   8.1734
     8.3115   8.3504   8.4147   8.5075   8.7400   9.0197   9.1866   9.4461
     9.5855   9.6901   9.8343   9.8948  10.1381  10.2414  10.3716  10.6023
    10.6514  10.7038  11.0237  11.2755  11.4698  11.6206  11.7204  12.1381
    12.1958  12.2784  12.3724  12.5238  12.5316  12.7120  12.7891  12.8202
    17.0506  17.2579  17.5069  17.7415  17.9816  18.2570  18.5854  18.9038
    19.1546  20.4851

          k = 0.3889-0.3528 0.0000 (  4485 PWs)   bands (ev):

   -34.7930 -34.7886 -34.7537 -34.7412 -34.7232 -34.6917 -34.6766 -34.5424
   -34.5341 -34.4561 -34.4498 -34.4353 -34.4056 -34.3819 -34.3775 -34.3616
   -34.3491 -34.3104 -34.3011 -34.2773 -34.2671 -34.2624 -34.2433 -33.9939
   -33.9938 -33.8877 -33.8876   6.4691   6.6380   6.6543   6.8105   6.8486
     6.9219   6.9696   7.1767   7.2685   7.2832   7.5834   7.6379   7.7999
     8.2098   8.4751   8.7410   8.9358   9.2101   9.3256   9.4647   9.5098
     9.6432   9.8775  10.0808  10.2062  10.4655  10.6698  10.7937  11.0533
    11.2774  11.5509  11.5929  11.7046  11.9969  12.1839  12.2321  12.2679
    12.2973  12.3850  12.5804  12.6414  12.7418  12.8374  12.9813  13.1048
    14.5669  14.9350  15.3223  15.5633  15.8500  16.4271  17.2057  17.9745
    18.5311  20.2835

          k = 0.3889-0.2245 0.0000 (  4444 PWs)   bands (ev):

   -34.7686 -34.7647 -34.7360 -34.7307 -34.6989 -34.6772 -34.6418 -34.5613
   -34.5383 -34.4542 -34.4000 -34.3947 -34.3938 -34.3578 -34.3479 -34.3205
   -34.3048 -34.2939 -34.2577 -34.2555 -34.2474 -34.2315 -34.2299 -33.9481
   -33.9478 -33.8913 -33.8908   6.4275   6.4676   6.5519   6.6599   6.7535
     6.7963   6.9093   6.9767   7.1086   7.2669   7.4369   7.5015   7.7956
     8.3062   8.6624   9.0119   9.2012   9.2739   9.3690   9.5389   9.5636
     9.7302   9.8966  10.1509  10.3312  10.4013  10.8216  10.9390  11.1246
    11.4739  11.6109  11.9346  11.9562  12.1838  12.2289  12.2950  12.3197
    12.3849  12.4100  12.4891  12.5254  12.5993  12.6612  12.7549  12.8651
    12.8855  12.9656  13.2545  13.2911  13.8476  14.9877  16.2557  17.5381
    18.7768  20.0247

          k =-0.5000-0.8660 0.0000 (  4492 PWs)   bands (ev):

   -34.8251 -34.8216 -34.7863 -34.7689 -34.7562 -34.7174 -34.7084 -34.5393
   -34.5370 -34.4192 -34.4117 -34.4103 -34.4020 -34.3914 -34.3645 -34.3350
   -34.3318 -34.3072 -34.2969 -34.2862 -34.2707 -34.2480 -34.2419 -33.9621
   -33.9621 -33.8890 -33.8888   6.1938   6.3554   6.3759   6.5459   6.5697
     6.6293   6.7199   6.8884   6.9352   7.0790   7.2846   7.3019   7.6429
     8.1995   8.6174   8.8761   9.0638   9.1454   9.2604   9.4391   9.8167
     9.9068   9.9518  10.3537  10.5783  10.6235  10.9383  11.4509  11.4772
    11.5454  12.1136  12.3220  12.3599  12.4971  12.6759  12.7627  12.7657
    12.8114  12.8656  12.9184  12.9413  12.9898  13.0886  13.2361  13.2411
    13.4669  14.3474  15.1738  15.6674  15.8467  16.1090  16.2918  16.4366
    16.4951  19.9526

     the Fermi energy is    12.2131 ev

!    total energy              =   -1540.61892727 Ry
     estimated scf accuracy    <          4.3E-09 Ry
     smearing contrib. (-TS)   =      -0.03830388 Ry
     internal energy E=F+TS    =   -1540.58062339 Ry

     The total energy is F=E-TS. E is the sum of the following terms:
     one-electron contribution =  -10671.84193498 Ry
     hartree contribution      =    5413.81408040 Ry
     xc contribution           =    -269.24095255 Ry
     ewald contribution        =    3986.68818374 Ry

     total magnetization       =    -0.00 Bohr mag/cell
     absolute magnetization    =     0.00 Bohr mag/cell

     convergence has been achieved in  10 iterations

     negative rho (up, down):  2.527E-01 2.527E-01

     Forces acting on atoms (cartesian axes, Ry/au):

     atom    1 type  1   force =     0.00000000    0.00000000    0.00007571
     atom    2 type  1   force =     0.00000000    0.00000000    0.00078402
     atom    3 type  1   force =     0.00000000    0.00000000    0.00081247
     atom    4 type  1   force =     0.00000000    0.00000000   -0.00020380
     atom    5 type  1   force =     0.00000000    0.00000000   -0.00000148
     atom    6 type  1   force =     0.00000000    0.00000000    0.00020465
     atom    7 type  1   force =     0.00000000    0.00000000   -0.00081085
     atom    8 type  1   force =     0.00000000    0.00000000   -0.00078812
     atom    9 type  1   force =     0.00000000    0.00000000   -0.00007260

     Total force =     0.001627     Total SCF correction =     0.000172
     SCF correction compared to forces is large: reduce conv_thr to get better values
     Energy error            =      1.7E-05
     Gradient error          =      8.1E-04
Begin final coordinates

ATOMIC_POSITIONS (angstrom)
Rh            0.0000000000        0.0000000000        0.0329411587
Rh            1.3554284000       -0.7825569000        2.2054090100
Rh            1.3554284000        0.7825569000        4.4069066341
Rh            0.0000000000        0.0000000000        6.6344814017
Rh            1.3554284000       -0.7825569000        8.8536163485
Rh            1.3554284000        0.7825569000       11.0727486615
Rh            0.0000000000        0.0000000000       13.3003340678
Rh            1.3554284000       -0.7825569000       15.5018449713
Rh            1.3554284000        0.7825569000       17.6743081463
End final coordinates



     Writing output data file /home/STUDENTI/leonardo.razzai/Rh_work/surf_111/9-L.save/

     lsda relaxation :  a final configuration with zero
                        absolute magnetization has been found

     the program is checking if it is really the minimum energy structure
     by performing a new scf iteration without any "electronic" history

     Initial potential from superposition of free atoms

     starting charge  130.49911, renormalised to  135.00000

     negative rho (up, down):  2.491E-01 2.442E-01

     total cpu time spent up to now is      860.4 secs

     Self-consistent Calculation

     iteration #  1     ecut=    35.00 Ry     beta= 0.40
     Davidson diagonalization with overlap
     c_bands:  1 eigenvalues not converged
     c_bands:  1 eigenvalues not converged
     c_bands:  1 eigenvalues not converged
     c_bands:  1 eigenvalues not converged
     c_bands:  1 eigenvalues not converged
     c_bands:  1 eigenvalues not converged
     c_bands:  1 eigenvalues not converged
     ethr =  1.00E-06,  avg # of iterations = 14.1

     negative rho (up, down):  2.490E-01 2.466E-01

     total cpu time spent up to now is      895.0 secs

     total energy              =   -1540.81703559 Ry
     estimated scf accuracy    <       6.81575063 Ry

     total magnetization       =     0.49 Bohr mag/cell
     absolute magnetization    =     0.50 Bohr mag/cell

     iteration #  2     ecut=    35.00 Ry     beta= 0.40
     Davidson diagonalization with overlap
     ethr =  5.05E-03,  avg # of iterations =  1.0

     negative rho (up, down):  2.533E-01 2.531E-01

     total cpu time spent up to now is      905.4 secs

     total energy              =   -1540.50025466 Ry
     estimated scf accuracy    <       1.56983018 Ry

     total magnetization       =     0.45 Bohr mag/cell
     absolute magnetization    =     0.47 Bohr mag/cell

     iteration #  3     ecut=    35.00 Ry     beta= 0.40
     Davidson diagonalization with overlap
     ethr =  1.16E-03,  avg # of iterations =  2.0

     negative rho (up, down):  2.558E-01 2.567E-01

     total cpu time spent up to now is      917.6 secs

     total energy              =   -1540.58787446 Ry
     estimated scf accuracy    <       0.36830484 Ry

     total magnetization       =     0.37 Bohr mag/cell
     absolute magnetization    =     0.39 Bohr mag/cell

     iteration #  4     ecut=    35.00 Ry     beta= 0.40
     Davidson diagonalization with overlap
     ethr =  2.73E-04,  avg # of iterations =  2.1

     negative rho (up, down):  2.573E-01 2.584E-01

     total cpu time spent up to now is      929.3 secs

     total energy              =   -1540.61887093 Ry
     estimated scf accuracy    <       0.07595358 Ry

     total magnetization       =     0.30 Bohr mag/cell
     absolute magnetization    =     0.32 Bohr mag/cell

     iteration #  5     ecut=    35.00 Ry     beta= 0.40
     Davidson diagonalization with overlap
     ethr =  5.63E-05,  avg # of iterations =  6.4

     negative rho (up, down):  2.587E-01 2.597E-01

     total cpu time spent up to now is      942.8 secs

     total energy              =   -1540.61951182 Ry
     estimated scf accuracy    <       0.00330324 Ry

     total magnetization       =     0.26 Bohr mag/cell
     absolute magnetization    =     0.27 Bohr mag/cell

     iteration #  6     ecut=    35.00 Ry     beta= 0.40
     Davidson diagonalization with overlap
     c_bands:  1 eigenvalues not converged
     ethr =  2.45E-06,  avg # of iterations =  8.6

     negative rho (up, down):  2.585E-01 2.594E-01

     total cpu time spent up to now is      958.0 secs

     total energy              =   -1540.61945229 Ry
     estimated scf accuracy    <       0.00436654 Ry

     total magnetization       =     0.20 Bohr mag/cell
     absolute magnetization    =     0.21 Bohr mag/cell

     iteration #  7     ecut=    35.00 Ry     beta= 0.40
     Davidson diagonalization with overlap
     ethr =  2.45E-06,  avg # of iterations =  3.0

     negative rho (up, down):  2.566E-01 2.571E-01

     total cpu time spent up to now is      969.6 secs

     total energy              =   -1540.61931080 Ry
     estimated scf accuracy    <       0.00052632 Ry

     total magnetization       =     0.15 Bohr mag/cell
     absolute magnetization    =     0.17 Bohr mag/cell

     iteration #  8     ecut=    35.00 Ry     beta= 0.40
     Davidson diagonalization with overlap
     ethr =  3.90E-07,  avg # of iterations =  8.1

     negative rho (up, down):  2.544E-01 2.543E-01

     total cpu time spent up to now is      985.5 secs

     total energy              =   -1540.61904501 Ry
     estimated scf accuracy    <       0.00228216 Ry

     total magnetization       =     0.08 Bohr mag/cell
     absolute magnetization    =     0.09 Bohr mag/cell

     iteration #  9     ecut=    35.00 Ry     beta= 0.40
     Davidson diagonalization with overlap
     c_bands:  1 eigenvalues not converged
     c_bands:  1 eigenvalues not converged
     c_bands:  1 eigenvalues not converged
     c_bands:  1 eigenvalues not converged
     ethr =  3.90E-07,  avg # of iterations =  8.6

     negative rho (up, down):  2.534E-01 2.532E-01

     total cpu time spent up to now is     1000.0 secs

     total energy              =   -1540.61896790 Ry
     estimated scf accuracy    <       0.00034747 Ry

     total magnetization       =     0.01 Bohr mag/cell
     absolute magnetization    =     0.04 Bohr mag/cell

     iteration # 10     ecut=    35.00 Ry     beta= 0.40
     Davidson diagonalization with overlap
     c_bands:  1 eigenvalues not converged
     c_bands:  1 eigenvalues not converged
     ethr =  2.57E-07,  avg # of iterations =  5.2

     negative rho (up, down):  2.527E-01 2.524E-01

     total cpu time spent up to now is     1013.1 secs

     total energy              =   -1540.61891460 Ry
     estimated scf accuracy    <       0.00021949 Ry

     total magnetization       =    -0.02 Bohr mag/cell
     absolute magnetization    =     0.04 Bohr mag/cell

     iteration # 11     ecut=    35.00 Ry     beta= 0.40
     Davidson diagonalization with overlap
     c_bands:  1 eigenvalues not converged
     c_bands:  1 eigenvalues not converged
     ethr =  1.63E-07,  avg # of iterations =  5.8

     negative rho (up, down):  2.527E-01 2.525E-01

     total cpu time spent up to now is     1026.4 secs

     total energy              =   -1540.61892317 Ry
     estimated scf accuracy    <       0.00001788 Ry

     total magnetization       =    -0.03 Bohr mag/cell
     absolute magnetization    =     0.04 Bohr mag/cell

     iteration # 12     ecut=    35.00 Ry     beta= 0.40
     Davidson diagonalization with overlap
     ethr =  1.32E-08,  avg # of iterations =  1.6

     negative rho (up, down):  2.527E-01 2.525E-01

     total cpu time spent up to now is     1037.4 secs

     total energy              =   -1540.61892471 Ry
     estimated scf accuracy    <       0.00000186 Ry

     total magnetization       =    -0.03 Bohr mag/cell
     absolute magnetization    =     0.03 Bohr mag/cell

     iteration # 13     ecut=    35.00 Ry     beta= 0.40
     Davidson diagonalization with overlap
     ethr =  1.38E-09,  avg # of iterations =  2.2

     negative rho (up, down):  2.527E-01 2.526E-01

     total cpu time spent up to now is     1048.9 secs

     total energy              =   -1540.61892585 Ry
     estimated scf accuracy    <       0.00000149 Ry

     total magnetization       =    -0.02 Bohr mag/cell
     absolute magnetization    =     0.03 Bohr mag/cell

     iteration # 14     ecut=    35.00 Ry     beta= 0.40
     Davidson diagonalization with overlap
     ethr =  1.10E-09,  avg # of iterations =  1.3

     negative rho (up, down):  2.527E-01 2.526E-01

     total cpu time spent up to now is     1059.6 secs

     total energy              =   -1540.61892664 Ry
     estimated scf accuracy    <       0.00000049 Ry

     total magnetization       =    -0.02 Bohr mag/cell
     absolute magnetization    =     0.02 Bohr mag/cell

     iteration # 15     ecut=    35.00 Ry     beta= 0.40
     Davidson diagonalization with overlap
     ethr =  3.64E-10,  avg # of iterations =  2.4

     negative rho (up, down):  2.527E-01 2.526E-01
 
     Magnetic moment per site:
     atom:    1    charge:   13.1085    magn:   -0.0010    constr:    0.0000
     atom:    2    charge:   13.1651    magn:   -0.0010    constr:    0.0000
     atom:    3    charge:   13.1608    magn:   -0.0007    constr:    0.0000
     atom:    4    charge:   13.1560    magn:   -0.0011    constr:    0.0000
     atom:    5    charge:   13.1578    magn:   -0.0012    constr:    0.0000
     atom:    6    charge:   13.1562    magn:   -0.0011    constr:    0.0000
     atom:    7    charge:   13.1603    magn:   -0.0007    constr:    0.0000
     atom:    8    charge:   13.1657    magn:   -0.0010    constr:    0.0000
     atom:    9    charge:   13.1087    magn:   -0.0010    constr:    0.0000

     total cpu time spent up to now is     1072.6 secs

     End of self-consistent calculation

 ------ SPIN UP ------------


          k = 0.0556 0.0962 0.0000 (  4451 PWs)   bands (ev):

   -34.7861 -34.7624 -34.6619 -34.5389 -34.4243 -34.3277 -34.3108 -34.2892
   -34.2850 -34.2838 -34.2597 -34.2517 -34.2312 -34.2294 -34.2202 -34.2114
   -34.1943 -34.1899 -34.1684 -34.1671 -34.1538 -33.9155 -33.9151 -33.8843
   -33.8840 -33.8526 -33.8525   4.8388   5.1259   5.6071   6.1704   6.5394
     6.6206   6.6279   6.9077   6.9314   8.7063   8.7481   8.8980   8.9809
     9.0040   9.0690   9.1610   9.2540   9.3519   9.4290   9.4460   9.4807
     9.4907   9.5336   9.5446   9.5870   9.6259   9.6757   9.7323   9.7867
     9.7954   9.8506  10.0447  10.0568  10.2550  10.8190  10.8835  10.8873
    11.0493  11.0890  11.2495  11.3115  11.3839  11.4534  11.5565  11.6366
    11.8102  11.9469  12.2432  12.3704  12.5645  12.6824  12.9358  13.6458
    14.3498  14.7331

          k = 0.0556 0.2245 0.0000 (  4420 PWs)   bands (ev):

   -34.7343 -34.7215 -34.6409 -34.5601 -34.4991 -34.4555 -34.4183 -34.3868
   -34.3693 -34.3628 -34.3296 -34.3180 -34.3160 -34.2895 -34.2681 -34.2519
   -34.2402 -34.2314 -34.2054 -34.1875 -34.1751 -34.0106 -34.0103 -33.9038
   -33.9035 -33.8855 -33.8854   5.7625   5.9935   6.3893   6.8632   7.1420
     7.1788   7.3511   7.5644   7.6425   8.0241   8.2412   8.3958   8.4128
     8.5163   8.5853   8.7096   8.7670   9.1354   9.3194   9.4059   9.4940
     9.5729   9.6689   9.6925   9.7182   9.8085   9.8397   9.9956  10.1181
    10.1627  10.2275  10.3747  10.4499  10.5346  10.5702  10.6283  10.7269
    10.8403  10.9259  11.0542  11.1472  11.4575  11.5682  11.6042  11.7804
    12.0133  12.1873  12.5295  12.5465  12.7024  13.2646  14.1817  15.1917
    16.1298  16.8247

          k = 0.0556 0.3528 0.0000 (  4467 PWs)   bands (ev):

   -34.6990 -34.6914 -34.6616 -34.6607 -34.6153 -34.6093 -34.5681 -34.5305
   -34.5116 -34.4501 -34.3879 -34.3719 -34.3700 -34.3305 -34.3222 -34.3002
   -34.2850 -34.2653 -34.2460 -34.2207 -34.2062 -34.1633 -34.1630 -33.9294
   -33.9292 -33.8949 -33.8949   6.5648   6.7402   6.8757   6.9224   6.9562
     7.1210   7.2034   7.3430   7.4341   7.6519   7.7559   7.9360   8.0641
     8.4321   8.7043   8.8571   9.0556   9.1920   9.3514   9.4624   9.5410
     9.5601   9.5878   9.7742   9.8539  10.1251  10.1776  10.4119  10.5523
    10.5934  10.7156  10.8798  11.0904  11.2658  11.3562  11.4166  11.5115
    11.6976  11.7447  11.7949  11.9554  12.0983  12.1604  12.2938  12.3392
    12.3954  12.4308  12.6281  12.7953  13.2384  14.3117  15.5016  16.7270
    17.8861  18.8815

          k = 0.0556 0.4811 0.0000 (  4463 PWs)   bands (ev):

   -34.7879 -34.7839 -34.7508 -34.7420 -34.7172 -34.6909 -34.6654 -34.5499
   -34.5362 -34.4484 -34.4159 -34.4107 -34.3943 -34.3668 -34.3580 -34.3356
   -34.3241 -34.2945 -34.2804 -34.2650 -34.2603 -34.2449 -34.2340 -33.9623
   -33.9621 -33.8887 -33.8883   6.3903   6.4974   6.5343   6.6857   6.7222
     6.7945   6.8736   7.0167   7.1099   7.2190   7.4465   7.4895   7.7539
     8.2498   8.5942   8.9190   9.1074   9.2661   9.3197   9.5168   9.5531
     9.7366   9.9203  10.2357  10.2880  10.4632  10.8892  10.9772  11.1072
    11.5394  11.6228  11.9087  11.9751  12.0922  12.3195  12.3911  12.4355
    12.4662  12.5119  12.5501  12.6274  12.6736  12.8051  12.8994  13.0276
    13.3780  13.7978  14.1893  14.3195  14.6269  15.4838  16.5945  17.7347
    18.7613  20.2483

          k = 0.0556-0.5453 0.0000 (  4486 PWs)   bands (ev):

   -34.8164 -34.8117 -34.7764 -34.7608 -34.7456 -34.7105 -34.6983 -34.5384
   -34.5347 -34.4323 -34.4238 -34.4149 -34.3973 -34.3848 -34.3680 -34.3421
   -34.3368 -34.3026 -34.2955 -34.2829 -34.2741 -34.2487 -34.2443 -33.9700
   -33.9697 -33.8874 -33.8872   6.2693   6.4328   6.4474   6.6101   6.6448
     6.7108   6.7779   6.9662   7.0243   7.1299   7.3693   7.3887   7.6802
     8.2087   8.5798   8.8386   9.0370   9.1963   9.2768   9.4692   9.7018
     9.8077   9.9119  10.4167  10.4442  10.4600  11.0359  11.1739  11.2673
    11.6690  11.8879  12.1321  12.2204  12.3608  12.4473  12.5819  12.6489
    12.6935  12.7365  12.7797  12.8233  12.8549  12.9517  13.0485  13.1314
    13.9788  14.5793  15.2397  15.7003  15.7479  15.9181  16.4511  17.0258
    17.4152  20.0415

          k = 0.0556-0.4170 0.0000 (  4465 PWs)   bands (ev):

   -34.7367 -34.7346 -34.7127 -34.7074 -34.6698 -34.6504 -34.6090 -34.5723
   -34.5356 -34.4570 -34.4022 -34.3948 -34.3874 -34.3481 -34.3434 -34.3209
   -34.3058 -34.2809 -34.2640 -34.2360 -34.2299 -34.2221 -34.2159 -33.9485
   -33.9483 -33.8913 -33.8910   6.5684   6.6096   6.7164   6.7610   6.9018
     6.9448   7.0395   7.0978   7.2507   7.4001   7.5722   7.6888   7.8845
     8.3377   8.6324   8.9885   9.2502   9.2882   9.3750   9.4153   9.5606
     9.6193   9.7697  10.0232  10.0623  10.3071  10.5096  10.6290  10.9704
    11.0735  11.2688  11.3993  11.4934  11.7746  11.8697  11.9489  12.0171
    12.0844  12.1598  12.2544  12.3291  12.4796  12.5212  12.6650  12.7451
    12.8870  12.9846  13.1040  13.1701  13.8046  14.8996  16.1403  17.4177
    18.6559  19.7748

          k = 0.0556-0.2887 0.0000 (  4439 PWs)   bands (ev):

   -34.7057 -34.6988 -34.6364 -34.6004 -34.5694 -34.5354 -34.4941 -34.4582
   -34.4430 -34.4193 -34.3673 -34.3447 -34.3446 -34.3131 -34.2950 -34.2754
   -34.2621 -34.2493 -34.2258 -34.2035 -34.1891 -34.0890 -34.0889 -33.9074
   -33.9074 -33.8990 -33.8987   6.2898   6.4609   6.7316   7.0099   7.1253
     7.2547   7.4858   7.5578   7.7737   7.8171   8.0369   8.0755   8.2723
     8.4331   8.4867   8.6844   8.9025   8.9242   9.2186   9.4529   9.5557
     9.6086   9.6548   9.7002   9.8040   9.8462   9.9877  10.0486  10.1755
    10.3137  10.5686  10.5842  10.6455  10.7767  10.9220  10.9458  11.1180
    11.1713  11.2197  11.4316  11.5240  11.6267  11.8222  11.8553  11.9316
    12.1459  12.2671  12.5697  12.7369  12.8505  13.7693  14.8412  15.9706
    17.0252  17.8838

          k = 0.0556-0.1604 0.0000 (  4443 PWs)   bands (ev):

   -34.7641 -34.7446 -34.6518 -34.5439 -34.4496 -34.3831 -34.3566 -34.3248
   -34.3149 -34.3082 -34.2958 -34.2881 -34.2701 -34.2579 -34.2443 -34.2293
   -34.2214 -34.2100 -34.1853 -34.1748 -34.1639 -33.9415 -33.9413 -33.9075
   -33.9074 -33.8666 -33.8665   5.2356   5.5058   5.9636   6.5094   6.8558
     6.9091   6.9618   7.2246   7.2558   8.3977   8.5146   8.6432   8.7298
     8.7930   8.8274   8.8930   9.0189   9.2705   9.3360   9.5038   9.5704
     9.5938   9.6186   9.6828   9.7286   9.7580   9.7916   9.8167   9.8541
     9.9424  10.0196  10.1064  10.2269  10.3289  10.3418  10.7158  10.7819
    10.8593  10.9591  10.9691  11.1410  11.3570  11.4287  11.5389  11.7369
    11.8222  12.2085  12.2340  12.5387  12.6661  12.8070  13.5334  14.4036
    15.2198  15.7473

          k = 0.0556-0.0321 0.0000 (  4465 PWs)   bands (ev):

   -34.7979 -34.7721 -34.6682 -34.5384 -34.4161 -34.2986 -34.2848 -34.2760
   -34.2753 -34.2749 -34.2356 -34.2254 -34.2222 -34.2118 -34.2036 -34.1948
   -34.1858 -34.1662 -34.1650 -34.1578 -34.1465 -33.9171 -33.9170 -33.8564
   -33.8563 -33.8453 -33.8450   4.6289   4.9221   5.4108   5.9778   6.3587
     6.4425   6.4550   6.7263   6.7467   8.8792   8.9282   9.0782   9.1236
     9.1410   9.1988   9.2791   9.2876   9.3280   9.3431   9.3438   9.3568
     9.4299   9.4718   9.5106   9.5543   9.5836   9.5981   9.6334   9.7482
     9.8214   9.9057   9.9107   9.9569  10.6166  11.0171  11.0183  11.1545
    11.1610  11.2734  11.2953  11.3472  11.3950  11.4785  11.6259  11.7654
    11.9714  11.9741  12.0942  12.3420  12.4257  12.6047  12.7335  13.0388
    13.6773  13.9618

          k = 0.1667 0.2887 0.0000 (  4425 PWs)   bands (ev):

   -34.6860 -34.6857 -34.6368 -34.6191 -34.5947 -34.5700 -34.5348 -34.4919
   -34.4819 -34.4469 -34.3886 -34.3739 -34.3687 -34.3256 -34.3107 -34.3027
   -34.2832 -34.2615 -34.2583 -34.2506 -34.1924 -34.1205 -34.1203 -33.9403
   -33.9401 -33.8953 -33.8953   6.7809   6.8500   7.0103   7.2368   7.5020
     7.7261   7.7366   7.7603   7.8472   7.8502   7.9676   7.9861   8.0713
     8.2157   8.3246   8.4221   8.8370   8.8808   8.9319   9.0177   9.1930
     9.3276   9.3537   9.3729   9.4608   9.5309  10.0754  10.0817  10.2280
    10.3139  10.4687  10.5235  10.9162  10.9319  11.0095  11.1989  11.4097
    11.5072  11.6614  11.8086  12.0255  12.1180  12.2080  12.3588  12.3648
    12.4153  12.4766  12.5624  12.5932  13.3419  14.3194  15.4002  16.5457
    17.6435  19.2816

          k = 0.1667 0.4170 0.0000 (  4459 PWs)   bands (ev):

   -34.7223 -34.7195 -34.6954 -34.6888 -34.6561 -34.6417 -34.6108 -34.5804
   -34.5386 -34.4682 -34.4461 -34.4448 -34.4045 -34.3730 -34.3653 -34.3588
   -34.3346 -34.3266 -34.2961 -34.2752 -34.2259 -34.2148 -34.2138 -34.0024
   -34.0021 -33.8884 -33.8880   6.9421   7.0022   7.0726   7.1718   7.2621
     7.3390   7.4803   7.4871   7.5694   7.7270   7.7993   8.0413   8.1284
     8.3369   8.4432   8.6456   8.8362   8.8912   9.0455   9.1498   9.2389
     9.4615   9.5738   9.7999   9.8817   9.9988  10.0691  10.2255  10.3700
    10.4921  10.7879  11.0117  11.1101  11.1702  11.3298  11.4010  11.6863
    11.7577  12.0492  12.5197  12.6045  12.7288  12.7971  12.8525  13.0056
    14.0094  14.1400  14.2284  14.4736  15.0429  15.9396  17.0254  18.1931
    19.3513  20.4207

          k = 0.1667 0.5453 0.0000 (  4490 PWs)   bands (ev):

   -34.7789 -34.7751 -34.7381 -34.7253 -34.7091 -34.6776 -34.6671 -34.5410
   -34.5345 -34.4923 -34.4864 -34.4573 -34.4409 -34.4174 -34.3908 -34.3766
   -34.3605 -34.3366 -34.3209 -34.2844 -34.2605 -34.2597 -34.2543 -34.0361
   -34.0360 -33.8845 -33.8844   6.6298   6.8130   6.9179   7.0681   7.0936
     7.1362   7.2020   7.4054   7.4865   7.5322   7.7828   7.8821   7.9981
     8.2337   8.3240   8.5269   8.6872   8.9844   9.2507   9.3382   9.5144
     9.7243   9.8133   9.8625  10.1623  10.2299  10.3061  10.6601  10.7591
    11.0876  11.1117  11.2156  11.4832  11.7720  11.9338  12.0407  12.1455
    12.2217  12.3656  12.5116  12.5707  12.6435  12.7983  12.9158  13.0084
    15.8401  16.1467  16.5018  16.8102  17.1280  17.5250  17.9418  18.2425
    18.3983  20.3397

          k = 0.1667-0.4811 0.0000 (  4476 PWs)   bands (ev):

   -34.7586 -34.7547 -34.7225 -34.7121 -34.6913 -34.6636 -34.6481 -34.5567
   -34.5381 -34.4769 -34.4716 -34.4627 -34.4221 -34.3996 -34.3816 -34.3772
   -34.3499 -34.3365 -34.3093 -34.2827 -34.2472 -34.2446 -34.2397 -34.0243
   -34.0242 -33.8858 -33.8856   6.7410   6.9020   6.9489   7.1241   7.1570
     7.1754   7.3147   7.4483   7.5107   7.6073   7.7937   7.9441   8.0477
     8.2427   8.4047   8.6332   8.7875   8.8537   9.1988   9.2476   9.5399
     9.6183   9.7461   9.8995   9.9928  10.0413  10.2862  10.5023  10.6697
    10.8477  10.8949  11.0602  11.3801  11.5955  11.6686  11.7340  11.8445
    11.8926  12.1775  12.5489  12.6644  12.7601  12.8567  12.9680  13.1019
    14.9667  15.1648  15.3753  15.6583  16.1581  16.9062  17.8289  18.7972
    19.6362  20.5982

          k = 0.1667-0.3528 0.0000 (  4458 PWs)   bands (ev):

   -34.6881 -34.6874 -34.6600 -34.6578 -34.6186 -34.6171 -34.5885 -34.5576
   -34.5213 -34.4648 -34.4135 -34.4103 -34.3918 -34.3483 -34.3365 -34.3305
   -34.3133 -34.3009 -34.2800 -34.2639 -34.2078 -34.1725 -34.1723 -33.9730
   -33.9728 -33.8919 -33.8918   7.0339   7.1213   7.1733   7.2445   7.3660
     7.4510   7.5408   7.6253   7.6821   7.7929   7.9695   8.0932   8.1874
     8.2646   8.4144   8.5861   8.6949   8.8054   8.9754   9.1426   9.2252
     9.2690   9.3287   9.5287   9.6731   9.7312   9.9934  10.0069  10.1950
    10.4780  10.5956  10.7125  10.8885  11.0927  11.1555  11.2951  11.5744
    11.6402  11.8970  12.3131  12.3693  12.4963  12.5395  12.6089  12.7798
    13.1143  13.1895  13.2421  13.4003  14.0469  15.0354  16.1579  17.3414
    18.4915  19.5330

          k = 0.1667-0.2245 0.0000 (  4433 PWs)   bands (ev):

   -34.7094 -34.7028 -34.6362 -34.5842 -34.5453 -34.5118 -34.4723 -34.4344
   -34.4228 -34.4118 -34.3658 -34.3416 -34.3395 -34.3110 -34.2868 -34.2735
   -34.2551 -34.2462 -34.2312 -34.2174 -34.1819 -34.0644 -34.0642 -33.9102
   -33.9101 -33.8994 -33.8993   6.2412   6.4190   6.7324   7.1212   7.4195
     7.4684   7.6111   7.7250   7.8470   7.9441   8.0716   8.1571   8.1828
     8.2967   8.4219   8.5863   8.6354   8.8729   9.1338   9.1871   9.2781
     9.4027   9.4636   9.5680   9.6577   9.6989   9.8958  10.0248  10.1822
    10.4132  10.4239  10.5285  10.6314  10.7137  10.8792  10.8990  11.0314
    11.1696  11.2112  11.4696  11.5244  11.5803  11.8625  11.9017  11.9079
    12.0714  12.2215  12.4187  12.5690  12.8913  13.7539  14.7487  15.8269
    16.8477  17.6758

          k = 0.1667-0.0962 0.0000 (  4427 PWs)   bands (ev):

   -34.7544 -34.7367 -34.6476 -34.5481 -34.4658 -34.4102 -34.3797 -34.3456
   -34.3347 -34.3188 -34.3059 -34.3056 -34.2872 -34.2632 -34.2575 -34.2396
   -34.2284 -34.2200 -34.1888 -34.1774 -34.1660 -33.9669 -33.9667 -33.9065
   -33.9063 -33.8713 -33.8711   5.4160   5.6742   6.1128   6.6342   6.9605
     6.9698   7.1138   7.3495   7.3979   8.2100   8.4290   8.5627   8.6238
     8.6916   8.7467   8.8517   8.9011   9.3366   9.3811   9.4900   9.6047
     9.6196   9.6413   9.7328   9.7457   9.8435   9.8629   9.9175   9.9951
    10.0086  10.0557  10.0598  10.2328  10.3331  10.4396  10.5501  10.7159
    10.7432  10.9126  11.0082  11.1560  11.2720  11.5011  11.5192  11.7059
    12.0101  12.0946  12.3753  12.6486  12.7878  12.8517  13.7335  14.6863
    15.5535  16.1411

          k = 0.2778 0.4811 0.0000 (  4485 PWs)   bands (ev):

   -34.7223 -34.7219 -34.6923 -34.6906 -34.6522 -34.6506 -34.6148 -34.6006
   -34.5742 -34.5342 -34.5116 -34.5100 -34.4680 -34.4473 -34.4306 -34.4218
   -34.3634 -34.3448 -34.3243 -34.2954 -34.2621 -34.2236 -34.2235 -34.0951
   -34.0949 -33.8832 -33.8831   7.1660   7.1827   7.2813   7.3363   7.4245
     7.5812   7.7614   7.8648   7.9416   7.9704   8.0652   8.0797   8.1684
     8.2058   8.3541   8.4040   8.6766   8.7760   8.9157   9.0509   9.2085
     9.3649   9.5645   9.6561   9.8860   9.8932  10.1057  10.1084  10.5787
    10.6616  10.7366  10.8552  11.0877  11.1228  11.3024  11.3281  11.6410
    11.8961  12.2233  12.5106  12.6853  12.7028  12.7036  12.8431  12.9981
    16.3325  16.4548  16.7243  17.1485  17.7325  18.4839  19.3611  20.2500
    20.7071  20.7901

          k = 0.2778 0.6094 0.0000 (  4491 PWs)   bands (ev):

   -34.7149 -34.7112 -34.6809 -34.6773 -34.6490 -34.6412 -34.6318 -34.6060
   -34.5818 -34.5596 -34.5370 -34.5288 -34.5057 -34.4746 -34.4450 -34.4343
   -34.3543 -34.3456 -34.3210 -34.2993 -34.2813 -34.2157 -34.2155 -34.1271
   -34.1268 -33.8819 -33.8817   7.1330   7.2888   7.3917   7.5102   7.5415
     7.6382   7.7275   7.8432   7.8953   7.9323   7.9954   8.0724   8.1814
     8.2242   8.3214   8.4628   8.5485   8.9015   8.9423   9.1744   9.2607
     9.3751   9.4511   9.6464   9.8127   9.8612  10.1558  10.1657  10.5499
    10.6666  10.8383  10.9610  11.0538  11.1735  11.3315  11.3811  11.9602
    12.1103  12.2936  12.3810  12.4954  12.5439  12.5944  12.6500  12.7752
    17.5323  17.7072  18.0134  18.3906  18.7344  19.0391  19.4028  19.8117
    20.2292  20.3474

          k = 0.2778-0.4170 0.0000 (  4462 PWs)   bands (ev):

   -34.7284 -34.7259 -34.6992 -34.6903 -34.6634 -34.6463 -34.6251 -34.5816
   -34.5508 -34.4930 -34.4838 -34.4818 -34.4342 -34.4076 -34.4011 -34.3839
   -34.3630 -34.3422 -34.3212 -34.2847 -34.2418 -34.2246 -34.2245 -34.0498
   -34.0495 -33.8852 -33.8849   7.0217   7.1486   7.1696   7.2929   7.3596
     7.4784   7.5821   7.6772   7.7438   7.8677   8.0804   8.0919   8.1816
     8.3069   8.5191   8.5234   8.5774   8.7300   8.9405   9.0085   9.2443
     9.3781   9.5411   9.7632   9.9118   9.9438  10.1257  10.1583  10.3326
    10.5156  10.7683  10.9104  11.0765  11.1860  11.3211  11.3731  11.5418
    11.7111  12.1349  12.5498  12.7578  12.7902  12.8536  12.9465  13.1036
    15.1655  15.2450  15.4249  15.7748  16.3488  17.1633  18.1534  19.2242
    20.2768  21.1722

          k = 0.2778-0.2887 0.0000 (  4463 PWs)   bands (ev):

   -34.7055 -34.7046 -34.6841 -34.6816 -34.6381 -34.6263 -34.5875 -34.5732
   -34.5294 -34.4593 -34.4087 -34.4041 -34.3886 -34.3470 -34.3376 -34.3280
   -34.3161 -34.2840 -34.2688 -34.2533 -34.2139 -34.1939 -34.1933 -33.9605
   -33.9604 -33.8916 -33.8913   6.7801   6.9105   6.9576   7.0007   7.1518
     7.1863   7.2542   7.3530   7.4652   7.6121   7.7692   7.9887   8.0300
     8.3373   8.5231   8.8401   8.9095   9.1384   9.1884   9.3054   9.3852
     9.5149   9.6396   9.7273   9.8327  10.0625  10.1635  10.3426  10.5207
    10.5333  10.7505  10.9820  11.1733  11.2503  11.2828  11.4624  11.7683
    11.7916  12.0773  12.2402  12.3695  12.4370  12.5419  12.6354  12.8077
    12.9555  13.1468  13.1762  13.3139  13.9513  14.9699  16.1370  17.3608
    18.5471  19.6079

          k = 0.2778-0.1604 0.0000 (  4458 PWs)   bands (ev):

   -34.7009 -34.6926 -34.6401 -34.6292 -34.6010 -34.5718 -34.5295 -34.4898
   -34.4797 -34.4349 -34.3767 -34.3532 -34.3527 -34.3224 -34.3059 -34.2826
   -34.2666 -34.2591 -34.2249 -34.2048 -34.1990 -34.1259 -34.1256 -33.9120
   -33.9119 -33.8976 -33.8974   6.3966   6.5657   6.7827   6.9027   6.9589
     7.1332   7.3407   7.3959   7.5566   7.7100   7.8643   7.9525   8.1834
     8.4910   8.7219   8.8508   9.0346   9.1888   9.3417   9.4848   9.5651
     9.6201   9.6664   9.7639   9.9015  10.0650  10.1570  10.3335  10.4387
    10.4504  10.6140  10.6899  10.8655  11.0583  11.1225  11.2284  11.2561
    11.3061  11.4142  11.4419  11.6030  11.7263  11.8418  11.9577  11.9621
    12.0959  12.4101  12.6994  12.8486  12.8584  13.9189  15.0798  16.2687
    17.3759  18.2942

          k = 0.3889 0.6736 0.0000 (  4511 PWs)   bands (ev):

   -34.7506 -34.7466 -34.7089 -34.6997 -34.6806 -34.6568 -34.6455 -34.5655
   -34.5614 -34.5220 -34.5215 -34.4944 -34.4823 -34.4506 -34.4278 -34.4030
   -34.3548 -34.3522 -34.3274 -34.2908 -34.2699 -34.2412 -34.2412 -34.0854
   -34.0853 -33.8830 -33.8828   6.8560   7.0333   7.2445   7.3534   7.3624
     7.4468   7.5458   7.6164   7.7100   7.7837   7.9694   7.9998   8.1741
     8.3121   8.3511   8.4154   8.5080   8.7407   9.0203   9.1873   9.4468
     9.5862   9.6908   9.8350   9.8955  10.1390  10.2421  10.3724  10.6029
    10.6520  10.7046  11.0245  11.2764  11.4707  11.6213  11.7213  12.1390
    12.1968  12.2793  12.3733  12.5247  12.5326  12.7128  12.7901  12.8210
    17.0511  17.2584  17.5074  17.7420  17.9821  18.2575  18.5859  18.9043
    19.1551  20.4879

          k = 0.3889-0.3528 0.0000 (  4485 PWs)   bands (ev):

   -34.7922 -34.7879 -34.7528 -34.7403 -34.7222 -34.6907 -34.6756 -34.5415
   -34.5332 -34.4553 -34.4491 -34.4344 -34.4046 -34.3809 -34.3766 -34.3607
   -34.3482 -34.3094 -34.3002 -34.2764 -34.2663 -34.2615 -34.2422 -33.9932
   -33.9931 -33.8866 -33.8865   6.4697   6.6386   6.6549   6.8112   6.8492
     6.9225   6.9702   7.1773   7.2691   7.2839   7.5840   7.6385   7.8005
     8.2105   8.4758   8.7417   8.9365   9.2108   9.3263   9.4654   9.5106
     9.6440   9.8783  10.0814  10.2069  10.4663  10.6704  10.7945  11.0541
    11.2781  11.5516  11.5937  11.7053  11.9977  12.1848  12.2330  12.2688
    12.2981  12.3860  12.5813  12.6424  12.7427  12.8382  12.9822  13.1057
    14.5675  14.9356  15.3229  15.5639  15.8505  16.4276  17.2061  17.9750
    18.5316  20.2848

          k = 0.3889-0.2245 0.0000 (  4444 PWs)   bands (ev):

   -34.7678 -34.7639 -34.7351 -34.7299 -34.6979 -34.6762 -34.6408 -34.5603
   -34.5374 -34.4533 -34.3991 -34.3939 -34.3931 -34.3569 -34.3469 -34.3196
   -34.3039 -34.2930 -34.2568 -34.2547 -34.2466 -34.2305 -34.2289 -33.9473
   -33.9471 -33.8902 -33.8897   6.4281   6.4681   6.5525   6.6605   6.7542
     6.7970   6.9099   6.9773   7.1093   7.2676   7.4374   7.5021   7.7962
     8.3068   8.6631   9.0127   9.2019   9.2747   9.3698   9.5397   9.5643
     9.7309   9.8975  10.1516  10.3319  10.4022  10.8222  10.9398  11.1254
    11.4747  11.6116  11.9355  11.9569  12.1845  12.2297  12.2959  12.3205
    12.3858  12.4109  12.4900  12.5263  12.6003  12.6619  12.7557  12.8659
    12.8862  12.9665  13.2551  13.2918  13.8481  14.9882  16.2562  17.5387
    18.7774  20.0259

          k =-0.5000-0.8660 0.0000 (  4492 PWs)   bands (ev):

   -34.8243 -34.8209 -34.7854 -34.7680 -34.7552 -34.7164 -34.7074 -34.5384
   -34.5361 -34.4183 -34.4109 -34.4095 -34.4012 -34.3903 -34.3635 -34.3341
   -34.3309 -34.3063 -34.2961 -34.2854 -34.2697 -34.2470 -34.2408 -33.9614
   -33.9614 -33.8879 -33.8877   6.1944   6.3560   6.3765   6.5466   6.5703
     6.6299   6.7205   6.8891   6.9358   7.0797   7.2851   7.3024   7.6436
     8.2002   8.6181   8.8769   9.0645   9.1462   9.2613   9.4399   9.8176
     9.9075   9.9525  10.3545  10.5790  10.6243  10.9391  11.4516  11.4780
    11.5463  12.1145  12.3228  12.3608  12.4980  12.6768  12.7635  12.7665
    12.8124  12.8665  12.9193  12.9422  12.9907  13.0895  13.2368  13.2418
    13.4672  14.3479  15.1742  15.6677  15.8472  16.1095  16.2923  16.4371
    16.4956  19.9536

 ------ SPIN DOWN ----------


          k = 0.0556 0.0962 0.0000 (  4451 PWs)   bands (ev):

   -34.7874 -34.7636 -34.6634 -34.5403 -34.4256 -34.3290 -34.3121 -34.2904
   -34.2862 -34.2851 -34.2613 -34.2530 -34.2325 -34.2309 -34.2217 -34.2127
   -34.1957 -34.1915 -34.1699 -34.1686 -34.1554 -33.9168 -33.9165 -33.8853
   -33.8850 -33.8535 -33.8535   4.8389   5.1259   5.6072   6.1704   6.5391
     6.6200   6.6274   6.9073   6.9309   8.7053   8.7472   8.8971   8.9799
     9.0031   9.0680   9.1601   9.2530   9.3509   9.4279   9.4450   9.4797
     9.4896   9.5326   9.5436   9.5858   9.6248   9.6747   9.7311   9.7855
     9.7945   9.8498  10.0439  10.0560  10.2543  10.8183  10.8823  10.8861
    11.0481  11.0880  11.2484  11.3102  11.3829  11.4523  11.5554  11.6354
    11.8091  11.9456  12.2421  12.3692  12.5634  12.6811  12.9348  13.6449
    14.3492  14.7326

          k = 0.0556 0.2245 0.0000 (  4420 PWs)   bands (ev):

   -34.7356 -34.7226 -34.6424 -34.5615 -34.5004 -34.4568 -34.4197 -34.3882
   -34.3706 -34.3642 -34.3310 -34.3193 -34.3173 -34.2910 -34.2696 -34.2533
   -34.2416 -34.2327 -34.2069 -34.1890 -34.1766 -34.0115 -34.0112 -33.9052
   -33.9049 -33.8865 -33.8863   5.7626   5.9935   6.3893   6.8631   7.1414
     7.1782   7.3506   7.5639   7.6420   8.0232   8.2404   8.3949   8.4119
     8.5155   8.5844   8.7088   8.7660   9.1346   9.3185   9.4051   9.4932
     9.5719   9.6679   9.6915   9.7173   9.8076   9.8387   9.9946  10.1171
    10.1616  10.2265  10.3736  10.4488  10.5335  10.5692  10.6272  10.7258
    10.8392  10.9248  11.0532  11.1462  11.4563  11.5670  11.6030  11.7793
    12.0120  12.1862  12.5283  12.5454  12.7011  13.2635  14.1808  15.1909
    16.1292  16.8242

          k = 0.0556 0.3528 0.0000 (  4467 PWs)   bands (ev):

   -34.7003 -34.6927 -34.6628 -34.6619 -34.6168 -34.6108 -34.5694 -34.5320
   -34.5130 -34.4515 -34.3892 -34.3732 -34.3712 -34.3319 -34.3237 -34.3016
   -34.2864 -34.2667 -34.2475 -34.2223 -34.2078 -34.1643 -34.1640 -33.9304
   -33.9302 -33.8963 -33.8963   6.5645   6.7399   6.8751   6.9219   6.9557
     7.1203   7.2026   7.3423   7.4334   7.6510   7.7553   7.9354   8.0633
     8.4314   8.7035   8.8564   9.0547   9.1914   9.3504   9.4615   9.5401
     9.5591   9.5869   9.7732   9.8529  10.1240  10.1768  10.4112  10.5515
    10.5926  10.7148  10.8788  11.0892  11.2646  11.3551  11.4154  11.5105
    11.6964  11.7435  11.7938  11.9543  12.0972  12.1592  12.2926  12.3381
    12.3942  12.4297  12.6270  12.7940  13.2375  14.3108  15.5009  16.7264
    17.8856  18.8812

          k = 0.0556 0.4811 0.0000 (  4463 PWs)   bands (ev):

   -34.7892 -34.7851 -34.7521 -34.7433 -34.7186 -34.6925 -34.6669 -34.5512
   -34.5374 -34.4498 -34.4171 -34.4119 -34.3956 -34.3683 -34.3595 -34.3369
   -34.3255 -34.2959 -34.2817 -34.2661 -34.2614 -34.2464 -34.2356 -33.9633
   -33.9631 -33.8901 -33.8897   6.3896   6.4968   6.5337   6.6851   6.7215
     6.7938   6.8729   7.0160   7.1092   7.2182   7.4459   7.4888   7.7531
     8.2490   8.5933   8.9181   9.1064   9.2650   9.3187   9.5158   9.5522
     9.7358   9.9192  10.2349  10.2871  10.4621  10.8884  10.9762  11.1063
    11.5384  11.6218  11.9079  11.9739  12.0911  12.3182  12.3899  12.4343
    12.4650  12.5106  12.5487  12.6261  12.6725  12.8039  12.8983  13.0263
    13.3772  13.7970  14.1885  14.3189  14.6265  15.4834  16.5940  17.7343
    18.7608  20.2477

          k = 0.0556-0.5453 0.0000 (  4486 PWs)   bands (ev):

   -34.8176 -34.8130 -34.7777 -34.7620 -34.7471 -34.7120 -34.6999 -34.5395
   -34.5359 -34.4337 -34.4251 -34.4162 -34.3985 -34.3864 -34.3695 -34.3435
   -34.3382 -34.3039 -34.2967 -34.2840 -34.2754 -34.2502 -34.2458 -33.9709
   -33.9706 -33.8888 -33.8886   6.2686   6.4321   6.4468   6.6093   6.6442
     6.7101   6.7772   6.9655   7.0235   7.1291   7.3687   7.3881   7.6794
     8.2080   8.5789   8.8376   9.0361   9.1953   9.2758   9.4681   9.7009
     9.8067   9.9109  10.4158  10.4432  10.4592  11.0349  11.1728  11.2665
    11.6679  11.8868  12.1310  12.2193  12.3596  12.4461  12.5806  12.6476
    12.6922  12.7352  12.7783  12.8221  12.8535  12.9506  13.0475  13.1302
    13.9783  14.5788  15.2392  15.6999  15.7474  15.9177  16.4508  17.0254
    17.4147  20.0414

          k = 0.0556-0.4170 0.0000 (  4465 PWs)   bands (ev):

   -34.7380 -34.7359 -34.7140 -34.7087 -34.6713 -34.6519 -34.6105 -34.5736
   -34.5369 -34.4583 -34.4035 -34.3961 -34.3887 -34.3495 -34.3449 -34.3222
   -34.3072 -34.2822 -34.2654 -34.2376 -34.2312 -34.2231 -34.2172 -33.9495
   -33.9493 -33.8927 -33.8924   6.5678   6.6090   6.7158   6.7605   6.9011
     6.9441   7.0388   7.0971   7.2501   7.3993   7.5716   7.6881   7.8837
     8.3370   8.6316   8.9877   9.2493   9.2872   9.3741   9.4143   9.5597
     9.6183   9.7690  10.0221  10.0613  10.3065  10.5086  10.6282  10.9694
    11.0727  11.2680  11.3982  11.4925  11.7734  11.8684  11.9477  12.0159
    12.0832  12.1586  12.2532  12.3280  12.4785  12.5199  12.6639  12.7440
    12.8858  12.9836  13.1030  13.1693  13.8040  14.8990  16.1397  17.4172
    18.6554  19.7744

          k = 0.0556-0.2887 0.0000 (  4439 PWs)   bands (ev):

   -34.7069 -34.7000 -34.6379 -34.6017 -34.5708 -34.5367 -34.4955 -34.4597
   -34.4445 -34.4206 -34.3686 -34.3460 -34.3459 -34.3145 -34.2966 -34.2768
   -34.2635 -34.2507 -34.2273 -34.2051 -34.1907 -34.0899 -34.0898 -33.9084
   -33.9083 -33.9003 -33.9001   6.2897   6.4608   6.7314   7.0095   7.1246
     7.2541   7.4852   7.5570   7.7729   7.8164   8.0364   8.0747   8.2715
     8.4322   8.4859   8.6837   8.9017   8.9234   9.2177   9.4520   9.5548
     9.6077   9.6538   9.6993   9.8030   9.8453   9.9868  10.0478  10.1746
    10.3126  10.5676  10.5830  10.6444  10.7756  10.9208  10.9447  11.1168
    11.1701  11.2185  11.4307  11.5230  11.6256  11.8209  11.8542  11.9304
    12.1447  12.2658  12.5686  12.7356  12.8494  13.7683  14.8404  15.9699
    17.0247  17.8834

          k = 0.0556-0.1604 0.0000 (  4443 PWs)   bands (ev):

   -34.7653 -34.7458 -34.6533 -34.5453 -34.4509 -34.3844 -34.3579 -34.3262
   -34.3163 -34.3096 -34.2972 -34.2894 -34.2714 -34.2594 -34.2458 -34.2306
   -34.2229 -34.2114 -34.1868 -34.1764 -34.1655 -33.9425 -33.9423 -33.9089
   -33.9088 -33.8676 -33.8674   5.2356   5.5058   5.9636   6.5093   6.8554
     6.9086   6.9613   7.2241   7.2554   8.3968   8.5137   8.6423   8.7288
     8.7923   8.8265   8.8919   9.0179   9.2697   9.3350   9.5029   9.5693
     9.5927   9.6176   9.6819   9.7275   9.7570   9.7907   9.8158   9.8532
     9.9414  10.0185  10.1052  10.2261  10.3281  10.3410  10.7147  10.7808
    10.8583  10.9580  10.9680  11.1400  11.3558  11.4275  11.5377  11.7358
    11.8210  12.2073  12.2328  12.5376  12.6648  12.8059  13.5325  14.4028
    15.2192  15.7468

          k = 0.0556-0.0321 0.0000 (  4465 PWs)   bands (ev):

   -34.7992 -34.7733 -34.6696 -34.5398 -34.4174 -34.3000 -34.2861 -34.2773
   -34.2766 -34.2762 -34.2371 -34.2270 -34.2235 -34.2131 -34.2050 -34.1961
   -34.1873 -34.1676 -34.1666 -34.1594 -34.1481 -33.9185 -33.9184 -33.8574
   -33.8572 -33.8462 -33.8460   4.6290   4.9221   5.4108   5.9778   6.3584
     6.4420   6.4545   6.7258   6.7462   8.8782   8.9273   9.0772   9.1225
     9.1401   9.1979   9.2780   9.2866   9.3270   9.3421   9.3427   9.3558
     9.4289   9.4707   9.5096   9.5532   9.5824   9.5969   9.6322   9.7474
     9.8206   9.9049   9.9099   9.9561  10.6160  11.0159  11.0170  11.1534
    11.1598  11.2721  11.2940  11.3464  11.3937  11.4774  11.6248  11.7644
    11.9702  11.9731  12.0933  12.3408  12.4247  12.6036  12.7322  13.0378
    13.6767  13.9613

          k = 0.1667 0.2887 0.0000 (  4425 PWs)   bands (ev):

   -34.6872 -34.6869 -34.6383 -34.6203 -34.5961 -34.5714 -34.5362 -34.4934
   -34.4833 -34.4482 -34.3899 -34.3752 -34.3700 -34.3270 -34.3121 -34.3039
   -34.2845 -34.2630 -34.2600 -34.2520 -34.1940 -34.1215 -34.1213 -33.9413
   -33.9411 -33.8967 -33.8967   6.7808   6.8498   7.0100   7.2364   7.5015
     7.7254   7.7359   7.7595   7.8466   7.8493   7.9669   7.9853   8.0706
     8.2149   8.3237   8.4211   8.8363   8.8802   8.9311   9.0170   9.1921
     9.3268   9.3529   9.3719   9.4598   9.5298  10.0744  10.0807  10.2268
    10.3128  10.4676  10.5223  10.9151  10.9307  11.0083  11.1978  11.4086
    11.5062  11.6603  11.8074  12.0243  12.1169  12.2069  12.3576  12.3637
    12.4142  12.4755  12.5614  12.5919  13.3409  14.3185  15.3994  16.5450
    17.6430  19.2811

          k = 0.1667 0.4170 0.0000 (  4459 PWs)   bands (ev):

   -34.7235 -34.7207 -34.6967 -34.6900 -34.6576 -34.6432 -34.6124 -34.5817
   -34.5399 -34.4696 -34.4473 -34.4461 -34.4059 -34.3744 -34.3666 -34.3602
   -34.3360 -34.3281 -34.2976 -34.2766 -34.2274 -34.2158 -34.2148 -34.0034
   -34.0031 -33.8898 -33.8894   6.9414   7.0016   7.0719   7.1713   7.2614
     7.3382   7.4796   7.4864   7.5687   7.7263   7.7987   8.0404   8.1277
     8.3362   8.4425   8.6448   8.8353   8.8904   9.0445   9.1490   9.2381
     9.4607   9.5730   9.7990   9.8807   9.9978  10.0682  10.2247  10.3693
    10.4912  10.7868  11.0105  11.1089  11.1691  11.3287  11.3998  11.6852
    11.7565  12.0479  12.5184  12.6032  12.7276  12.7957  12.8514  13.0043
    14.0085  14.1391  14.2276  14.4729  15.0423  15.9390  17.0248  18.1926
    19.3508  20.4204

          k = 0.1667 0.5453 0.0000 (  4490 PWs)   bands (ev):

   -34.7801 -34.7763 -34.7394 -34.7265 -34.7106 -34.6791 -34.6686 -34.5422
   -34.5356 -34.4935 -34.4877 -34.4588 -34.4424 -34.4187 -34.3920 -34.3780
   -34.3620 -34.3380 -34.3224 -34.2859 -34.2616 -34.2607 -34.2558 -34.0370
   -34.0369 -33.8859 -33.8858   6.6291   6.8123   6.9172   7.0673   7.0930
     7.1355   7.2013   7.4046   7.4858   7.5315   7.7820   7.8814   7.9975
     8.2330   8.3232   8.5260   8.6862   8.9836   9.2499   9.3374   9.5135
     9.7232   9.8122   9.8618  10.1613  10.2290  10.3054  10.6591  10.7583
    11.0868  11.1109  11.2147  11.4820  11.7708  11.9327  12.0395  12.1442
    12.2204  12.3642  12.5104  12.5693  12.6423  12.7972  12.9146  13.0071
    15.8396  16.1461  16.5012  16.8096  17.1275  17.5246  17.9413  18.2421
    18.3979  20.3388

          k = 0.1667-0.4811 0.0000 (  4476 PWs)   bands (ev):

   -34.7599 -34.7559 -34.7238 -34.7133 -34.6928 -34.6652 -34.6497 -34.5580
   -34.5393 -34.4781 -34.4728 -34.4642 -34.4236 -34.4010 -34.3829 -34.3787
   -34.3513 -34.3379 -34.3108 -34.2842 -34.2484 -34.2456 -34.2411 -34.0253
   -34.0252 -33.8872 -33.8870   6.7403   6.9013   6.9482   7.1235   7.1563
     7.1746   7.3140   7.4475   7.5099   7.6065   7.7930   7.9433   8.0471
     8.2420   8.4039   8.6323   8.7865   8.8529   9.1980   9.2468   9.5390
     9.6175   9.7452   9.8984   9.9920  10.0404  10.2853  10.5014  10.6687
    10.8469  10.8942  11.0591  11.3789  11.5943  11.6675  11.7328  11.8433
    11.8913  12.1762  12.5476  12.6631  12.7588  12.8555  12.9668  13.1006
    14.9660  15.1641  15.3745  15.6577  16.1576  16.9057  17.8284  18.7968
    19.6357  20.5962

          k = 0.1667-0.3528 0.0000 (  4458 PWs)   bands (ev):

   -34.6894 -34.6886 -34.6612 -34.6590 -34.6201 -34.6186 -34.5898 -34.5591
   -34.5226 -34.4661 -34.4147 -34.4115 -34.3931 -34.3498 -34.3377 -34.3318
   -34.3147 -34.3025 -34.2816 -34.2653 -34.2094 -34.1735 -34.1733 -33.9739
   -33.9738 -33.8933 -33.8932   7.0334   7.1207   7.1729   7.2440   7.3655
     7.4503   7.5401   7.6245   7.6814   7.7921   7.9686   8.0925   8.1865
     8.2639   8.4136   8.5854   8.6942   8.8047   8.9747   9.1417   9.2243
     9.2680   9.3279   9.5279   9.6724   9.7304   9.9925  10.0060  10.1939
    10.4769  10.5944  10.7113  10.8874  11.0915  11.1543  11.2940  11.5734
    11.6390  11.8958  12.3119  12.3681  12.4950  12.5383  12.6078  12.7784
    13.1132  13.1884  13.2412  13.3996  14.0462  15.0347  16.1572  17.3408
    18.4910  19.5326

          k = 0.1667-0.2245 0.0000 (  4433 PWs)   bands (ev):

   -34.7107 -34.7040 -34.6377 -34.5856 -34.5467 -34.5132 -34.4737 -34.4358
   -34.4243 -34.4131 -34.3671 -34.3429 -34.3408 -34.3124 -34.2882 -34.2748
   -34.2565 -34.2476 -34.2328 -34.2189 -34.1834 -34.0654 -34.0652 -33.9112
   -33.9111 -33.9008 -33.9007   6.2412   6.4189   6.7323   7.1210   7.4189
     7.4678   7.6105   7.7243   7.8464   7.9434   8.0708   8.1562   8.1819
     8.2959   8.4210   8.5854   8.6346   8.8721   9.1330   9.1863   9.2773
     9.4018   9.4627   9.5671   9.6567   9.6978   9.8947  10.0238  10.1811
    10.4121  10.4228  10.5274  10.6302  10.7126  10.8780  10.8979  11.0304
    11.1685  11.2101  11.4687  11.5235  11.5792  11.8614  11.9004  11.9069
    12.0701  12.2203  12.4176  12.5678  12.8901  13.7529  14.7479  15.8262
    16.8472  17.6754

          k = 0.1667-0.0962 0.0000 (  4427 PWs)   bands (ev):

   -34.7557 -34.7379 -34.6490 -34.5495 -34.4672 -34.4115 -34.3810 -34.3470
   -34.3361 -34.3201 -34.3072 -34.3069 -34.2886 -34.2646 -34.2591 -34.2409
   -34.2299 -34.2213 -34.1903 -34.1790 -34.1676 -33.9678 -33.9676 -33.9079
   -33.9077 -33.8723 -33.8721   5.4160   5.6742   6.1128   6.6341   6.9601
     6.9691   7.1133   7.3490   7.3975   8.2091   8.4282   8.5618   8.6229
     8.6907   8.7459   8.8508   8.9001   9.3358   9.3802   9.4891   9.6037
     9.6185   9.6402   9.7320   9.7447   9.8426   9.8618   9.9164   9.9941
    10.0075  10.0549  10.0586  10.2315  10.3322  10.4387  10.5491  10.7149
    10.7421  10.9115  11.0071  11.1548  11.2708  11.4998  11.5179  11.7047
    12.0089  12.0935  12.3740  12.6475  12.7865  12.8507  13.7326  14.6855
    15.5529  16.1406

          k = 0.2778 0.4811 0.0000 (  4485 PWs)   bands (ev):

   -34.7236 -34.7231 -34.6936 -34.6919 -34.6538 -34.6521 -34.6161 -34.6019
   -34.5756 -34.5357 -34.5128 -34.5113 -34.4694 -34.4487 -34.4318 -34.4231
   -34.3648 -34.3461 -34.3258 -34.2969 -34.2637 -34.2245 -34.2244 -34.0961
   -34.0959 -33.8846 -33.8845   7.1652   7.1819   7.2807   7.3355   7.4237
     7.5805   7.7608   7.8641   7.9408   7.9696   8.0644   8.0790   8.1676
     8.2049   8.3533   8.4032   8.6759   8.7752   8.9150   9.0502   9.2077
     9.3642   9.5636   9.6553   9.8852   9.8924  10.1051  10.1077  10.5775
    10.6605  10.7354  10.8540  11.0865  11.1215  11.3014  11.3271  11.6397
    11.8948  12.2218  12.5093  12.6840  12.7014  12.7023  12.8420  12.9967
    16.3317  16.4542  16.7237  17.1479  17.7320  18.4834  19.3606  20.2496
    20.7066  20.7897

          k = 0.2778 0.6094 0.0000 (  4491 PWs)   bands (ev):

   -34.7162 -34.7125 -34.6822 -34.6785 -34.6504 -34.6426 -34.6331 -34.6073
   -34.5833 -34.5610 -34.5384 -34.5301 -34.5072 -34.4761 -34.4462 -34.4356
   -34.3556 -34.3469 -34.3226 -34.3009 -34.2829 -34.2167 -34.2164 -34.1280
   -34.1278 -33.8833 -33.8831   7.1322   7.2881   7.3909   7.5095   7.5407
     7.6374   7.7268   7.8425   7.8945   7.9315   7.9946   8.0717   8.1806
     8.2234   8.3206   8.4620   8.5478   8.9008   8.9415   9.1736   9.2598
     9.3744   9.4503   9.6456   9.8120   9.8604  10.1552  10.1650  10.5487
    10.6655  10.8371  10.9598  11.0526  11.1723  11.3305  11.3800  11.9589
    12.1089  12.2921  12.3798  12.4941  12.5427  12.5930  12.6489  12.7739
    17.5317  17.7067  18.0129  18.3902  18.7340  19.0387  19.4024  19.8113
    20.2288  20.3470

          k = 0.2778-0.4170 0.0000 (  4462 PWs)   bands (ev):

   -34.7297 -34.7271 -34.7005 -34.6915 -34.6650 -34.6479 -34.6266 -34.5829
   -34.5521 -34.4945 -34.4850 -34.4831 -34.4356 -34.4090 -34.4023 -34.3853
   -34.3645 -34.3437 -34.3227 -34.2861 -34.2433 -34.2256 -34.2255 -34.0508
   -34.0505 -33.8866 -33.8863   7.0210   7.1478   7.1689   7.2922   7.3589
     7.4777   7.5814   7.6764   7.7431   7.8670   8.0797   8.0911   8.1807
     8.3061   8.5182   8.5227   8.5766   8.7292   8.9397   9.0078   9.2435
     9.3774   9.5403   9.7624   9.9110   9.9429  10.1250  10.1576  10.3315
    10.5146  10.7672  10.9092  11.0752  11.1848  11.3199  11.3721  11.5407
    11.7099  12.1335  12.5484  12.7565  12.7888  12.8523  12.9453  13.1023
    15.1646  15.2443  15.4242  15.7742  16.3482  17.1627  18.1529  19.2237
    20.2763  21.1718

          k = 0.2778-0.2887 0.0000 (  4463 PWs)   bands (ev):

   -34.7068 -34.7059 -34.6854 -34.6828 -34.6396 -34.6278 -34.5889 -34.5747
   -34.5307 -34.4607 -34.4100 -34.4054 -34.3899 -34.3485 -34.3389 -34.3294
   -34.3175 -34.2855 -34.2702 -34.2549 -34.2154 -34.1949 -34.1943 -33.9615
   -33.9614 -33.8930 -33.8928   6.7795   6.9098   6.9572   7.0001   7.1511
     7.1856   7.2537   7.3523   7.4645   7.6112   7.7686   7.9878   8.0293
     8.3366   8.5224   8.8393   8.9087   9.1375   9.1876   9.3044   9.3844
     9.5142   9.6387   9.7262   9.8318  10.0616  10.1626  10.3417  10.5198
    10.5325  10.7495  10.9809  11.1722  11.2492  11.2816  11.4612  11.7672
    11.7903  12.0762  12.2389  12.3682  12.4357  12.5406  12.6342  12.8064
    12.9545  13.1458  13.1752  13.3131  13.9506  14.9691  16.1363  17.3602
    18.5466  19.6075

          k = 0.2778-0.1604 0.0000 (  4458 PWs)   bands (ev):

   -34.7021 -34.6938 -34.6415 -34.6305 -34.6024 -34.5732 -34.5308 -34.4914
   -34.4811 -34.4362 -34.3780 -34.3545 -34.3539 -34.3238 -34.3075 -34.2839
   -34.2681 -34.2604 -34.2264 -34.2064 -34.2006 -34.1268 -34.1265 -33.9129
   -33.9128 -33.8990 -33.8988   6.3964   6.5655   6.7825   6.9022   6.9582
     7.1326   7.3400   7.3951   7.5559   7.7093   7.8636   7.9518   8.1826
     8.4903   8.7211   8.8500   9.0339   9.1881   9.3409   9.4839   9.5640
     9.6190   9.6654   9.7629   9.9006  10.0639  10.1562  10.3328  10.4376
    10.4497  10.6133  10.6888  10.8643  11.0572  11.1214  11.2273  11.2549
    11.3049  11.4130  11.4409  11.6020  11.7253  11.8407  11.9565  11.9609
    12.0946  12.4088  12.6983  12.8476  12.8571  13.9180  15.0790  16.2681
    17.3753  18.2937

          k = 0.3889 0.6736 0.0000 (  4511 PWs)   bands (ev):

   -34.7518 -34.7478 -34.7102 -34.7009 -34.6821 -34.6584 -34.6470 -34.5668
   -34.5627 -34.5233 -34.5227 -34.4959 -34.4838 -34.4519 -34.4290 -34.4044
   -34.3561 -34.3536 -34.3289 -34.2924 -34.2715 -34.2422 -34.2422 -34.0863
   -34.0863 -33.8844 -33.8842   6.8552   7.0326   7.2438   7.3526   7.3618
     7.4460   7.5451   7.6157   7.7092   7.7829   7.9686   7.9991   8.1732
     8.3115   8.3503   8.4145   8.5074   8.7399   9.0196   9.1865   9.4460
     9.5854   9.6899   9.8342   9.8946  10.1378  10.2412  10.3713  10.6022
    10.6513  10.7035  11.0234  11.2752  11.4695  11.6203  11.7201  12.1376
    12.1954  12.2780  12.3720  12.5235  12.5313  12.7117  12.7887  12.8198
    17.0506  17.2579  17.5069  17.7415  17.9816  18.2570  18.5854  18.9039
    19.1547  20.4864

          k = 0.3889-0.3528 0.0000 (  4485 PWs)   bands (ev):

   -34.7935 -34.7891 -34.7541 -34.7415 -34.7237 -34.6923 -34.6772 -34.5427
   -34.5344 -34.4566 -34.4503 -34.4358 -34.4060 -34.3824 -34.3780 -34.3620
   -34.3495 -34.3108 -34.3015 -34.2777 -34.2674 -34.2628 -34.2438 -33.9942
   -33.9940 -33.8881 -33.8879   6.4690   6.6379   6.6543   6.8104   6.8485
     6.9218   6.9695   7.1766   7.2684   7.2831   7.5834   7.6379   7.7998
     8.2098   8.4750   8.7408   8.9355   9.2100   9.3254   9.4645   9.5096
     9.6430   9.8773  10.0807  10.2060  10.4653  10.6697  10.7935  11.0531
    11.2772  11.5508  11.5926  11.7044  11.9965  12.1835  12.2317  12.2676
    12.2969  12.3847  12.5800  12.6410  12.7415  12.8370  12.9810  13.1044
    14.5669  14.9350  15.3222  15.5633  15.8501  16.4272  17.2057  17.9746
    18.5312  20.2839

          k = 0.3889-0.2245 0.0000 (  4444 PWs)   bands (ev):

   -34.7691 -34.7651 -34.7364 -34.7311 -34.6994 -34.6777 -34.6423 -34.5616
   -34.5386 -34.4546 -34.4004 -34.3952 -34.3943 -34.3583 -34.3485 -34.3210
   -34.3053 -34.2943 -34.2582 -34.2558 -34.2476 -34.2320 -34.2305 -33.9483
   -33.9481 -33.8916 -33.8911   6.4274   6.4675   6.5519   6.6600   6.7534
     6.7962   6.9092   6.9766   7.1086   7.2668   7.4368   7.5014   7.7955
     8.3061   8.6622   9.0118   9.2010   9.2736   9.3687   9.5387   9.5635
     9.7301   9.8963  10.1509  10.3310  10.4010  10.8216  10.9388  11.1245
    11.4736  11.6108  11.9342  11.9560  12.1836  12.2285  12.2946  12.3193
    12.3845  12.4096  12.4888  12.5249  12.5988  12.6608  12.7546  12.8649
    12.8853  12.9652  13.2544  13.2911  13.8476  14.9876  16.2557  17.5382
    18.7769  20.0253

          k =-0.5000-0.8660 0.0000 (  4492 PWs)   bands (ev):

   -34.8256 -34.8221 -34.7868 -34.7692 -34.7567 -34.7179 -34.7089 -34.5395
   -34.5373 -34.4196 -34.4122 -34.4108 -34.4024 -34.3920 -34.3651 -34.3355
   -34.3322 -34.3076 -34.2971 -34.2865 -34.2712 -34.2485 -34.2424 -33.9624
   -33.9624 -33.8893 -33.8891   6.1937   6.3554   6.3759   6.5458   6.5697
     6.6292   6.7199   6.8884   6.9350   7.0789   7.2846   7.3018   7.6429
     8.1995   8.6173   8.8759   9.0636   9.1452   9.2602   9.4389   9.8164
     9.9066   9.9517  10.3534  10.5783  10.6234  10.9381  11.4508  11.4770
    11.5452  12.1132  12.3217  12.3596  12.4968  12.6755  12.7623  12.7653
    12.8109  12.8651  12.9180  12.9409  12.9894  13.0881  13.2359  13.2409
    13.4671  14.3474  15.1738  15.6677  15.8468  16.1092  16.2918  16.4366
    16.4951  19.9524

     the Fermi energy is    12.2133 ev

!    total energy              =   -1540.61892717 Ry
     estimated scf accuracy    <       0.00000006 Ry
     smearing contrib. (-TS)   =      -0.03830407 Ry
     internal energy E=F+TS    =   -1540.58062310 Ry

     The total energy is F=E-TS. E is the sum of the following terms:
     one-electron contribution =  -10671.84194704 Ry
     hartree contribution      =    5413.81419161 Ry
     xc contribution           =    -269.24105142 Ry
     ewald contribution        =    3986.68818374 Ry

     total magnetization       =    -0.01 Bohr mag/cell
     absolute magnetization    =     0.01 Bohr mag/cell

     convergence has been achieved in  15 iterations

     negative rho (up, down):  2.527E-01 2.526E-01

     Forces acting on atoms (cartesian axes, Ry/au):

     atom    1 type  1   force =     0.00000000    0.00000000    0.00009009
     atom    2 type  1   force =     0.00000000    0.00000000    0.00080740
     atom    3 type  1   force =     0.00000000    0.00000000    0.00080201
     atom    4 type  1   force =     0.00000000    0.00000000   -0.00022769
     atom    5 type  1   force =     0.00000000    0.00000000   -0.00000509
     atom    6 type  1   force =     0.00000000    0.00000000    0.00022444
     atom    7 type  1   force =     0.00000000    0.00000000   -0.00079440
     atom    8 type  1   force =     0.00000000    0.00000000   -0.00080926
     atom    9 type  1   force =     0.00000000    0.00000000   -0.00008750

     Total force =     0.001643     Total SCF correction =     0.000656
     SCF correction compared to forces is large: reduce conv_thr to get better values
     Energy error            =      1.7E-05
     Gradient error          =      8.1E-04

     bfgs converged in   7 scf cycles and   6 bfgs steps
     (criteria: energy <  1.0E-04 Ry, force <  1.0E-03 Ry/Bohr)

     End of BFGS Geometry Optimization

     Final energy   =   -1540.6189271744 Ry

     File /home/STUDENTI/leonardo.razzai/Rh_work/surf_111/9-L.bfgs deleted, as requested
Begin final coordinates

ATOMIC_POSITIONS (angstrom)
Rh            0.0000000000        0.0000000000        0.0329411587
Rh            1.3554284000       -0.7825569000        2.2054090100
Rh            1.3554284000        0.7825569000        4.4069066341
Rh            0.0000000000        0.0000000000        6.6344814017
Rh            1.3554284000       -0.7825569000        8.8536163485
Rh            1.3554284000        0.7825569000       11.0727486615
Rh            0.0000000000        0.0000000000       13.3003340678
Rh            1.3554284000       -0.7825569000       15.5018449713
Rh            1.3554284000        0.7825569000       17.6743081463
End final coordinates


 
     init_run     :      5.49s CPU      5.68s WALL (       1 calls)
     electrons    :   1031.71s CPU   1047.69s WALL (       8 calls)
     update_pot   :      1.57s CPU      1.58s WALL (       6 calls)
     forces       :     17.35s CPU     17.59s WALL (       8 calls)

     Called by init_run:
     wfcinit      :      4.73s CPU      4.84s WALL (       1 calls)
     potinit      :      0.22s CPU      0.23s WALL (       2 calls)
     hinit0       :      0.29s CPU      0.31s WALL (       1 calls)

     Called by electrons:
     c_bands      :    867.59s CPU    877.20s WALL (      84 calls)
     sum_band     :    138.52s CPU    143.07s WALL (      84 calls)
     v_of_rho     :      5.64s CPU      5.73s WALL (      92 calls)
     newd         :     11.11s CPU     12.72s WALL (      92 calls)
     mix_rho      :      9.74s CPU      9.86s WALL (      84 calls)

     Called by c_bands:
     init_us_2    :     12.13s CPU     12.28s WALL (    8850 calls)
     cegterg      :    776.18s CPU    785.34s WALL (    4200 calls)

     Called by *egterg:
     cdiaghg      :    124.40s CPU    124.62s WALL (   14762 calls)
     h_psi        :    473.00s CPU    481.71s WALL (   15162 calls)
     s_psi        :     45.75s CPU     45.91s WALL (   15162 calls)
     g_psi        :      2.72s CPU      2.73s WALL (   10912 calls)

     Called by h_psi:
     h_psi:calbec :     48.83s CPU     49.31s WALL (   15162 calls)
     vloc_psi     :    375.85s CPU    383.97s WALL (   15162 calls)
     add_vuspsi   :     45.79s CPU     45.93s WALL (   15162 calls)

     General routines
     calbec       :     75.98s CPU     76.73s WALL (   20962 calls)
     fft          :      2.84s CPU      2.87s WALL (    2408 calls)
     ffts         :      5.13s CPU      5.18s WALL (   14534 calls)
     fftw         :    417.06s CPU    426.00s WALL ( 1926026 calls)
     interpolate  :      0.29s CPU      0.29s WALL (     184 calls)
 
     Parallel routines
     fft_scatt_xy :     53.54s CPU     54.39s WALL ( 1942968 calls)
     fft_scatt_yz :     93.26s CPU     95.49s WALL ( 1942968 calls)
 
     PWSCF        :  17m37.51s CPU  17m54.90s WALL

 
   This run was terminated on:  20:21: 6   5Apr2023            

=------------------------------------------------------------------------------=
   JOB DONE.
=------------------------------------------------------------------------------=
