MPI startup(): shm:dapl fabric is unknown or has been removed from the product, please use ofi or shm:ofi instead.

     Program PWSCF v.6.7MaX starts on  5Apr2023 at  7:58:43 

     This program is part of the open-source Quantum ESPRESSO suite
     for quantum simulation of materials; please cite
         "P. Giannozzi et al., J. Phys.:Condens. Matter 21 395502 (2009);
         "P. Giannozzi et al., J. Phys.:Condens. Matter 29 465901 (2017);
          URL http://www.quantum-espresso.org", 
     in publications or presentations arising from this work. More details at
     http://www.quantum-espresso.org/quote

     Parallel version (MPI), running on     8 processors

     MPI processes distributed on     1 nodes
     R & G space division:  proc/nbgrp/npool/nimage =       8
     Reading input from n_layers7.pwi

     Current dimensions of program PWSCF are:
     Max number of different atomic species (ntypx) = 10
     Max number of k-points (npk) =  40000
     Max angular momentum in pseudopotentials (lmaxx) =  3

     Subspace diagonalization in iterative solution of the eigenvalue problem:
     a serial algorithm will be used

 
     Parallelization info
     --------------------
     sticks:   dense  smooth     PW     G-vecs:    dense   smooth      PW
     Min          63      31     11                12632     4451     972
     Max          65      32     12                12645     4494     987
     Sum         511     253     91               101117    35839    7825
 


     bravais-lattice index     =            4
     lattice parameter (alat)  =       5.1228  a.u.
     unit-cell volume          =    1276.0194 (a.u.)^3
     number of atoms/cell      =            7
     number of atomic types    =            1
     number of electrons       =       105.00
     number of Kohn-Sham states=           64
     kinetic-energy cutoff     =      35.0000  Ry
     charge density cutoff     =     280.0000  Ry
     scf convergence threshold =      1.0E-06
     mixing beta               =       0.4000
     number of iterations used =            8  local-TF  mixing
     energy convergence thresh.=      1.0E-04
     force convergence thresh. =      1.0E-03
     Exchange-correlation=  SLA  PW   PBX  PBC
                           (   1   4   3   4   0   0   0)
     nstep                     =           50


     celldm(1)=   5.122776  celldm(2)=   0.000000  celldm(3)=  10.960000
     celldm(4)=   0.000000  celldm(5)=   0.000000  celldm(6)=   0.000000

     crystal axes: (cart. coord. in units of alat)
               a(1) = (   1.000000   0.000000   0.000000 )  
               a(2) = (  -0.500000   0.866025   0.000000 )  
               a(3) = (   0.000000   0.000000  10.960000 )  

     reciprocal axes: (cart. coord. in units 2 pi/alat)
               b(1) = (  1.000000  0.577350  0.000000 )  
               b(2) = (  0.000000  1.154701  0.000000 )  
               b(3) = (  0.000000  0.000000  0.091241 )  


     PseudoPot. # 1 for Rh read from file:
     /home/software/materia/pseudo/rh_pbe_v1.4.uspp.F.UPF
     MD5 check sum: 761627e959a2e3a1f56b0b5fe687810e
     Pseudo is Ultrasoft + core correction, Zval = 15.0
     Generated by new atomic code, or converted to UPF format
     Using radial grid of  969 points,  7 beta functions with: 
                l(1) =   0
                l(2) =   0
                l(3) =   1
                l(4) =   1
                l(5) =   2
                l(6) =   2
                l(7) =   2
     Q(r) pseudized with  8 coefficients,  rinner =    1.200   1.200   1.200
                                                       1.200   1.200

     atomic species   valence    mass     pseudopotential
        Rh            15.00   102.90500     Rh( 1.00)

     Starting magnetic structure 
     atomic species   magnetization
        Rh           0.010

      6 Sym. Ops. (no inversion) found



   Cartesian axes

     site n.     atom                  positions (alat units)
         1           Rh  tau(   1) = (   0.0000000   0.0000000   0.0000000  )
         2           Rh  tau(   2) = (   1.0000002   0.5773504   0.8164967  )
         3           Rh  tau(   3) = (   0.5000001   0.2886752   1.6329934  )
         4           Rh  tau(   4) = (   0.0000000   0.0000000   2.4494902  )
         5           Rh  tau(   5) = (   1.0000002   0.5773504   3.2659869  )
         6           Rh  tau(   6) = (   0.5000001   0.2886752   4.0824836  )
         7           Rh  tau(   7) = (   0.0000000   0.0000000   4.8989803  )

     number of k points=    25  Gaussian smearing, width (Ry)=  0.0200
                       cart. coord. in units 2pi/alat
        k(    1) = (   0.0555556   0.0962250   0.0000000), wk =   0.0246914
        k(    2) = (   0.0555556   0.2245251   0.0000000), wk =   0.0493827
        k(    3) = (   0.0555556   0.3528252   0.0000000), wk =   0.0493827
        k(    4) = (   0.0555556   0.4811252   0.0000000), wk =   0.0493827
        k(    5) = (   0.0555556  -0.5452753   0.0000000), wk =   0.0493827
        k(    6) = (   0.0555556  -0.4169752   0.0000000), wk =   0.0493827
        k(    7) = (   0.0555556  -0.2886751   0.0000000), wk =   0.0493827
        k(    8) = (   0.0555556  -0.1603751   0.0000000), wk =   0.0493827
        k(    9) = (   0.0555556  -0.0320750   0.0000000), wk =   0.0246914
        k(   10) = (   0.1666667   0.2886751   0.0000000), wk =   0.0246914
        k(   11) = (   0.1666667   0.4169752   0.0000000), wk =   0.0493827
        k(   12) = (   0.1666667   0.5452753   0.0000000), wk =   0.0493827
        k(   13) = (   0.1666667  -0.4811252   0.0000000), wk =   0.0493827
        k(   14) = (   0.1666667  -0.3528252   0.0000000), wk =   0.0493827
        k(   15) = (   0.1666667  -0.2245251   0.0000000), wk =   0.0493827
        k(   16) = (   0.1666667  -0.0962250   0.0000000), wk =   0.0246914
        k(   17) = (   0.2777778   0.4811252   0.0000000), wk =   0.0246914
        k(   18) = (   0.2777778   0.6094253   0.0000000), wk =   0.0493827
        k(   19) = (   0.2777778  -0.4169752   0.0000000), wk =   0.0493827
        k(   20) = (   0.2777778  -0.2886751   0.0000000), wk =   0.0493827
        k(   21) = (   0.2777778  -0.1603751   0.0000000), wk =   0.0246914
        k(   22) = (   0.3888889   0.6735753   0.0000000), wk =   0.0246914
        k(   23) = (   0.3888889  -0.3528252   0.0000000), wk =   0.0493827
        k(   24) = (   0.3888889  -0.2245251   0.0000000), wk =   0.0246914
        k(   25) = (  -0.5000000  -0.8660254   0.0000000), wk =   0.0123457

     Dense  grid:   101117 G-vectors     FFT dimensions: (  27,  27, 300)

     Smooth grid:    35839 G-vectors     FFT dimensions: (  20,  20, 216)

     Estimated max dynamical RAM per process >     102.98 MB

     Estimated total dynamical RAM >     823.81 MB
     Generating pointlists ...
     new r_m :   0.4125 (alat units)  2.1131 (a.u.) for type    1

     Initial potential from superposition of free atoms

     starting charge  101.49931, renormalised to  105.00000

     negative rho (up, down):  1.987E-01 1.947E-01
     Starting wfcs are   84 randomized atomic wfcs

     total cpu time spent up to now is        7.6 secs

     Self-consistent Calculation

     iteration #  1     ecut=    35.00 Ry     beta= 0.40
     Davidson diagonalization with overlap
     ethr =  1.00E-02,  avg # of iterations =  3.2

     negative rho (up, down):  2.000E-01 1.982E-01

     total cpu time spent up to now is       26.8 secs

     total energy              =   -1198.44742870 Ry
     estimated scf accuracy    <       5.12187200 Ry

     total magnetization       =     0.39 Bohr mag/cell
     absolute magnetization    =     0.39 Bohr mag/cell

     iteration #  2     ecut=    35.00 Ry     beta= 0.40
     Davidson diagonalization with overlap
     ethr =  4.88E-03,  avg # of iterations =  1.0

     negative rho (up, down):  2.041E-01 2.041E-01

     total cpu time spent up to now is       40.5 secs

     total energy              =   -1198.10794999 Ry
     estimated scf accuracy    <       1.35319813 Ry

     total magnetization       =     0.36 Bohr mag/cell
     absolute magnetization    =     0.37 Bohr mag/cell

     iteration #  3     ecut=    35.00 Ry     beta= 0.40
     Davidson diagonalization with overlap
     ethr =  1.29E-03,  avg # of iterations =  2.0

     negative rho (up, down):  2.067E-01 2.077E-01

     total cpu time spent up to now is       57.0 secs

     total energy              =   -1198.20423034 Ry
     estimated scf accuracy    <       0.28947154 Ry

     total magnetization       =     0.30 Bohr mag/cell
     absolute magnetization    =     0.31 Bohr mag/cell

     iteration #  4     ecut=    35.00 Ry     beta= 0.40
     Davidson diagonalization with overlap
     ethr =  2.76E-04,  avg # of iterations =  3.3

     negative rho (up, down):  2.079E-01 2.089E-01

     total cpu time spent up to now is       73.4 secs

     total energy              =   -1198.23135549 Ry
     estimated scf accuracy    <       0.06041112 Ry

     total magnetization       =     0.25 Bohr mag/cell
     absolute magnetization    =     0.26 Bohr mag/cell

     iteration #  5     ecut=    35.00 Ry     beta= 0.40
     Davidson diagonalization with overlap
     ethr =  5.75E-05,  avg # of iterations =  3.9

     negative rho (up, down):  2.093E-01 2.102E-01

     total cpu time spent up to now is       89.2 secs

     total energy              =   -1198.23263816 Ry
     estimated scf accuracy    <       0.00347364 Ry

     total magnetization       =     0.22 Bohr mag/cell
     absolute magnetization    =     0.23 Bohr mag/cell

     iteration #  6     ecut=    35.00 Ry     beta= 0.40
     Davidson diagonalization with overlap
     c_bands:  1 eigenvalues not converged
     c_bands:  1 eigenvalues not converged
     ethr =  3.31E-06,  avg # of iterations =  9.4

     negative rho (up, down):  2.096E-01 2.105E-01

     total cpu time spent up to now is      108.8 secs

     total energy              =   -1198.23196264 Ry
     estimated scf accuracy    <       0.00447866 Ry

     total magnetization       =     0.17 Bohr mag/cell
     absolute magnetization    =     0.19 Bohr mag/cell

     iteration #  7     ecut=    35.00 Ry     beta= 0.40
     Davidson diagonalization with overlap
     ethr =  3.31E-06,  avg # of iterations =  3.2

     negative rho (up, down):  2.085E-01 2.091E-01

     total cpu time spent up to now is      127.0 secs

     total energy              =   -1198.23268384 Ry
     estimated scf accuracy    <       0.00150200 Ry

     total magnetization       =     0.12 Bohr mag/cell
     absolute magnetization    =     0.13 Bohr mag/cell

     iteration #  8     ecut=    35.00 Ry     beta= 0.40
     Davidson diagonalization with overlap
     c_bands:  1 eigenvalues not converged
     c_bands:  1 eigenvalues not converged
     ethr =  1.43E-06,  avg # of iterations =  5.4

     negative rho (up, down):  2.066E-01 2.066E-01

     total cpu time spent up to now is      143.6 secs

     total energy              =   -1198.23229288 Ry
     estimated scf accuracy    <       0.00279274 Ry

     total magnetization       =     0.07 Bohr mag/cell
     absolute magnetization    =     0.08 Bohr mag/cell

     iteration #  9     ecut=    35.00 Ry     beta= 0.40
     Davidson diagonalization with overlap
     ethr =  1.43E-06,  avg # of iterations =  6.5

     negative rho (up, down):  2.051E-01 2.046E-01

     total cpu time spent up to now is      160.7 secs

     total energy              =   -1198.23170732 Ry
     estimated scf accuracy    <       0.00184878 Ry

     total magnetization       =     0.00 Bohr mag/cell
     absolute magnetization    =     0.05 Bohr mag/cell

     iteration # 10     ecut=    35.00 Ry     beta= 0.40
     Davidson diagonalization with overlap
     c_bands:  1 eigenvalues not converged
     ethr =  1.43E-06,  avg # of iterations =  6.8

     negative rho (up, down):  2.032E-01 2.027E-01

     total cpu time spent up to now is      178.3 secs

     total energy              =   -1198.23151233 Ry
     estimated scf accuracy    <       0.00037528 Ry

     total magnetization       =    -0.05 Bohr mag/cell
     absolute magnetization    =     0.05 Bohr mag/cell

     iteration # 11     ecut=    35.00 Ry     beta= 0.40
     Davidson diagonalization with overlap
     ethr =  3.57E-07,  avg # of iterations =  7.8

     negative rho (up, down):  2.028E-01 2.022E-01

     total cpu time spent up to now is      199.9 secs

     total energy              =   -1198.23152771 Ry
     estimated scf accuracy    <       0.00012533 Ry

     total magnetization       =    -0.07 Bohr mag/cell
     absolute magnetization    =     0.08 Bohr mag/cell

     iteration # 12     ecut=    35.00 Ry     beta= 0.40
     Davidson diagonalization with overlap
     ethr =  1.19E-07,  avg # of iterations =  2.5

     negative rho (up, down):  2.026E-01 2.021E-01

     total cpu time spent up to now is      217.4 secs

     total energy              =   -1198.23154655 Ry
     estimated scf accuracy    <       0.00002674 Ry

     total magnetization       =    -0.08 Bohr mag/cell
     absolute magnetization    =     0.09 Bohr mag/cell

     iteration # 13     ecut=    35.00 Ry     beta= 0.40
     Davidson diagonalization with overlap
     ethr =  2.55E-08,  avg # of iterations =  1.9

     negative rho (up, down):  2.024E-01 2.020E-01

     total cpu time spent up to now is      232.1 secs

     total energy              =   -1198.23154734 Ry
     estimated scf accuracy    <       0.00000517 Ry

     total magnetization       =    -0.07 Bohr mag/cell
     absolute magnetization    =     0.08 Bohr mag/cell

     iteration # 14     ecut=    35.00 Ry     beta= 0.40
     Davidson diagonalization with overlap
     ethr =  4.92E-09,  avg # of iterations =  2.7

     negative rho (up, down):  2.021E-01 2.019E-01

     total cpu time spent up to now is      247.1 secs

     total energy              =   -1198.23154751 Ry
     estimated scf accuracy    <       0.00000273 Ry

     total magnetization       =    -0.06 Bohr mag/cell
     absolute magnetization    =     0.07 Bohr mag/cell

     iteration # 15     ecut=    35.00 Ry     beta= 0.40
     Davidson diagonalization with overlap
     ethr =  2.60E-09,  avg # of iterations =  3.8

     negative rho (up, down):  2.021E-01 2.019E-01
 
     Magnetic moment per site:
     atom:    1    charge:   13.1750    magn:   -0.0095    constr:    0.0000
     atom:    2    charge:   13.2363    magn:   -0.0059    constr:    0.0000
     atom:    3    charge:   13.2474    magn:   -0.0018    constr:    0.0000
     atom:    4    charge:   13.2502    magn:   -0.0015    constr:    0.0000
     atom:    5    charge:   13.2469    magn:   -0.0018    constr:    0.0000
     atom:    6    charge:   13.2365    magn:   -0.0060    constr:    0.0000
     atom:    7    charge:   13.1750    magn:   -0.0096    constr:    0.0000

     total cpu time spent up to now is      265.2 secs

     End of self-consistent calculation

 ------ SPIN UP ------------


          k = 0.0556 0.0962 0.0000 (  4451 PWs)   bands (ev):

   -38.6487 -38.5604 -38.4046 -38.2571 -38.1586 -38.1580 -38.1338 -38.1314
   -38.1260 -38.1123 -38.0922 -38.0841 -38.0698 -38.0627 -38.0411 -37.7419
   -37.7411 -37.7185 -37.7184 -37.6865 -37.6864   1.0280   1.5378   2.2312
     2.7120   2.7250   3.0955   3.1334   4.9116   4.9168   5.1248   5.1806
     5.3015   5.3700   5.5703   5.5794   5.5938   5.6444   5.6874   5.7237
     5.8068   5.8459   5.8996   5.9810   6.0883   6.2442   6.2503   6.7656
     7.0496   7.0748   7.2947   7.3521   7.5172   7.5774   7.6751   7.7559
     8.0864   8.1040   8.5797   8.6235   8.7974   9.3687  10.2598  10.8173

          k = 0.0556 0.2245 0.0000 (  4420 PWs)   bands (ev):

   -38.5974 -38.5330 -38.4221 -38.3366 -38.2872 -38.2645 -38.2381 -38.2154
   -38.1699 -38.1635 -38.1502 -38.1267 -38.1049 -38.0869 -38.0671 -37.8452
   -37.8451 -37.7293 -37.7290 -37.7198 -37.7193   1.9410   2.3664   2.9514
     3.2776   3.4316   3.7398   3.8209   4.2231   4.5088   4.6121   4.6665
     4.8738   4.8935   5.3614   5.4856   5.6315   5.7138   5.7931   5.8532
     5.9137   6.0838   6.1894   6.2973   6.4631   6.5459   6.6632   6.7231
     6.7766   6.9410   7.0570   7.1791   7.3442   7.6202   7.7148   7.9732
     8.0959   8.4997   8.6486   8.8015   9.5296  10.7231  11.9256  12.8356

          k = 0.0556 0.3528 0.0000 (  4467 PWs)   bands (ev):

   -38.5599 -38.5362 -38.5099 -38.4822 -38.4309 -38.4167 -38.3469 -38.2636
   -38.2253 -38.2120 -38.1994 -38.1724 -38.1484 -38.1175 -38.1009 -38.0012
   -38.0009 -37.7637 -37.7637 -37.7178 -37.7177   2.7343   3.0158   3.0319
     3.1661   3.3751   3.4542   3.6973   3.8516   4.1050   4.1799   4.6633
     4.9524   5.1585   5.3678   5.5581   5.6479   5.6835   5.7931   6.0696
     6.2032   6.4599   6.6305   6.7721   6.8230   7.0687   7.3110   7.4502
     7.5317   7.7277   7.8429   7.9803   8.1118   8.2894   8.3500   8.4832
     8.4971   8.6409   8.8932   9.2931  10.6311  12.1297  13.6155  14.8296

          k = 0.0556 0.4811 0.0000 (  4463 PWs)   bands (ev):

   -38.6474 -38.6184 -38.6117 -38.5783 -38.5545 -38.3935 -38.3523 -38.2839
   -38.2664 -38.2535 -38.2405 -38.2032 -38.1821 -38.1472 -38.1321 -38.1043
   -38.1009 -37.7969 -37.7967 -37.7093 -37.7090   2.5534   2.6713   2.8307
     2.8896   3.0345   3.2003   3.2210   3.5939   3.6668   3.8541   4.4755
     4.8850   5.1940   5.3735   5.5114   5.7847   5.9686   5.9860   6.5293
     6.7008   6.8275   7.2502   7.5307   7.8598   8.0612   8.0888   8.3685
     8.4726   8.5886   8.6168   8.7000   8.7289   8.8862   8.9937   9.1363
     9.5842  10.1251  10.4376  10.7673  11.8432  13.2334  14.6097  16.3530

          k = 0.0556-0.5453 0.0000 (  4486 PWs)   bands (ev):

   -38.6754 -38.6431 -38.6370 -38.6005 -38.5863 -38.3670 -38.3535 -38.2893
   -38.2769 -38.2656 -38.2524 -38.2105 -38.1910 -38.1567 -38.1409 -38.1233
   -38.1195 -37.8046 -37.8043 -37.7076 -37.7072   2.4363   2.6210   2.7514
     2.7786   2.9815   3.1199   3.1289   3.5097   3.5789   3.7803   4.4348
     4.8557   5.0977   5.3225   5.4494   5.8295   5.9929   6.1349   6.5362
     6.8371   7.0636   7.3062   7.7241   8.0762   8.1963   8.4336   8.4891
     8.6907   8.8014   8.8619   8.8881   8.9560   9.0414   9.1568   9.2624
    10.2102  11.0115  11.7237  11.8895  12.1760  12.8786  13.4680  16.1998

          k = 0.0556-0.4170 0.0000 (  4465 PWs)   bands (ev):

   -38.5965 -38.5846 -38.5612 -38.5370 -38.4978 -38.4243 -38.3547 -38.2742
   -38.2489 -38.2353 -38.2212 -38.1901 -38.1672 -38.1333 -38.1183 -38.0631
   -38.0615 -37.7829 -37.7829 -37.7129 -37.7125   2.7411   2.7656   2.9829
     3.0778   3.1094   3.3246   3.4129   3.7188   3.8504   3.9900   4.5641
     4.9260   5.3302   5.4565   5.5889   5.6523   5.7154   6.0196   6.2782
     6.3992   6.6407   7.0105   7.2084   7.4019   7.5822   7.7013   7.9912
     8.0823   8.1269   8.2666   8.3545   8.5150   8.6224   8.7088   8.8917
     9.0052   9.2063   9.2756   9.8993  11.2491  12.8028  14.3779  15.7504

          k = 0.0556-0.2887 0.0000 (  4439 PWs)   bands (ev):

   -38.5678 -38.5239 -38.4598 -38.4083 -38.3663 -38.3385 -38.3081 -38.2464
   -38.1978 -38.1863 -38.1767 -38.1502 -38.1268 -38.1010 -38.0832 -37.9252
   -37.9247 -37.7415 -37.7414 -37.7232 -37.7230   2.4570   2.7751   3.1386
     3.2976   3.5570   3.7221   3.9337   4.0665   4.2430   4.4130   4.6535
     4.7308   5.0034   5.1389   5.4945   5.6729   5.7637   5.8117   5.9213
     6.0651   6.1315   6.2766   6.4031   6.7180   6.7421   6.8372   7.0077
     7.1503   7.2325   7.3435   7.6068   7.7023   7.8340   7.9649   8.0735
     8.2534   8.5478   8.8350   8.9096  10.0601  11.4268  12.7800  13.8536

          k = 0.0556-0.1604 0.0000 (  4443 PWs)   bands (ev):

   -38.6269 -38.5477 -38.4082 -38.2843 -38.2139 -38.2023 -38.1770 -38.1697
   -38.1451 -38.1357 -38.1221 -38.1056 -38.0830 -38.0766 -38.0530 -37.7748
   -37.7746 -37.7346 -37.7344 -37.7006 -37.7006   1.4215   1.9070   2.5766
     3.0091   3.0598   3.4155   3.4543   4.5902   4.7222   4.8686   4.9510
     5.1000   5.1309   5.4472   5.5644   5.6760   5.7442   5.7789   5.8728
     5.9089   5.9577   6.0172   6.0368   6.2110   6.2643   6.4836   6.5407
     6.8877   6.9713   7.0668   7.1255   7.3177   7.4998   7.6461   7.8649
     8.0267   8.3696   8.5467   8.7825   9.0441  10.0263  11.0704  11.7987

          k = 0.0556-0.0321 0.0000 (  4465 PWs)   bands (ev):

   -38.6604 -38.5678 -38.4049 -38.2482 -38.1340 -38.1273 -38.1241 -38.1167
   -38.1021 -38.0933 -38.0874 -38.0662 -38.0646 -38.0458 -38.0340 -37.7441
   -37.7431 -37.6904 -37.6903 -37.6792 -37.6789   0.8193   1.3374   2.0368
     2.5379   2.5416   2.9123   2.9498   5.0727   5.0985   5.2705   5.3483
     5.3936   5.4246   5.4247   5.4913   5.5602   5.5917   5.6696   5.6811
     5.6988   5.7350   5.9547   6.0142   6.0936   6.1032   6.2915   7.1606
     7.1806   7.2519   7.3734   7.3869   7.5310   7.5736   7.8348   7.9395
     8.1347   8.2496   8.2761   8.6463   8.8372   8.8435   9.6314  10.0694

          k = 0.1667 0.2887 0.0000 (  4425 PWs)   bands (ev):

   -38.5454 -38.5251 -38.4771 -38.4352 -38.4037 -38.3786 -38.3384 -38.2649
   -38.2158 -38.2143 -38.1822 -38.1763 -38.1561 -38.1448 -38.0926 -37.9573
   -37.9573 -37.7745 -37.7744 -37.7190 -37.7186   2.9234   3.1031   3.3893
     3.7342   3.8818   3.8996   4.0445   4.0554   4.1347   4.3195   4.4330
     4.5434   5.0071   5.0336   5.1297   5.3257   5.4987   5.5430   5.5694
     5.6251   6.1950   6.2419   6.4564   6.5972   6.6632   7.1179   7.1445
     7.3437   7.5616   7.7408   7.9527   8.1906   8.3036   8.4329   8.4425
     8.5657   8.6322   8.7111   9.3920  10.6086  11.9855  13.3850  14.5384

          k = 0.1667 0.4170 0.0000 (  4459 PWs)   bands (ev):

   -38.5802 -38.5640 -38.5506 -38.5242 -38.4954 -38.4331 -38.3628 -38.2890
   -38.2868 -38.2742 -38.2387 -38.2336 -38.2017 -38.1842 -38.1249 -38.0543
   -38.0538 -37.8372 -37.8371 -37.7095 -37.7095   3.1033   3.1683   3.3386
     3.5052   3.5415   3.6316   3.8466   3.9226   4.1434   4.3215   4.5804
     4.7092   4.9605   5.0933   5.2024   5.4631   5.5340   5.9014   5.9635
     6.1362   6.2318   6.4632   6.5894   6.8527   7.1312   7.2796   7.3962
     7.6385   7.7563   7.9935   8.4746   8.7715   8.8670   8.9375   9.1067
    10.1730  10.3283  10.5525  11.1598  12.2566  13.6314  15.0918  16.3833

          k = 0.1667 0.5453 0.0000 (  4490 PWs)   bands (ev):

   -38.6385 -38.6067 -38.5972 -38.5678 -38.5533 -38.3832 -38.3619 -38.3423
   -38.3187 -38.3070 -38.2696 -38.2456 -38.2356 -38.1892 -38.1544 -38.1003
   -38.1001 -37.8714 -37.8712 -37.7045 -37.7045   2.7997   3.0861   3.1608
     3.2310   3.4302   3.5073   3.6399   3.8697   4.0772   4.1368   4.4661
     4.5811   4.7705   5.2031   5.5018   5.6598   5.7266   5.9568   6.2259
     6.3138   6.5560   6.8412   7.2061   7.2650   7.3580   7.7184   8.0064
     8.1518   8.2819   8.3921   8.5688   8.7059   8.7887   8.9857   9.1124
    12.0336  12.4676  12.8818  13.2785  13.7744  14.2386  14.5005  16.5007

          k = 0.1667-0.4811 0.0000 (  4476 PWs)   bands (ev):

   -38.6176 -38.5861 -38.5856 -38.5526 -38.5333 -38.4073 -38.3607 -38.3184
   -38.3055 -38.2976 -38.2592 -38.2465 -38.2200 -38.1891 -38.1421 -38.0848
   -38.0844 -37.8595 -37.8593 -37.7063 -37.7061   2.9073   3.1167   3.2120
     3.3484   3.4657   3.5546   3.7097   3.9094   4.0847   4.2154   4.4789
     4.6876   4.8796   5.0847   5.4566   5.5697   5.7602   5.9629   6.0510
     6.1870   6.5402   6.6930   6.9585   7.0816   7.2010   7.6111   7.8079
     7.8188   7.9701   8.1169   8.5303   8.8261   8.8784   9.0377   9.2027
    11.1404  11.4158  11.7289  12.2938  13.2175  14.3812  15.5403  16.7284

          k = 0.1667-0.3528 0.0000 (  4458 PWs)   bands (ev):

   -38.5447 -38.5373 -38.5150 -38.4843 -38.4432 -38.4417 -38.3598 -38.2761
   -38.2508 -38.2455 -38.2144 -38.1978 -38.1863 -38.1703 -38.1078 -38.0106
   -38.0106 -37.8074 -37.8074 -37.7143 -37.7141   3.1924   3.2837   3.4303
     3.5560   3.6825   3.7795   3.8903   4.0381   4.2863   4.3133   4.5323
     4.6765   4.8770   4.9825   5.2466   5.3585   5.3971   5.6105   5.8198
     5.8876   6.1181   6.1684   6.4775   6.7181   6.8870   7.0616   7.3186
     7.4968   7.6950   7.8676   8.3315   8.5277   8.6346   8.6801   8.8810
     9.2786   9.3508   9.4985  10.1335  11.3430  12.7621  14.2233  15.4603

          k = 0.1667-0.2245 0.0000 (  4433 PWs)   bands (ev):

   -38.5721 -38.5250 -38.4443 -38.3838 -38.3442 -38.3139 -38.2959 -38.2463
   -38.1899 -38.1856 -38.1650 -38.1493 -38.1294 -38.1090 -38.0809 -37.9000
   -37.9000 -37.7440 -37.7440 -37.7244 -37.7241   2.4092   2.7528   3.2327
     3.5680   3.7225   3.8825   4.0008   4.1698   4.2874   4.3649   4.5328
     4.6776   4.8130   5.1175   5.2955   5.4583   5.5216   5.6369   5.7822
     5.8178   6.0659   6.2246   6.5644   6.5794   6.6212   6.8125   6.9480
     7.1742   7.1994   7.2827   7.6077   7.7055   7.8860   8.0313   8.0441
     8.1472   8.4444   8.6732   8.9404  10.0256  11.3088  12.6121  13.6510

          k = 0.1667-0.0962 0.0000 (  4427 PWs)   bands (ev):

   -38.6173 -38.5423 -38.4116 -38.3018 -38.2432 -38.2239 -38.1959 -38.1823
   -38.1573 -38.1475 -38.1308 -38.1149 -38.0880 -38.0821 -38.0538 -37.8008
   -37.8007 -37.7329 -37.7325 -37.7054 -37.7052   1.5997   2.0667   2.7087
     3.0865   3.1966   3.5327   3.5902   4.4032   4.7021   4.7611   4.8474
     5.0263   5.0434   5.5177   5.5499   5.7004   5.7793   5.7845   5.9102
     6.0044   6.0594   6.0901   6.1302   6.1534   6.3315   6.4957   6.6427
     6.7142   6.9314   6.9650   7.1365   7.3011   7.5096   7.6024   7.8780
     8.1735   8.2918   8.6733   8.8932   9.1272  10.2640  11.3812  12.1784

          k = 0.2778 0.4811 0.0000 (  4485 PWs)   bands (ev):

   -38.5732 -38.5725 -38.5437 -38.5412 -38.4890 -38.4610 -38.4156 -38.3686
   -38.3430 -38.3422 -38.2937 -38.2759 -38.2254 -38.2112 -38.1595 -38.0620
   -38.0620 -37.9313 -37.9312 -37.7034 -37.7032   3.3307   3.3417   3.5262
     3.6467   3.8892   3.9974   4.1147   4.1401   4.3217   4.3985   4.4479
     4.5111   4.8454   4.9767   5.1750   5.3434   5.6057   5.6931   6.0449
     6.0506   6.2781   6.2803   6.7437   6.8454   6.9956   7.2453   7.3896
     7.4595   7.8024   8.1497   8.5176   8.7880   8.8279   8.8836   9.0972
    12.4862  12.7307  13.1859  13.8620  14.7825  15.8742  16.8129  16.9302

          k = 0.2778 0.6094 0.0000 (  4491 PWs)   bands (ev):

   -38.5737 -38.5496 -38.5372 -38.5269 -38.5011 -38.4522 -38.4449 -38.4046
   -38.3928 -38.3593 -38.2884 -38.2797 -38.2237 -38.2106 -38.1759 -38.0535
   -38.0534 -37.9641 -37.9640 -37.7018 -37.7015   3.2983   3.5502   3.6060
     3.7577   3.8656   4.0067   4.0533   4.1733   4.2692   4.3381   4.4398
     4.5995   4.7605   5.1050   5.2313   5.4264   5.5390   5.6926   5.9650
     6.0126   6.3215   6.3389   6.7150   6.9020   7.0881   7.2410   7.4185
     7.4895   8.1016   8.3094   8.4536   8.6143   8.6754   8.7313   8.8741
    13.6984  14.0071  14.4598  14.9018  15.2904  15.7451  16.2836  16.5045

          k = 0.2778-0.4170 0.0000 (  4462 PWs)   bands (ev):

   -38.5839 -38.5687 -38.5556 -38.5358 -38.5034 -38.4379 -38.3816 -38.3229
   -38.3153 -38.3066 -38.2761 -38.2580 -38.2245 -38.2026 -38.1405 -38.0638
   -38.0636 -37.8851 -37.8851 -37.7058 -37.7056   3.1841   3.3208   3.4339
     3.5813   3.7353   3.7910   3.9737   4.1782   4.2628   4.3272   4.5828
     4.7294   4.7771   4.8729   5.2332   5.2763   5.5856   5.7983   6.0267
     6.1052   6.2659   6.3406   6.5530   6.8268   7.0432   7.2652   7.4279
     7.5539   7.6478   8.0036   8.5206   8.8860   8.9156   9.0106   9.2032
    11.3121  11.4766  11.8305  12.4736  13.4709  14.7222  16.0597  17.2225

          k = 0.2778-0.2887 0.0000 (  4463 PWs)   bands (ev):

   -38.5649 -38.5579 -38.5306 -38.5082 -38.4651 -38.4352 -38.3559 -38.2722
   -38.2540 -38.2400 -38.2166 -38.1893 -38.1864 -38.1442 -38.1132 -38.0330
   -38.0325 -37.7951 -37.7949 -37.7135 -37.7135   2.9494   3.0637   3.2250
     3.2908   3.3870   3.5358   3.6633   3.8972   4.0837   4.2171   4.5629
     4.8174   5.1411   5.2249   5.3931   5.5426   5.6590   5.7936   5.9851
     6.1983   6.3581   6.5888   6.7043   6.8515   7.1357   7.3217   7.4618
     7.5869   7.8241   8.1304   8.3551   8.4493   8.6502   8.6634   8.9107
     9.1338   9.3157   9.4113  10.0411  11.2919  12.7647  14.2736  15.5522

          k = 0.2778-0.1604 0.0000 (  4458 PWs)   bands (ev):

   -38.5621 -38.5238 -38.4863 -38.4454 -38.3987 -38.3756 -38.3295 -38.2540
   -38.2073 -38.1945 -38.1894 -38.1573 -38.1252 -38.1097 -38.0871 -37.9625
   -37.9624 -37.7462 -37.7462 -37.7212 -37.7208   2.5643   2.8565   3.0379
     3.1657   3.4485   3.5236   3.8188   3.8841   4.1280   4.3073   4.7238
     4.9416   5.1633   5.3403   5.5407   5.6741   5.7833   5.8370   6.1079
     6.1620   6.4396   6.5607   6.5761   6.7231   6.8838   7.1149   7.2547
     7.3436   7.3947   7.4759   7.6777   7.8497   7.8567   7.9661   8.0994
     8.3220   8.7029   8.8958   8.9574  10.2323  11.6929  13.1168  14.2536

          k = 0.3889 0.6736 0.0000 (  4511 PWs)   bands (ev):

   -38.6106 -38.5782 -38.5661 -38.5462 -38.5297 -38.4117 -38.4029 -38.3831
   -38.3591 -38.3234 -38.2809 -38.2785 -38.2357 -38.2011 -38.1664 -38.0803
   -38.0801 -37.9216 -37.9212 -37.7030 -37.7026   3.0246   3.3838   3.4002
     3.5970   3.6674   3.8268   3.8363   4.1241   4.2222   4.2751   4.5171
     4.5275   4.7182   4.9656   5.3269   5.5304   5.7436   5.8976   5.9399
     6.2703   6.3502   6.7286   6.7518   6.8265   7.1515   7.4799   7.6969
     7.8318   8.2580   8.3711   8.4316   8.6197   8.6907   8.9075   8.9132
    13.2299  13.5373  13.8465  14.1514  14.5062  14.8913  15.2338  16.6264

          k = 0.3889-0.3528 0.0000 (  4485 PWs)   bands (ev):

   -38.6514 -38.6196 -38.6141 -38.5798 -38.5634 -38.3812 -38.3514 -38.2996
   -38.2943 -38.2801 -38.2547 -38.2186 -38.2148 -38.1640 -38.1466 -38.1079
   -38.1065 -37.8280 -37.8279 -37.7071 -37.7068   2.6375   2.8272   2.9471
     2.9982   3.1887   3.2910   3.3716   3.6998   3.8254   3.9282   4.4373
     4.7558   5.0044   5.3949   5.4954   5.6938   5.8348   5.9585   6.4471
     6.6088   6.6430   7.2025   7.3106   7.6628   7.7948   7.8960   8.2458
     8.3767   8.3888   8.4607   8.6078   8.7978   8.8936   9.0376   9.2104
    10.7689  11.2677  11.6512  11.9984  12.7340  13.7061  14.5404  16.4241

          k = 0.3889-0.2245 0.0000 (  4444 PWs)   bands (ev):

   -38.6272 -38.6055 -38.5917 -38.5627 -38.5304 -38.4088 -38.3536 -38.2790
   -38.2498 -38.2346 -38.2318 -38.1939 -38.1579 -38.1464 -38.1172 -38.0889
   -38.0856 -37.7818 -37.7816 -37.7112 -37.7108   2.5872   2.6417   2.8380
     2.9265   2.9995   3.1872   3.2701   3.5922   3.6717   3.8905   4.5325
     4.9544   5.3081   5.3855   5.5378   5.8734   5.9106   5.9531   6.4914
     6.6829   6.8193   7.1625   7.5505   7.8121   8.0664   8.2034   8.2780
     8.4220   8.5072   8.5430   8.5784   8.6852   8.7295   8.8786   8.9756
     9.0794   9.1911   9.4291   9.9573  11.3625  12.9365  14.5200  16.0540

          k =-0.5000-0.8660 0.0000 (  4492 PWs)   bands (ev):

   -38.6836 -38.6520 -38.6462 -38.6072 -38.5949 -38.3627 -38.3557 -38.2866
   -38.2676 -38.2633 -38.2506 -38.2082 -38.1710 -38.1705 -38.1323 -38.1293
   -38.1228 -37.7961 -37.7959 -37.7079 -37.7078   2.3612   2.5495   2.6745
     2.7128   2.9056   3.0322   3.0758   3.4331   3.4907   3.7365   4.4264
     4.8979   5.1268   5.2708   5.4307   5.8205   6.1883   6.2276   6.4346
     7.1050   7.1607   7.2159   7.9027   8.1561   8.3604   8.4831   8.7838
     8.8959   8.9272   8.9939   8.9985   9.0675   9.1909   9.3960   9.4000
     9.7342  10.8459  11.7324  11.9280  12.3093  12.4748  12.6035  16.1168

 ------ SPIN DOWN ----------


          k = 0.0556 0.0962 0.0000 (  4451 PWs)   bands (ev):

   -38.6525 -38.5657 -38.4102 -38.2622 -38.1643 -38.1634 -38.1394 -38.1365
   -38.1296 -38.1179 -38.0970 -38.0878 -38.0735 -38.0663 -38.0444 -37.7539
   -37.7531 -37.7274 -37.7273 -37.6953 -37.6952   1.0281   1.5377   2.2308
     2.7104   2.7238   3.0924   3.1303   4.9079   4.9142   5.1212   5.1762
     5.2972   5.3661   5.5662   5.5757   5.5910   5.6385   5.6835   5.7183
     5.8032   5.8404   5.8950   5.9756   6.0826   6.2381   6.2441   6.7619
     7.0451   7.0710   7.2895   7.3457   7.5119   7.5707   7.6688   7.7495
     8.0800   8.0982   8.5716   8.6184   8.7915   9.3642  10.2553  10.8146

          k = 0.0556 0.2245 0.0000 (  4420 PWs)   bands (ev):

   -38.6012 -38.5381 -38.4273 -38.3422 -38.2937 -38.2690 -38.2427 -38.2194
   -38.1746 -38.1689 -38.1549 -38.1317 -38.1089 -38.0905 -38.0704 -37.8540
   -37.8538 -37.7414 -37.7412 -37.7286 -37.7281   1.9410   2.3661   2.9507
     3.2758   3.4296   3.7368   3.8180   4.2200   4.5054   4.6088   4.6629
     4.8695   4.8892   5.3573   5.4816   5.6257   5.7096   5.7890   5.8497
     5.9094   6.0791   6.1843   6.2934   6.4582   6.5402   6.6576   6.7186
     6.7703   6.9360   7.0513   7.1732   7.3381   7.6143   7.7089   7.9671
     8.0899   8.4924   8.6422   8.7960   9.5247  10.7189  11.9217  12.8331

          k = 0.0556 0.3528 0.0000 (  4467 PWs)   bands (ev):

   -38.5639 -38.5404 -38.5146 -38.4875 -38.4367 -38.4216 -38.3518 -38.2684
   -38.2300 -38.2177 -38.2035 -38.1776 -38.1525 -38.1210 -38.1042 -38.0098
   -38.0094 -37.7724 -37.7724 -37.7301 -37.7300   2.7332   3.0142   3.0301
     3.1636   3.3723   3.4515   3.6934   3.8480   4.1017   4.1758   4.6595
     4.9486   5.1552   5.3632   5.5551   5.6447   5.6789   5.7883   6.0647
     6.1977   6.4555   6.6255   6.7671   6.8189   7.0631   7.3052   7.4441
     7.5276   7.7227   7.8378   7.9746   8.1069   8.2843   8.3435   8.4776
     8.4913   8.6336   8.8880   9.2882  10.6270  12.1260  13.6122  14.8274

          k = 0.0556 0.4811 0.0000 (  4463 PWs)   bands (ev):

   -38.6517 -38.6237 -38.6163 -38.5829 -38.5590 -38.3987 -38.3584 -38.2885
   -38.2711 -38.2584 -38.2451 -38.2085 -38.1863 -38.1512 -38.1359 -38.1123
   -38.1084 -37.8056 -37.8055 -37.7217 -37.7214   2.5512   2.6695   2.8278
     2.8869   3.0317   3.1972   3.2175   3.5900   3.6629   3.8498   4.4718
     4.8807   5.1891   5.3694   5.5075   5.7799   5.9637   5.9822   6.5238
     6.6955   6.8233   7.2447   7.5255   7.8544   8.0564   8.0823   8.3609
     8.4664   8.5833   8.6121   8.6956   8.7239   8.8805   8.9867   9.1311
     9.5802  10.1216  10.4349  10.7647  11.8407  13.2308  14.6077  16.3495

          k = 0.0556-0.5453 0.0000 (  4486 PWs)   bands (ev):

   -38.6797 -38.6490 -38.6412 -38.6047 -38.5908 -38.3729 -38.3600 -38.2930
   -38.2817 -38.2697 -38.2577 -38.2158 -38.1954 -38.1611 -38.1454 -38.1303
   -38.1264 -37.8134 -37.8130 -37.7201 -37.7197   2.4341   2.6191   2.7483
     2.7761   2.9783   3.1167   3.1259   3.5058   3.5748   3.7760   4.4309
     4.8514   5.0929   5.3180   5.4455   5.8243   5.9882   6.1313   6.5307
     6.8313   7.0592   7.3006   7.7178   8.0704   8.1907   8.4259   8.4839
     8.6854   8.7961   8.8566   8.8830   8.9510   9.0361   9.1502   9.2561
    10.2075  11.0092  11.7213  11.8880  12.1741  12.8765  13.4664  16.1954

          k = 0.0556-0.4170 0.0000 (  4465 PWs)   bands (ev):

   -38.6008 -38.5887 -38.5666 -38.5419 -38.5023 -38.4294 -38.3603 -38.2791
   -38.2536 -38.2408 -38.2254 -38.1953 -38.1714 -38.1369 -38.1218 -38.0714
   -38.0697 -37.7917 -37.7916 -37.7253 -37.7249   2.7394   2.7635   2.9802
     3.0745   3.1076   3.3217   3.4091   3.7150   3.8468   3.9858   4.5604
     4.9219   5.3251   5.4534   5.5854   5.6482   5.7102   6.0143   6.2748
     6.3942   6.6353   7.0062   7.2033   7.3972   7.5773   7.6948   7.9847
     8.0758   8.1230   8.2603   8.3502   8.5096   8.6172   8.7020   8.8864
     9.0000   9.2017   9.2712   9.8957  11.2457  12.7996  14.3750  15.7480

          k = 0.0556-0.2887 0.0000 (  4439 PWs)   bands (ev):

   -38.5716 -38.5286 -38.4644 -38.4141 -38.3729 -38.3432 -38.3122 -38.2509
   -38.2026 -38.1921 -38.1809 -38.1554 -38.1309 -38.1045 -38.0865 -37.9339
   -37.9334 -37.7503 -37.7502 -37.7355 -37.7353   2.4566   2.7743   3.1372
     3.2955   3.5544   3.7193   3.9300   4.0634   4.2399   4.4094   4.6501
     4.7264   5.0001   5.1350   5.4902   5.6684   5.7598   5.8081   5.9168
     6.0603   6.1266   6.2713   6.3974   6.7133   6.7365   6.8316   7.0027
     7.1447   7.2282   7.3392   7.6011   7.6969   7.8272   7.9587   8.0679
     8.2474   8.5404   8.8293   8.9042  10.0555  11.4229  12.7764  13.8513

          k = 0.0556-0.1604 0.0000 (  4443 PWs)   bands (ev):

   -38.6307 -38.5529 -38.4137 -38.2896 -38.2201 -38.2072 -38.1817 -38.1739
   -38.1502 -38.1410 -38.1262 -38.1104 -38.0868 -38.0802 -38.0563 -37.7837
   -37.7835 -37.7466 -37.7464 -37.7094 -37.7093   1.4216   1.9069   2.5761
     3.0075   3.0584   3.4125   3.4511   4.5872   4.7187   4.8654   4.9471
     5.0958   5.1267   5.4428   5.5590   5.6715   5.7409   5.7736   5.8688
     5.9042   5.9529   6.0126   6.0318   6.2067   6.2611   6.4775   6.5351
     6.8828   6.9667   7.0600   7.1190   7.3116   7.4944   7.6400   7.8589
     8.0205   8.3637   8.5389   8.7769   9.0389  10.0219  11.0662  11.7961

          k = 0.0556-0.0321 0.0000 (  4465 PWs)   bands (ev):

   -38.6642 -38.5731 -38.4106 -38.2532 -38.1391 -38.1334 -38.1291 -38.1227
   -38.1061 -38.0978 -38.0924 -38.0701 -38.0688 -38.0491 -38.0373 -37.7562
   -37.7551 -37.6992 -37.6991 -37.6880 -37.6877   0.8194   1.3374   2.0364
     2.5367   2.5402   2.9092   2.9467   5.0695   5.0954   5.2671   5.3440
     5.3892   5.4202   5.4212   5.4883   5.5554   5.5869   5.6655   5.6775
     5.6934   5.7308   5.9485   6.0082   6.0873   6.0970   6.2863   7.1564
     7.1764   7.2483   7.3684   7.3817   7.5251   7.5675   7.8288   7.9327
     8.1283   8.2438   8.2697   8.6382   8.8331   8.8379   9.6269  10.0666

          k = 0.1667 0.2887 0.0000 (  4425 PWs)   bands (ev):

   -38.5492 -38.5296 -38.4815 -38.4408 -38.4104 -38.3834 -38.3425 -38.2696
   -38.2216 -38.2202 -38.1865 -38.1810 -38.1600 -38.1479 -38.0960 -37.9659
   -37.9659 -37.7833 -37.7832 -37.7313 -37.7309   2.9229   3.1022   3.3878
     3.7316   3.8795   3.8971   4.0415   4.0525   4.1316   4.3158   4.4284
     4.5398   5.0036   5.0312   5.1255   5.3211   5.4935   5.5372   5.5643
     5.6218   6.1905   6.2364   6.4509   6.5914   6.6568   7.1127   7.1408
     7.3376   7.5561   7.7346   7.9468   8.1860   8.2972   8.4258   8.4386
     8.5588   8.6269   8.7061   9.3870  10.6042  11.9817  13.3817  14.5361

          k = 0.1667 0.4170 0.0000 (  4459 PWs)   bands (ev):

   -38.5846 -38.5679 -38.5565 -38.5284 -38.5003 -38.4381 -38.3681 -38.2943
   -38.2928 -38.2802 -38.2425 -38.2373 -38.2063 -38.1876 -38.1283 -38.0627
   -38.0622 -37.8459 -37.8458 -37.7219 -37.7219   3.1012   3.1665   3.3358
     3.5024   3.5387   3.6284   3.8432   3.9197   4.1395   4.3181   4.5764
     4.7052   4.9561   5.0896   5.1992   5.4592   5.5305   5.8970   5.9577
     6.1319   6.2268   6.4584   6.5848   6.8469   7.1262   7.2756   7.3909
     7.6318   7.7486   7.9868   8.4665   8.7672   8.8600   8.9319   9.1021
    10.1697  10.3243  10.5480  11.1563  12.2532  13.6282  15.0889  16.3811

          k = 0.1667 0.5453 0.0000 (  4490 PWs)   bands (ev):

   -38.6427 -38.6127 -38.6014 -38.5719 -38.5580 -38.3884 -38.3672 -38.3476
   -38.3249 -38.3119 -38.2742 -38.2498 -38.2397 -38.1927 -38.1577 -38.1086
   -38.1083 -37.8801 -37.8799 -37.7170 -37.7169   2.7974   3.0841   3.1575
     3.2285   3.4264   3.5046   3.6364   3.8660   4.0735   4.1327   4.4620
     4.5770   4.7672   5.1989   5.4972   5.6558   5.7209   5.9518   6.2215
     6.3106   6.5511   6.8368   7.2005   7.2599   7.3531   7.7126   8.0000
     8.1463   8.2757   8.3832   8.5609   8.7016   8.7826   8.9803   9.1080
    12.0315  12.4648  12.8792  13.2761  13.7721  14.2363  14.4989  16.4958

          k = 0.1667-0.4811 0.0000 (  4476 PWs)   bands (ev):

   -38.6219 -38.5922 -38.5896 -38.5567 -38.5381 -38.4121 -38.3661 -38.3241
   -38.3118 -38.3022 -38.2634 -38.2506 -38.2243 -38.1926 -38.1455 -38.0932
   -38.0926 -37.8682 -37.8680 -37.7187 -37.7186   2.9051   3.1148   3.2090
     3.3457   3.4623   3.5515   3.7063   3.9059   4.0810   4.2116   4.4748
     4.6834   4.8764   5.0805   5.4532   5.5649   5.7547   5.9580   6.0475
     6.1827   6.5358   6.6882   6.9534   7.0768   7.1957   7.6058   7.8019
     7.8135   7.9628   8.1098   8.5219   8.8220   8.8714   9.0318   9.1982
    11.1377  11.4123  11.7255  12.2908  13.2146  14.3785  15.5384  16.7255

          k = 0.1667-0.3528 0.0000 (  4458 PWs)   bands (ev):

   -38.5491 -38.5413 -38.5196 -38.4893 -38.4486 -38.4471 -38.3646 -38.2810
   -38.2567 -38.2519 -38.2184 -38.2010 -38.1911 -38.1735 -38.1112 -38.0192
   -38.0191 -37.8162 -37.8161 -37.7267 -37.7264   3.1910   3.2820   3.4286
     3.5536   3.6797   3.7765   3.8869   4.0347   4.2828   4.3099   4.5282
     4.6735   4.8734   4.9784   5.2426   5.3548   5.3930   5.6066   5.8145
     5.8828   6.1130   6.1627   6.4720   6.7130   6.8814   7.0566   7.3146
     7.4902   7.6875   7.8610   8.3237   8.5233   8.6293   8.6735   8.8763
     9.2751   9.3460   9.4929  10.1294  11.3391  12.7586  14.2201  15.4582

          k = 0.1667-0.2245 0.0000 (  4433 PWs)   bands (ev):

   -38.5758 -38.5298 -38.4491 -38.3895 -38.3509 -38.3186 -38.2998 -38.2506
   -38.1949 -38.1911 -38.1699 -38.1542 -38.1331 -38.1123 -38.0843 -37.9087
   -37.9087 -37.7529 -37.7528 -37.7366 -37.7363   2.4090   2.7523   3.2317
     3.5660   3.7203   3.8797   3.9979   4.1669   4.2841   4.3615   4.5282
     4.6740   4.8091   5.1135   5.2923   5.4536   5.5159   5.6318   5.7775
     5.8143   6.0616   6.2196   6.5583   6.5731   6.6150   6.8083   6.9430
     7.1699   7.1942   7.2776   7.6023   7.7003   7.8799   8.0256   8.0371
     8.1413   8.4369   8.6682   8.9345  10.0209  11.3047  12.6084  13.6486

          k = 0.1667-0.0962 0.0000 (  4427 PWs)   bands (ev):

   -38.6211 -38.5475 -38.4170 -38.3073 -38.2492 -38.2289 -38.2005 -38.1862
   -38.1621 -38.1534 -38.1344 -38.1200 -38.0923 -38.0855 -38.0571 -37.8096
   -37.8095 -37.7450 -37.7446 -37.7141 -37.7140   1.5997   2.0666   2.7082
     3.0849   3.1949   3.5297   3.5871   4.4002   4.6979   4.7584   4.8439
     5.0215   5.0390   5.5137   5.5447   5.6959   5.7761   5.7796   5.9053
     6.0009   6.0544   6.0865   6.1253   6.1490   6.3273   6.4900   6.6370
     6.7088   6.9245   6.9599   7.1300   7.2953   7.5033   7.5966   7.8724
     8.1674   8.2854   8.6654   8.8878   9.1223  10.2598  11.3771  12.1759

          k = 0.2778 0.4811 0.0000 (  4485 PWs)   bands (ev):

   -38.5781 -38.5766 -38.5494 -38.5452 -38.4937 -38.4652 -38.4210 -38.3746
   -38.3479 -38.3475 -38.2985 -38.2808 -38.2290 -38.2149 -38.1626 -38.0705
   -38.0704 -37.9400 -37.9399 -37.7159 -37.7157   3.3285   3.3392   3.5234
     3.6427   3.8861   3.9945   4.1121   4.1379   4.3177   4.3941   4.4436
     4.5072   4.8420   4.9737   5.1709   5.3398   5.6019   5.6900   6.0385
     6.0441   6.2726   6.2750   6.7398   6.8408   6.9908   7.2422   7.3826
     7.4526   7.7962   8.1408   8.5085   8.7818   8.8236   8.8779   9.0926
    12.4839  12.7275  13.1826  13.8591  14.7796  15.8715  16.8111  16.9287

          k = 0.2778 0.6094 0.0000 (  4491 PWs)   bands (ev):

   -38.5779 -38.5550 -38.5414 -38.5317 -38.5057 -38.4573 -38.4498 -38.4102
   -38.3974 -38.3642 -38.2939 -38.2854 -38.2271 -38.2141 -38.1789 -38.0620
   -38.0619 -37.9727 -37.9726 -37.7143 -37.7140   3.2959   3.5479   3.6026
     3.7546   3.8626   4.0044   4.0503   4.1692   4.2648   4.3356   4.4359
     4.5957   4.7566   5.1019   5.2272   5.4229   5.5357   5.6890   5.9582
     6.0063   6.3156   6.3333   6.7114   6.8972   7.0839   7.2371   7.4114
     7.4832   8.0944   8.2986   8.4460   8.6095   8.6691   8.7272   8.8695
    13.6966  14.0046  14.4572  14.8997  15.2881  15.7426  16.2814  16.5028

          k = 0.2778-0.4170 0.0000 (  4462 PWs)   bands (ev):

   -38.5884 -38.5728 -38.5616 -38.5395 -38.5084 -38.4424 -38.3868 -38.3293
   -38.3217 -38.3117 -38.2799 -38.2619 -38.2282 -38.2066 -38.1438 -38.0722
   -38.0720 -37.8938 -37.8938 -37.7182 -37.7181   3.1819   3.3187   3.4310
     3.5779   3.7322   3.7882   3.9702   4.1751   4.2595   4.3234   4.5789
     4.7253   4.7735   4.8693   5.2294   5.2726   5.5823   5.7943   6.0204
     6.0994   6.2611   6.3359   6.5486   6.8213   7.0388   7.2614   7.4220
     7.5476   7.6406   7.9955   8.5120   8.8797   8.9104   9.0050   9.1985
    11.3094  11.4728  11.8267  12.4704  13.4678  14.7192  16.0570  17.2204

          k = 0.2778-0.2887 0.0000 (  4463 PWs)   bands (ev):

   -38.5693 -38.5617 -38.5359 -38.5131 -38.4698 -38.4406 -38.3611 -38.2772
   -38.2593 -38.2460 -38.2205 -38.1943 -38.1904 -38.1476 -38.1166 -38.0415
   -38.0409 -37.8039 -37.8036 -37.7259 -37.7259   2.9479   3.0617   3.2225
     3.2885   3.3843   3.5329   3.6596   3.8938   4.0799   4.2133   4.5590
     4.8134   5.1377   5.2206   5.3895   5.5392   5.6550   5.7891   5.9798
     6.1932   6.3536   6.5838   6.7004   6.8458   7.1299   7.3171   7.4559
     7.5815   7.8168   8.1240   8.3488   8.4443   8.6438   8.6577   8.9058
     9.1294   9.3114   9.4059  10.0371  11.2881  12.7613  14.2705  15.5500

          k = 0.2778-0.1604 0.0000 (  4458 PWs)   bands (ev):

   -38.5660 -38.5284 -38.4908 -38.4510 -38.4052 -38.3802 -38.3340 -38.2586
   -38.2119 -38.2002 -38.1936 -38.1626 -38.1296 -38.1130 -38.0905 -37.9712
   -37.9710 -37.7550 -37.7549 -37.7335 -37.7331   2.5636   2.8554   3.0361
     3.1633   3.4458   3.5209   3.8148   3.8808   4.1247   4.3034   4.7200
     4.9383   5.1595   5.3366   5.5374   5.6699   5.7800   5.8321   6.1027
     6.1569   6.4346   6.5555   6.5711   6.7187   6.8790   7.1096   7.2494
     7.3391   7.3892   7.4724   7.6725   7.8436   7.8505   7.9592   8.0935
     8.3159   8.6954   8.8903   8.9522  10.2279  11.6891  13.1133  14.2514

          k = 0.3889 0.6736 0.0000 (  4511 PWs)   bands (ev):

   -38.6148 -38.5842 -38.5703 -38.5503 -38.5344 -38.4166 -38.4083 -38.3870
   -38.3653 -38.3292 -38.2862 -38.2831 -38.2391 -38.2047 -38.1695 -38.0887
   -38.0885 -37.9303 -37.9299 -37.7155 -37.7151   3.0222   3.3802   3.3982
     3.5948   3.6644   3.8232   3.8331   4.1201   4.2182   4.2713   4.5140
     4.5237   4.7145   4.9617   5.3229   5.5261   5.7377   5.8949   5.9336
     6.2659   6.3464   6.7236   6.7463   6.8216   7.1465   7.4749   7.6905
     7.8263   8.2498   8.3605   8.4268   8.6137   8.6849   8.9022   8.9094
    13.2282  13.5350  13.8441  14.1490  14.5037  14.8887  15.2320  16.6234

          k = 0.3889-0.3528 0.0000 (  4485 PWs)   bands (ev):

   -38.6557 -38.6256 -38.6182 -38.5841 -38.5680 -38.3865 -38.3576 -38.3049
   -38.2993 -38.2844 -38.2593 -38.2229 -38.2196 -38.1675 -38.1503 -38.1160
   -38.1143 -37.8367 -37.8367 -37.7195 -37.7192   2.6353   2.8253   2.9444
     2.9954   3.1852   3.2881   3.3683   3.6960   3.8215   3.9238   4.4334
     4.7516   5.0006   5.3905   5.4906   5.6888   5.8315   5.9534   6.4419
     6.6037   6.6394   7.1978   7.3051   7.6580   7.7893   7.8900   8.2386
     8.3700   8.3832   8.4554   8.6005   8.7938   8.8870   9.0315   9.2056
    10.7661  11.2645  11.6485  11.9959  12.7316  13.7038  14.5388  16.4191

          k = 0.3889-0.2245 0.0000 (  4444 PWs)   bands (ev):

   -38.6315 -38.6100 -38.5969 -38.5675 -38.5349 -38.4139 -38.3596 -38.2837
   -38.2543 -38.2403 -38.2358 -38.1993 -38.1623 -38.1501 -38.1206 -38.0972
   -38.0935 -37.7906 -37.7904 -37.7236 -37.7232   2.5850   2.6400   2.8351
     2.9236   2.9972   3.1841   3.2665   3.5882   3.6680   3.8862   4.5288
     4.9502   5.3024   5.3818   5.5345   5.8690   5.9053   5.9492   6.4856
     6.6787   6.8140   7.1572   7.5459   7.8061   8.0589   8.2007   8.2718
     8.4182   8.5018   8.5367   8.5733   8.6802   8.7240   8.8720   8.9681
     9.0737   9.1880   9.4265   9.9545  11.3595  12.9336  14.5174  16.0512

          k =-0.5000-0.8660 0.0000 (  4492 PWs)   bands (ev):

   -38.6879 -38.6580 -38.6504 -38.6113 -38.5996 -38.3687 -38.3624 -38.2897
   -38.2721 -38.2675 -38.2563 -38.2136 -38.1754 -38.1753 -38.1403 -38.1327
   -38.1295 -37.8048 -37.8046 -37.7203 -37.7203   2.3590   2.5476   2.6713
     2.7105   2.9025   3.0290   3.0726   3.4291   3.4866   3.7322   4.4225
     4.8937   5.1215   5.2663   5.4274   5.8153   6.1840   6.2240   6.4289
     7.0988   7.1553   7.2110   7.8963   8.1484   8.3554   8.4755   8.7786
     8.8920   8.9221   8.9887   8.9925   9.0629   9.1871   9.3881   9.3922
     9.7323  10.8443  11.7310  11.9264  12.3072  12.4731  12.6016  16.1107

     the Fermi energy is     8.3388 ev

!    total energy              =   -1198.23155099 Ry
     estimated scf accuracy    <       0.00000070 Ry
     smearing contrib. (-TS)   =      -0.03065419 Ry
     internal energy E=F+TS    =   -1198.20089680 Ry

     The total energy is F=E-TS. E is the sum of the following terms:
     one-electron contribution =  -13429.50727852 Ry
     hartree contribution      =    6760.55463940 Ry
     xc contribution           =    -209.34330572 Ry
     ewald contribution        =    5680.09504805 Ry

     total magnetization       =    -0.04 Bohr mag/cell
     absolute magnetization    =     0.04 Bohr mag/cell

     convergence has been achieved in  15 iterations

     negative rho (up, down):  2.021E-01 2.019E-01

     Forces acting on atoms (cartesian axes, Ry/au):

     atom    1 type  1   force =     0.00000000    0.00000000    0.01219791
     atom    2 type  1   force =     0.00000000    0.00000000   -0.00736238
     atom    3 type  1   force =     0.00000000    0.00000000   -0.00672522
     atom    4 type  1   force =     0.00000000    0.00000000   -0.00000468
     atom    5 type  1   force =     0.00000000    0.00000000    0.00672325
     atom    6 type  1   force =     0.00000000    0.00000000    0.00736978
     atom    7 type  1   force =     0.00000000    0.00000000   -0.01219867

     Total force =     0.022283     Total SCF correction =     0.004180
     SCF correction compared to forces is large: reduce conv_thr to get better values

     BFGS Geometry Optimization
     Energy error            =      0.0E+00
     Gradient error          =      1.2E-02

     number of scf cycles    =   1
     number of bfgs steps    =   0

     energy   new            =   -1198.2315509873 Ry

     new trust radius        =       0.0121986724 bohr
     new conv_thr            =       0.0000010000 Ry


ATOMIC_POSITIONS (angstrom)
Rh            0.0000000000        0.0000000000        0.0064548581
Rh            2.7108568000        1.5651139000        2.2095092953
Rh            1.3554284000        0.7825569000        4.4232517692
Rh            0.0000000000        0.0000000000        6.6402134248
Rh            2.7108568000        1.5651139000        8.8571789927
Rh            1.3554284000        0.7825569000       11.0709263195
Rh            0.0000000000        0.0000000000       13.2739764406



     Writing output data file /home/STUDENTI/leonardo.razzai/WORK/relax_surf/7-L.save/
     NEW-OLD atomic charge density approx. for the potential

     negative rho (up, down):  2.021E-01 2.019E-01
     Generating pointlists ...

     total cpu time spent up to now is      269.3 secs

     Self-consistent Calculation

     iteration #  1     ecut=    35.00 Ry     beta= 0.40
     Davidson diagonalization with overlap
     ethr =  1.00E-06,  avg # of iterations =  6.0

     negative rho (up, down):  2.021E-01 2.020E-01

     total cpu time spent up to now is      299.8 secs

     total energy              =   -1198.23137751 Ry
     estimated scf accuracy    <       0.02972553 Ry

     total magnetization       =    -0.03 Bohr mag/cell
     absolute magnetization    =     0.03 Bohr mag/cell

     iteration #  2     ecut=    35.00 Ry     beta= 0.40
     Davidson diagonalization with overlap
     ethr =  2.83E-05,  avg # of iterations =  1.0

     negative rho (up, down):  2.021E-01 2.020E-01

     total cpu time spent up to now is      313.5 secs

     total energy              =   -1198.23180913 Ry
     estimated scf accuracy    <       0.01729719 Ry

     total magnetization       =    -0.02 Bohr mag/cell
     absolute magnetization    =     0.03 Bohr mag/cell

     iteration #  3     ecut=    35.00 Ry     beta= 0.40
     Davidson diagonalization with overlap
     ethr =  1.65E-05,  avg # of iterations =  1.0

     negative rho (up, down):  2.021E-01 2.020E-01

     total cpu time spent up to now is      327.4 secs

     total energy              =   -1198.23199351 Ry
     estimated scf accuracy    <       0.00064315 Ry

     total magnetization       =    -0.02 Bohr mag/cell
     absolute magnetization    =     0.02 Bohr mag/cell

     iteration #  4     ecut=    35.00 Ry     beta= 0.40
     Davidson diagonalization with overlap
     ethr =  6.13E-07,  avg # of iterations =  1.0

     negative rho (up, down):  2.021E-01 2.020E-01

     total cpu time spent up to now is      341.2 secs

     total energy              =   -1198.23198024 Ry
     estimated scf accuracy    <       0.00030645 Ry

     total magnetization       =    -0.02 Bohr mag/cell
     absolute magnetization    =     0.02 Bohr mag/cell

     iteration #  5     ecut=    35.00 Ry     beta= 0.40
     Davidson diagonalization with overlap
     ethr =  2.92E-07,  avg # of iterations =  1.0

     negative rho (up, down):  2.021E-01 2.020E-01

     total cpu time spent up to now is      354.8 secs

     total energy              =   -1198.23198833 Ry
     estimated scf accuracy    <       0.00000106 Ry

     total magnetization       =    -0.01 Bohr mag/cell
     absolute magnetization    =     0.02 Bohr mag/cell

     iteration #  6     ecut=    35.00 Ry     beta= 0.40
     Davidson diagonalization with overlap
     ethr =  1.01E-09,  avg # of iterations =  3.3

     negative rho (up, down):  2.021E-01 2.020E-01

     total cpu time spent up to now is      373.4 secs

     total energy              =   -1198.23198863 Ry
     estimated scf accuracy    <       0.00000104 Ry

     total magnetization       =    -0.01 Bohr mag/cell
     absolute magnetization    =     0.02 Bohr mag/cell

     iteration #  7     ecut=    35.00 Ry     beta= 0.40
     Davidson diagonalization with overlap
     ethr =  9.89E-10,  avg # of iterations =  1.0

     negative rho (up, down):  2.021E-01 2.020E-01

     total cpu time spent up to now is      387.2 secs

     total energy              =   -1198.23198871 Ry
     estimated scf accuracy    <       0.00000139 Ry

     total magnetization       =    -0.01 Bohr mag/cell
     absolute magnetization    =     0.01 Bohr mag/cell

     iteration #  8     ecut=    35.00 Ry     beta= 0.40
     Davidson diagonalization with overlap
     ethr =  9.89E-10,  avg # of iterations =  1.0

     negative rho (up, down):  2.021E-01 2.021E-01
 
     Magnetic moment per site:
     atom:    1    charge:   13.1786    magn:   -0.0029    constr:    0.0000
     atom:    2    charge:   13.2393    magn:   -0.0015    constr:    0.0000
     atom:    3    charge:   13.2463    magn:    0.0001    constr:    0.0000
     atom:    4    charge:   13.2482    magn:    0.0004    constr:    0.0000
     atom:    5    charge:   13.2458    magn:    0.0001    constr:    0.0000
     atom:    6    charge:   13.2395    magn:   -0.0015    constr:    0.0000
     atom:    7    charge:   13.1784    magn:   -0.0029    constr:    0.0000

     total cpu time spent up to now is      400.7 secs

     End of self-consistent calculation

 ------ SPIN UP ------------


          k = 0.0556 0.0962 0.0000 (  4451 PWs)   bands (ev):

   -38.6499 -38.5703 -38.4148 -38.2651 -38.1677 -38.1640 -38.1412 -38.1381
   -38.1278 -38.1193 -38.0965 -38.0859 -38.0724 -38.0646 -38.0416 -37.7589
   -37.7581 -37.7328 -37.7326 -37.7009 -37.7007   1.0285   1.5267   2.2210
     2.7153   2.7205   3.0755   3.1150   4.9079   4.9139   5.1217   5.1760
     5.2914   5.3597   5.5609   5.5768   5.5952   5.6424   5.6749   5.7106
     5.7997   5.8383   5.8913   5.9686   6.0823   6.2256   6.2309   6.7565
     7.0461   7.0745   7.2866   7.3407   7.5106   7.5643   7.6681   7.7525
     8.0744   8.0974   8.5769   8.6167   8.7942   9.3641  10.2637  10.8176

          k = 0.0556 0.2245 0.0000 (  4420 PWs)   bands (ev):

   -38.5986 -38.5416 -38.4303 -38.3456 -38.2975 -38.2684 -38.2428 -38.2196
   -38.1751 -38.1711 -38.1553 -38.1314 -38.1078 -38.0887 -38.0679 -37.8593
   -37.8591 -37.7466 -37.7462 -37.7341 -37.7336   1.9417   2.3562   2.9412
     3.2773   3.4240   3.7221   3.8063   4.2190   4.5031   4.6046   4.6568
     4.8615   4.8798   5.3540   5.4748   5.6220   5.7085   5.7888   5.8512
     5.9089   6.0710   6.1810   6.2941   6.4517   6.5322   6.6493   6.7175
     6.7685   6.9304   7.0497   7.1687   7.3363   7.6166   7.7081   7.9649
     8.0900   8.4976   8.6452   8.7987   9.5262  10.7221  11.9297  12.8352

          k = 0.0556 0.3528 0.0000 (  4467 PWs)   bands (ev):

   -38.5619 -38.5387 -38.5170 -38.4910 -38.4395 -38.4217 -38.3548 -38.2711
   -38.2307 -38.2204 -38.2033 -38.1780 -38.1518 -38.1189 -38.1020 -38.0145
   -38.0140 -37.7779 -37.7778 -37.7358 -37.7356   2.7348   3.0180   3.0224
     3.1547   3.3710   3.4402   3.6832   3.8352   4.0931   4.1647   4.6514
     4.9462   5.1489   5.3594   5.5519   5.6474   5.6781   5.7866   6.0585
     6.1877   6.4496   6.6157   6.7579   6.8159   7.0566   7.3043   7.4483
     7.5240   7.7228   7.8351   7.9768   8.1026   8.2814   8.3465   8.4777
     8.4899   8.6406   8.8903   9.2910  10.6317  12.1316  13.6167  14.8289

          k = 0.0556 0.4811 0.0000 (  4463 PWs)   bands (ev):

   -38.6507 -38.6261 -38.6158 -38.5838 -38.5578 -38.4025 -38.3663 -38.2899
   -38.2715 -38.2595 -38.2445 -38.2091 -38.1858 -38.1495 -38.1343 -38.1158
   -38.1112 -37.8110 -37.8109 -37.7279 -37.7275   2.5538   2.6712   2.8205
     2.8852   3.0239   3.1881   3.2073   3.5756   3.6519   3.8365   4.4641
     4.8766   5.1927   5.3687   5.5083   5.7729   5.9553   5.9799   6.5109
     6.6881   6.8236   7.2380   7.5199   7.8534   8.0520   8.0843   8.3667
     8.4681   8.5810   8.6124   8.6983   8.7249   8.8798   8.9854   9.1316
     9.5794  10.1175  10.4336  10.7641  11.8445  13.2361  14.6068  16.3507

          k = 0.0556-0.5453 0.0000 (  4486 PWs)   bands (ev):

   -38.6789 -38.6526 -38.6401 -38.6049 -38.5895 -38.3795 -38.3688 -38.2912
   -38.2820 -38.2689 -38.2587 -38.2164 -38.1949 -38.1603 -38.1455 -38.1320
   -38.1284 -37.8188 -37.8184 -37.7263 -37.7259   2.4367   2.6207   2.7380
     2.7776   2.9690   3.1086   3.1164   3.4929   3.5621   3.7622   4.4223
     4.8477   5.0972   5.3182   5.4462   5.8116   5.9839   6.1305   6.5175
     6.8240   7.0602   7.2940   7.7162   8.0700   8.1899   8.4313   8.4846
     8.6866   8.7934   8.8573   8.8853   8.9517   9.0347   9.1479   9.2555
    10.2063  11.0038  11.7200  11.8861  12.1769  12.8806  13.4654  16.1902

          k = 0.0556-0.4170 0.0000 (  4465 PWs)   bands (ev):

   -38.5999 -38.5874 -38.5688 -38.5440 -38.5013 -38.4318 -38.3662 -38.2818
   -38.2542 -38.2430 -38.2248 -38.1959 -38.1708 -38.1348 -38.1196 -38.0757
   -38.0737 -37.7971 -37.7970 -37.7312 -37.7308   2.7410   2.7663   2.9742
     3.0663   3.1065   3.3109   3.3987   3.7001   3.8372   3.9736   4.5538
     4.9175   5.3251   5.4525   5.5852   5.6463   5.7085   6.0020   6.2716
     6.3889   6.6242   7.0002   7.1946   7.3909   7.5751   7.6939   7.9886
     8.0788   8.1218   8.2589   8.3522   8.5095   8.6161   8.7064   8.8862
     9.0011   9.1998   9.2695   9.8965  11.2507  12.8055  14.3772  15.7497

          k = 0.0556-0.2887 0.0000 (  4439 PWs)   bands (ev):

   -38.5690 -38.5307 -38.4659 -38.4179 -38.3771 -38.3428 -38.3123 -38.2525
   -38.2034 -38.1948 -38.1810 -38.1554 -38.1300 -38.1025 -38.0841 -37.9389
   -37.9384 -37.7558 -37.7557 -37.7409 -37.7406   2.4578   2.7663   3.1312
     3.2932   3.5436   3.7163   3.9197   4.0558   4.2342   4.4006   4.6429
     4.7143   4.9972   5.1312   5.4892   5.6669   5.7565   5.8092   5.9116
     6.0537   6.1190   6.2691   6.3911   6.7079   6.7306   6.8305   6.9973
     7.1459   7.2256   7.3378   7.5944   7.6941   7.8275   7.9585   8.0677
     8.2495   8.5476   8.8334   8.9061  10.0587  11.4275  12.7829  13.8530

          k = 0.0556-0.1604 0.0000 (  4443 PWs)   bands (ev):

   -38.6281 -38.5572 -38.4178 -38.2927 -38.2236 -38.2075 -38.1822 -38.1735
   -38.1513 -38.1429 -38.1248 -38.1098 -38.0857 -38.0789 -38.0536 -37.7892
   -37.7890 -37.7515 -37.7512 -37.7149 -37.7148   1.4222   1.8961   2.5662
     3.0111   3.0555   3.3956   3.4360   4.5864   4.7169   4.8670   4.9479
     5.0853   5.1157   5.4352   5.5572   5.6689   5.7438   5.7755   5.8683
     5.9013   5.9479   6.0071   6.0271   6.2037   6.2595   6.4630   6.5238
     6.8825   6.9680   7.0560   7.1176   7.3101   7.4953   7.6377   7.8592
     8.0162   8.3635   8.5441   8.7793   9.0392  10.0235  11.0748  11.7987

          k = 0.0556-0.0321 0.0000 (  4465 PWs)   bands (ev):

   -38.6615 -38.5779 -38.4153 -38.2560 -38.1403 -38.1364 -38.1302 -38.1256
   -38.1050 -38.0972 -38.0919 -38.0692 -38.0681 -38.0463 -38.0345 -37.7611
   -37.7600 -37.7047 -37.7046 -37.6935 -37.6933   0.8198   1.3262   2.0266
     2.5342   2.5446   2.8924   2.9315   5.0695   5.0953   5.2685   5.3424
     5.3908   5.4132   5.4231   5.4911   5.5475   5.5923   5.6598   5.6734
     5.6935   5.7282   5.9381   5.9974   6.0736   6.0841   6.2865   7.1548
     7.1787   7.2456   7.3674   7.3798   7.5213   7.5624   7.8210   7.9280
     8.1311   8.2462   8.2673   8.6438   8.8310   8.8397   9.6344  10.0699

          k = 0.1667 0.2887 0.0000 (  4425 PWs)   bands (ev):

   -38.5465 -38.5304 -38.4827 -38.4448 -38.4147 -38.3829 -38.3428 -38.2717
   -38.2242 -38.2238 -38.1856 -38.1820 -38.1588 -38.1444 -38.0940 -37.9708
   -37.9707 -37.7888 -37.7887 -37.7368 -37.7364   2.9253   3.0968   3.3802
     3.7218   3.8835   3.8945   4.0336   4.0513   4.1179   4.3002   4.4144
     4.5357   4.9955   5.0267   5.1174   5.3168   5.4909   5.5240   5.5536
     5.6295   6.1901   6.2357   6.4489   6.5820   6.6570   7.1118   7.1449
     7.3278   7.5566   7.7312   7.9481   8.1832   8.3008   8.4308   8.4362
     8.5592   8.6250   8.7070   9.3898  10.6088  11.9870  13.3867  14.5373

          k = 0.1667 0.4170 0.0000 (  4459 PWs)   bands (ev):

   -38.5839 -38.5661 -38.5593 -38.5294 -38.4996 -38.4400 -38.3725 -38.2979
   -38.2969 -38.2827 -38.2410 -38.2356 -38.2068 -38.1852 -38.1259 -38.0670
   -38.0664 -37.8513 -37.8511 -37.7280 -37.7278   3.1042   3.1690   3.3318
     3.4935   3.5349   3.6171   3.8315   3.9094   4.1285   4.3090   4.5680
     4.6944   4.9463   5.0915   5.1964   5.4515   5.5284   5.8918   5.9566
     6.1265   6.2180   6.4516   6.5784   6.8417   7.1266   7.2734   7.3949
     7.6320   7.7547   7.9913   8.4716   8.7679   8.8611   8.9331   9.1024
    10.1700  10.3229  10.5442  11.1551  12.2568  13.6332  15.0906  16.3821

          k = 0.1667 0.5453 0.0000 (  4490 PWs)   bands (ev):

   -38.6418 -38.6162 -38.6005 -38.5719 -38.5566 -38.3920 -38.3716 -38.3494
   -38.3294 -38.3133 -38.2742 -38.2493 -38.2388 -38.1908 -38.1548 -38.1126
   -38.1123 -37.8854 -37.8852 -37.7233 -37.7232   2.8004   3.0863   3.1470
     3.2298   3.4152   3.4960   3.6243   3.8575   4.0616   4.1174   4.4524
     4.5689   4.7719   5.1898   5.4910   5.6544   5.7197   5.9433   6.2158
     6.3120   6.5438   6.8308   7.1977   7.2535   7.3484   7.7153   8.0028
     8.1483   8.2787   8.3897   8.5662   8.7016   8.7851   8.9821   9.1088
    12.0307  12.4615  12.8764  13.2738  13.7726  14.2386  14.4976  16.4931

          k = 0.1667-0.4811 0.0000 (  4476 PWs)   bands (ev):

   -38.6210 -38.5958 -38.5882 -38.5569 -38.5371 -38.4142 -38.3711 -38.3277
   -38.3167 -38.3026 -38.2624 -38.2499 -38.2242 -38.1906 -38.1429 -38.0973
   -38.0967 -37.8735 -37.8733 -37.7249 -37.7247   2.9080   3.1171   3.2026
     3.3434   3.4521   3.5413   3.6949   3.8965   4.0684   4.1995   4.4660
     4.6734   4.8818   5.0701   5.4525   5.5555   5.7526   5.9545   6.0456
     6.1760   6.5310   6.6803   6.9449   7.0718   7.1944   7.6080   7.8037
     7.8155   7.9684   8.1152   8.5270   8.8224   8.8739   9.0335   9.1988
    11.1375  11.4096  11.7224  12.2892  13.2167  14.3820  15.5376  16.7255

          k = 0.1667-0.3528 0.0000 (  4458 PWs)   bands (ev):

   -38.5484 -38.5389 -38.5210 -38.4922 -38.4519 -38.4469 -38.3672 -38.2837
   -38.2603 -38.2557 -38.2172 -38.1987 -38.1922 -38.1706 -38.1090 -38.0238
   -38.0236 -37.8216 -37.8215 -37.7324 -37.7322   3.1933   3.2857   3.4207
     3.5488   3.6717   3.7703   3.8757   4.0260   4.2709   4.3041   4.5123
     4.6695   4.8646   4.9733   5.2379   5.3541   5.3877   5.6006   5.8049
     5.8765   6.1115   6.1618   6.4649   6.7122   6.8805   7.0539   7.3169
     7.4879   7.6900   7.8629   8.3277   8.5238   8.6329   8.6718   8.8766
     9.2756   9.3459   9.4884  10.1296  11.3438  12.7641  14.2233  15.4589

          k = 0.1667-0.2245 0.0000 (  4433 PWs)   bands (ev):

   -38.5732 -38.5323 -38.4512 -38.3933 -38.3550 -38.3182 -38.2991 -38.2517
   -38.1964 -38.1937 -38.1711 -38.1538 -38.1317 -38.1097 -38.0823 -37.9139
   -37.9138 -37.7584 -37.7583 -37.7419 -37.7416   2.4101   2.7436   3.2227
     3.5667   3.7128   3.8720   3.9910   4.1608   4.2813   4.3505   4.5167
     4.6700   4.8014   5.1073   5.2862   5.4473   5.5138   5.6277   5.7709
     5.8171   6.0590   6.2196   6.5491   6.5710   6.6101   6.8129   6.9379
     7.1703   7.1887   7.2734   7.5963   7.6954   7.8803   8.0256   8.0386
     8.1425   8.4436   8.6694   8.9381  10.0242  11.3091  12.6151  13.6503

          k = 0.1667-0.0962 0.0000 (  4427 PWs)   bands (ev):

   -38.6185 -38.5515 -38.4208 -38.3105 -38.2523 -38.2292 -38.2010 -38.1858
   -38.1627 -38.1561 -38.1327 -38.1198 -38.0918 -38.0838 -38.0545 -37.8151
   -37.8150 -37.7500 -37.7495 -37.7197 -37.7194   1.6003   2.0560   2.6984
     3.0872   3.1913   3.5134   3.5733   4.4001   4.6936   4.7604   4.8416
     5.0102   5.0284   5.5077   5.5435   5.6919   5.7798   5.7832   5.9015
     6.0027   6.0442   6.0847   6.1251   6.1424   6.3245   6.4751   6.6256
     6.7070   6.9207   6.9591   7.1329   7.2922   7.5066   7.5935   7.8687
     8.1677   8.2857   8.6727   8.8897   9.1216  10.2618  11.3857  12.1783

          k = 0.2778 0.4811 0.0000 (  4485 PWs)   bands (ev):

   -38.5784 -38.5761 -38.5513 -38.5444 -38.4938 -38.4646 -38.4235 -38.3779
   -38.3520 -38.3476 -38.3009 -38.2843 -38.2270 -38.2134 -38.1594 -38.0750
   -38.0749 -37.9450 -37.9449 -37.7221 -37.7219   3.3310   3.3432   3.5205
     3.6292   3.8708   3.9890   4.1114   4.1427   4.2981   4.3769   4.4305
     4.4993   4.8330   4.9676   5.1606   5.3368   5.5969   5.6895   6.0329
     6.0396   6.2635   6.2654   6.7374   6.8402   6.9912   7.2420   7.3895
     7.4595   7.8004   8.1465   8.5140   8.7841   8.8241   8.8817   9.0931
    12.4839  12.7242  13.1798  13.8579  14.7807  15.8737  16.8107  16.9268

          k = 0.2778 0.6094 0.0000 (  4491 PWs)   bands (ev):

   -38.5770 -38.5570 -38.5404 -38.5323 -38.5051 -38.4596 -38.4506 -38.4124
   -38.3966 -38.3659 -38.2990 -38.2915 -38.2246 -38.2123 -38.1751 -38.0666
   -38.0665 -37.9776 -37.9774 -37.7206 -37.7203   3.2992   3.5509   3.5946
     3.7487   3.8573   4.0064   4.0419   4.1513   4.2420   4.3357   4.4231
     4.5853   4.7438   5.0952   5.2173   5.4189   5.5346   5.6853   5.9517
     6.0016   6.3068   6.3254   6.7082   6.8969   7.0837   7.2382   7.4211
     7.4902   8.0984   8.3057   8.4510   8.6102   8.6735   8.7274   8.8702
    13.6962  14.0013  14.4549  14.8978  15.2865  15.7428  16.2792  16.5016

          k = 0.2778-0.4170 0.0000 (  4462 PWs)   bands (ev):

   -38.5880 -38.5725 -38.5636 -38.5388 -38.5084 -38.4431 -38.3899 -38.3343
   -38.3270 -38.3134 -38.2788 -38.2616 -38.2265 -38.2056 -38.1410 -38.0766
   -38.0763 -37.8991 -37.8989 -37.7244 -37.7242   3.1850   3.3212   3.4266
     3.5706   3.7178   3.7856   3.9582   4.1643   4.2527   4.3137   4.5667
     4.7173   4.7652   4.8631   5.2215   5.2692   5.5816   5.7875   6.0170
     6.0950   6.2525   6.3282   6.5438   6.8203   7.0380   7.2619   7.4238
     7.5509   7.6476   8.0012   8.5172   8.8819   8.9114   9.0075   9.1990
    11.3098  11.4701  11.8232  12.4690  13.4700  14.7229  16.0578  17.2207

          k = 0.2778-0.2887 0.0000 (  4463 PWs)   bands (ev):

   -38.5684 -38.5596 -38.5382 -38.5156 -38.4691 -38.4433 -38.3654 -38.2802
   -38.2612 -38.2491 -38.2186 -38.1951 -38.1896 -38.1452 -38.1145 -38.0460
   -38.0453 -37.8093 -37.8090 -37.7318 -37.7316   2.9498   3.0647   3.2206
     3.2783   3.3807   3.5208   3.6495   3.8802   4.0692   4.2042   4.5525
     4.8045   5.1388   5.2091   5.3923   5.5371   5.6485   5.7880   5.9780
     6.1799   6.3489   6.5764   6.6957   6.8373   7.1276   7.3178   7.4589
     7.5802   7.8197   8.1241   8.3524   8.4454   8.6442   8.6595   8.9064
     9.1295   9.3113   9.4020  10.0374  11.2929  12.7670  14.2734  15.5512

          k = 0.2778-0.1604 0.0000 (  4458 PWs)   bands (ev):

   -38.5636 -38.5289 -38.4923 -38.4548 -38.4091 -38.3799 -38.3354 -38.2609
   -38.2120 -38.2028 -38.1940 -38.1627 -38.1293 -38.1107 -38.0881 -37.9761
   -37.9759 -37.7605 -37.7604 -37.7390 -37.7386   2.5650   2.8484   3.0354
     3.1559   3.4347   3.5199   3.8035   3.8711   4.1173   4.2921   4.7098
     4.9362   5.1534   5.3327   5.5373   5.6689   5.7842   5.8314   6.0898
     6.1541   6.4282   6.5433   6.5635   6.7167   6.8721   7.1011   7.2518
     7.3357   7.3931   7.4717   7.6655   7.8387   7.8547   7.9578   8.0937
     8.3184   8.7045   8.8932   8.9541  10.2316  11.6941  13.1191  14.2530

          k = 0.3889 0.6736 0.0000 (  4511 PWs)   bands (ev):

   -38.6139 -38.5878 -38.5694 -38.5501 -38.5330 -38.4191 -38.4113 -38.3849
   -38.3690 -38.3342 -38.2905 -38.2838 -38.2366 -38.2032 -38.1660 -38.0931
   -38.0928 -37.9354 -37.9349 -37.7218 -37.7214   3.0253   3.3685   3.4011
     3.5979   3.6574   3.8121   3.8228   4.1060   4.2034   4.2597   4.5129
     4.5154   4.7050   4.9529   5.3180   5.5168   5.7316   5.8972   5.9305
     6.2629   6.3405   6.7195   6.7378   6.8160   7.1475   7.4775   7.6953
     7.8293   8.2550   8.3678   8.4301   8.6150   8.6883   8.9039   8.9095
    13.2273  13.5331  13.8413  14.1450  14.5019  14.8916  15.2306  16.6212

          k = 0.3889-0.3528 0.0000 (  4485 PWs)   bands (ev):

   -38.6548 -38.6291 -38.6170 -38.5844 -38.5666 -38.3909 -38.3653 -38.3071
   -38.3009 -38.2838 -38.2582 -38.2227 -38.2200 -38.1655 -38.1484 -38.1197
   -38.1175 -37.8421 -37.8420 -37.7257 -37.7254   2.6381   2.8272   2.9402
     2.9907   3.1744   3.2795   3.3589   3.6840   3.8098   3.9094   4.4253
     4.7453   5.0063   5.3832   5.4877   5.6888   5.8324   5.9397   6.4349
     6.5931   6.6403   7.1929   7.3003   7.6517   7.7848   7.8943   8.2431
     8.3728   8.3833   8.4575   8.6041   8.7946   8.8883   9.0319   9.2066
    10.7654  11.2606  11.6463  11.9945  12.7335  13.7073  14.5375  16.4182

          k = 0.3889-0.2245 0.0000 (  4444 PWs)   bands (ev):

   -38.6306 -38.6103 -38.5980 -38.5691 -38.5338 -38.4168 -38.3667 -38.2857
   -38.2541 -38.2428 -38.2352 -38.1996 -38.1622 -38.1479 -38.1183 -38.1013
   -38.0969 -37.7960 -37.7958 -37.7297 -37.7293   2.5875   2.6418   2.8268
     2.9221   2.9916   3.1745   3.2557   3.5732   3.6578   3.8734   4.5215
     4.9470   5.3039   5.3816   5.5384   5.8659   5.8913   5.9486   6.4704
     6.6737   6.8139   7.1472   7.5399   7.8041   8.0615   8.1959   8.2725
     8.4205   8.5005   8.5403   8.5715   8.6814   8.7272   8.8671   8.9666
     9.0747   9.1848   9.4260   9.9557  11.3646  12.9397  14.5181  16.0531

          k =-0.5000-0.8660 0.0000 (  4492 PWs)   bands (ev):

   -38.6870 -38.6616 -38.6493 -38.6115 -38.5983 -38.3760 -38.3716 -38.2856
   -38.2718 -38.2671 -38.2588 -38.2140 -38.1753 -38.1745 -38.1442 -38.1312
   -38.1305 -37.8102 -37.8100 -37.7266 -37.7265   2.3615   2.5493   2.6597
     2.7132   2.8937   3.0213   3.0628   3.4161   3.4736   3.7185   4.4139
     4.8906   5.1244   5.2670   5.4314   5.8008   6.1811   6.2246   6.4133
     7.0931   7.1458   7.2122   7.8969   8.1494   8.3537   8.4828   8.7795
     8.8939   8.9202   8.9884   8.9940   9.0624   9.1863   9.3833   9.3879
     9.7308  10.8385  11.7308  11.9249  12.3140  12.4703  12.6035  16.1057

 ------ SPIN DOWN ----------


          k = 0.0556 0.0962 0.0000 (  4451 PWs)   bands (ev):

   -38.6503 -38.5714 -38.4158 -38.2659 -38.1692 -38.1650 -38.1422 -38.1392
   -38.1280 -38.1202 -38.0970 -38.0860 -38.0726 -38.0647 -38.0415 -37.7626
   -37.7617 -37.7355 -37.7354 -37.7036 -37.7034   1.0285   1.5266   2.2209
     2.7152   2.7204   3.0747   3.1141   4.9073   4.9137   5.1212   5.1751
     5.2905   5.3588   5.5602   5.5763   5.5950   5.6409   5.6742   5.7093
     5.7992   5.8370   5.8904   5.9671   6.0807   6.2238   6.2291   6.7557
     7.0453   7.0741   7.2856   7.3390   7.5095   7.5626   7.6665   7.7509
     8.0728   8.0961   8.5746   8.6158   8.7930   9.3631  10.2624  10.8169

          k = 0.0556 0.2245 0.0000 (  4420 PWs)   bands (ev):

   -38.5990 -38.5426 -38.4312 -38.3468 -38.2990 -38.2690 -38.2433 -38.2200
   -38.1760 -38.1723 -38.1559 -38.1319 -38.1081 -38.0888 -38.0678 -37.8620
   -37.8619 -37.7502 -37.7499 -37.7368 -37.7363   1.9417   2.3561   2.9410
     3.2772   3.4236   3.7213   3.8056   4.2185   4.5024   4.6041   4.6561
     4.8606   4.8789   5.3531   5.4739   5.6204   5.7076   5.7879   5.8506
     5.9080   6.0700   6.1798   6.2935   6.4506   6.5309   6.6480   6.7167
     6.7669   6.9293   7.0484   7.1671   7.3347   7.6152   7.7068   7.9636
     8.0887   8.4957   8.6437   8.7976   9.5251  10.7211  11.9287  12.8347

          k = 0.0556 0.3528 0.0000 (  4467 PWs)   bands (ev):

   -38.5624 -38.5393 -38.5178 -38.4922 -38.4406 -38.4223 -38.3555 -38.2718
   -38.2316 -38.2217 -38.2036 -38.1787 -38.1522 -38.1189 -38.1019 -38.0171
   -38.0166 -37.7807 -37.7806 -37.7395 -37.7394   2.7346   3.0178   3.0221
     3.1542   3.3706   3.4396   3.6824   3.8343   4.0923   4.1637   4.6505
     4.9454   5.1482   5.3583   5.5513   5.6471   5.6771   5.7855   6.0574
     6.1864   6.4486   6.6145   6.7566   6.8149   7.0553   7.3030   7.4469
     7.5234   7.7218   7.8341   7.9755   8.1015   8.2803   8.3450   8.4763
     8.4886   8.6386   8.8893   9.2899  10.6307  12.1307  13.6159  14.8283

          k = 0.0556 0.4811 0.0000 (  4463 PWs)   bands (ev):

   -38.6514 -38.6274 -38.6163 -38.5844 -38.5581 -38.4036 -38.3677 -38.2905
   -38.2724 -38.2605 -38.2449 -38.2099 -38.1862 -38.1499 -38.1347 -38.1180
   -38.1131 -37.8137 -37.8136 -37.7317 -37.7313   2.5536   2.6710   2.8199
     2.8848   3.0233   3.1875   3.2065   3.5746   3.6510   3.8354   4.4633
     4.8757   5.1916   5.3679   5.5076   5.7718   5.9540   5.9792   6.5096
     6.6868   6.8225   7.2367   7.5186   7.8522   8.0508   8.0827   8.3647
     8.4667   8.5798   8.6116   8.6977   8.7240   8.8785   8.9835   9.1306
     9.5784  10.1167  10.4331  10.7635  11.8438  13.2355  14.6064  16.3498

          k = 0.0556-0.5453 0.0000 (  4486 PWs)   bands (ev):

   -38.6795 -38.6540 -38.6406 -38.6054 -38.5899 -38.3808 -38.3704 -38.2915
   -38.2828 -38.2695 -38.2595 -38.2171 -38.1955 -38.1610 -38.1468 -38.1332
   -38.1299 -37.8215 -37.8211 -37.7301 -37.7297   2.4365   2.6205   2.7373
     2.7773   2.9682   3.1079   3.1158   3.4919   3.5610   3.7611   4.4214
     4.8469   5.0961   5.3173   5.4455   5.8104   5.9828   6.1298   6.5163
     6.8226   7.0591   7.2926   7.7146   8.0686   8.1885   8.4293   8.4835
     8.6857   8.7923   8.8564   8.8844   8.9509   9.0336   9.1460   9.2539
    10.2057  11.0033  11.7195  11.8858  12.1764  12.8801  13.4652  16.1898

          k = 0.0556-0.4170 0.0000 (  4465 PWs)   bands (ev):

   -38.6005 -38.5880 -38.5697 -38.5448 -38.5017 -38.4327 -38.3673 -38.2826
   -38.2550 -38.2442 -38.2251 -38.1967 -38.1712 -38.1349 -38.1197 -38.0782
   -38.0760 -37.7998 -37.7997 -37.7350 -37.7346   2.7408   2.7661   2.9737
     3.0655   3.1063   3.3104   3.3978   3.6990   3.8364   3.9726   4.5529
     4.9166   5.3238   5.4522   5.5845   5.6454   5.7072   6.0007   6.2708
     6.3877   6.6230   6.9992   7.1934   7.3898   7.5739   7.6923   7.9870
     8.0772   8.1213   8.2573   8.3516   8.5083   8.6150   8.7046   8.8851
     9.0000   9.1988   9.2684   9.8956  11.2499  12.8048  14.3765  15.7491

          k = 0.0556-0.2887 0.0000 (  4439 PWs)   bands (ev):

   -38.5694 -38.5315 -38.4666 -38.4192 -38.3785 -38.3433 -38.3127 -38.2531
   -38.2042 -38.1961 -38.1814 -38.1560 -38.1304 -38.1026 -38.0841 -37.9416
   -37.9411 -37.7585 -37.7584 -37.7446 -37.7443   2.4578   2.7661   3.1309
     3.2929   3.5430   3.7158   3.9189   4.0552   4.2335   4.3998   4.6422
     4.7133   4.9966   5.1304   5.4882   5.6660   5.7557   5.8087   5.9106
     6.0526   6.1179   6.2678   6.3896   6.7066   6.7296   6.8293   6.9962
     7.1447   7.2249   7.3371   7.5929   7.6928   7.8258   7.9569   8.0665
     8.2481   8.5455   8.8322   8.9049  10.0577  11.4265  12.7820  13.8524

          k = 0.0556-0.1604 0.0000 (  4443 PWs)   bands (ev):

   -38.6285 -38.5582 -38.4187 -38.2936 -38.2250 -38.2083 -38.1828 -38.1739
   -38.1524 -38.1441 -38.1249 -38.1103 -38.0859 -38.0790 -38.0535 -37.7920
   -37.7918 -37.7551 -37.7549 -37.7177 -37.7176   1.4221   1.8961   2.5661
     3.0109   3.0553   3.3948   3.4351   4.5859   4.7163   4.8666   4.9472
     5.0844   5.1147   5.4343   5.5558   5.6680   5.7434   5.7742   5.8675
     5.9003   5.9468   6.0062   6.0260   6.2030   6.2589   6.4613   6.5223
     6.8815   6.9671   7.0540   7.1159   7.3086   7.4942   7.6363   7.8578
     8.0147   8.3622   8.5419   8.7782   9.0380  10.0225  11.0737  11.7981

          k = 0.0556-0.0321 0.0000 (  4465 PWs)   bands (ev):

   -38.6619 -38.5790 -38.4164 -38.2568 -38.1414 -38.1378 -38.1312 -38.1269
   -38.1053 -38.0975 -38.0924 -38.0694 -38.0685 -38.0462 -38.0344 -37.7648
   -37.7636 -37.7074 -37.7073 -37.6962 -37.6960   0.8198   1.3261   2.0265
     2.5340   2.5445   2.8915   2.9307   5.0691   5.0949   5.2680   5.3415
     5.3898   5.4122   5.4227   5.4908   5.5464   5.5914   5.6590   5.6729
     5.6921   5.7276   5.9364   5.9957   6.0717   6.0823   6.2850   7.1541
     7.1781   7.2448   7.3664   7.3787   7.5200   7.5611   7.8196   7.9261
     8.1293   8.2448   8.2658   8.6416   8.8303   8.8386   9.6331  10.0693

          k = 0.1667 0.2887 0.0000 (  4425 PWs)   bands (ev):

   -38.5468 -38.5311 -38.4833 -38.4460 -38.4162 -38.3834 -38.3432 -38.2723
   -38.2255 -38.2251 -38.1859 -38.1826 -38.1591 -38.1442 -38.0940 -37.9735
   -37.9734 -37.7915 -37.7914 -37.7405 -37.7401   2.9252   3.0967   3.3800
     3.7212   3.8833   3.8941   4.0330   4.0508   4.1172   4.2993   4.4133
     4.5351   4.9946   5.0264   5.1163   5.3157   5.4894   5.5224   5.5525
     5.6291   6.1892   6.2344   6.4477   6.5807   6.6553   7.1107   7.1445
     7.3263   7.5554   7.7296   7.9468   8.1824   8.2993   8.4290   8.4356
     8.5573   8.6238   8.7060   9.3886  10.6078  11.9860  13.3858  14.5367

          k = 0.1667 0.4170 0.0000 (  4459 PWs)   bands (ev):

   -38.5846 -38.5667 -38.5604 -38.5300 -38.5001 -38.4409 -38.3734 -38.2990
   -38.2982 -38.2839 -38.2412 -38.2358 -38.2074 -38.1851 -38.1259 -38.0696
   -38.0689 -37.8540 -37.8539 -37.7317 -37.7316   3.1040   3.1688   3.3313
     3.4928   3.5344   3.6164   3.8308   3.9088   4.1276   4.3083   4.5670
     4.6935   4.9453   5.0909   5.1957   5.4506   5.5277   5.8908   5.9551
     6.1257   6.2167   6.4503   6.5772   6.8402   7.1256   7.2728   7.3938
     7.6303   7.7526   7.9896   8.4695   8.7673   8.8595   8.9318   9.1017
    10.1695  10.3220  10.5430  11.1542  12.2559  13.6324  15.0899  16.3815

          k = 0.1667 0.5453 0.0000 (  4490 PWs)   bands (ev):

   -38.6425 -38.6176 -38.6010 -38.5724 -38.5569 -38.3931 -38.3727 -38.3505
   -38.3308 -38.3138 -38.2747 -38.2498 -38.2392 -38.1909 -38.1548 -38.1151
   -38.1147 -37.8881 -37.8879 -37.7271 -37.7270   2.8001   3.0861   3.1463
     3.2295   3.4143   3.4955   3.6236   3.8567   4.0607   4.1163   4.4514
     4.5680   4.7714   5.1889   5.4898   5.6535   5.7182   5.9423   6.2148
     6.3113   6.5427   6.8298   7.1962   7.2522   7.3471   7.7140   8.0012
     8.1472   8.2774   8.3873   8.5642   8.7011   8.7836   8.9809   9.1081
    12.0303  12.4609  12.8758  13.2733  13.7720  14.2380  14.4973  16.4923

          k = 0.1667-0.4811 0.0000 (  4476 PWs)   bands (ev):

   -38.6217 -38.5973 -38.5886 -38.5573 -38.5375 -38.4151 -38.3723 -38.3289
   -38.3181 -38.3031 -38.2627 -38.2503 -38.2247 -38.1906 -38.1429 -38.0998
   -38.0991 -37.8762 -37.8760 -37.7287 -37.7285   2.9078   3.1169   3.2020
     3.3430   3.4513   3.5406   3.6942   3.8958   4.0676   4.1986   4.4649
     4.6725   4.8814   5.0691   5.4518   5.5543   5.7512   5.9533   6.0450
     6.1751   6.5300   6.6792   6.9435   7.0705   7.1932   7.6070   7.8024
     7.8143   7.9665   8.1133   8.5248   8.8219   8.8722   9.0321   9.1982
    11.1371  11.4089  11.7215  12.2885  13.2160  14.3813  15.5372  16.7248

          k = 0.1667-0.3528 0.0000 (  4458 PWs)   bands (ev):

   -38.5490 -38.5395 -38.5216 -38.4932 -38.4531 -38.4474 -38.3679 -38.2845
   -38.2616 -38.2571 -38.2175 -38.1987 -38.1928 -38.1705 -38.1090 -38.0264
   -38.0262 -37.8243 -37.8242 -37.7362 -37.7360   3.1931   3.2855   3.4204
     3.5484   3.6711   3.7698   3.8749   4.0253   4.2701   4.3035   4.5114
     4.6690   4.8638   4.9723   5.2370   5.3534   5.3869   5.5997   5.8034
     5.8753   6.1103   6.1603   6.4636   6.7112   6.8792   7.0529   7.3164
     7.4863   7.6880   7.8612   8.3257   8.5231   8.6318   8.6702   8.8758
     9.2751   9.3449   9.4868  10.1285  11.3429  12.7633  14.2225  15.4584

          k = 0.1667-0.2245 0.0000 (  4433 PWs)   bands (ev):

   -38.5736 -38.5332 -38.4519 -38.3945 -38.3565 -38.3187 -38.2994 -38.2522
   -38.1974 -38.1949 -38.1718 -38.1543 -38.1319 -38.1097 -38.0823 -37.9166
   -37.9165 -37.7611 -37.7610 -37.7456 -37.7453   2.4101   2.7435   3.2225
     3.5665   3.7124   3.8714   3.9904   4.1602   4.2807   4.3498   4.5157
     4.6694   4.8005   5.1064   5.2856   5.4461   5.5122   5.6264   5.7698
     5.8167   6.0582   6.2184   6.5475   6.5694   6.6086   6.8122   6.9369
     7.1694   7.1876   7.2723   7.5950   7.6941   7.8789   8.0244   8.0367
     8.1412   8.4416   8.6685   8.9368  10.0232  11.3081  12.6141  13.6498

          k = 0.1667-0.0962 0.0000 (  4427 PWs)   bands (ev):

   -38.6189 -38.5525 -38.4217 -38.3115 -38.2537 -38.2300 -38.2016 -38.1862
   -38.1636 -38.1574 -38.1327 -38.1204 -38.0922 -38.0839 -38.0545 -37.8178
   -37.8177 -37.7536 -37.7532 -37.7224 -37.7222   1.6003   2.0560   2.6983
     3.0871   3.1910   3.5126   3.5725   4.3996   4.6928   4.7601   4.8410
     5.0091   5.0274   5.5069   5.5422   5.6910   5.7794   5.7820   5.9002
     6.0023   6.0431   6.0840   6.1240   6.1415   6.3239   6.4737   6.6242
     6.7057   6.9188   6.9579   7.1313   7.2908   7.5051   7.5923   7.8675
     8.1663   8.2842   8.6705   8.8887   9.1205  10.2608  11.3847  12.1777

          k = 0.2778 0.4811 0.0000 (  4485 PWs)   bands (ev):

   -38.5794 -38.5767 -38.5523 -38.5447 -38.4944 -38.4652 -38.4245 -38.3793
   -38.3532 -38.3481 -38.3016 -38.2851 -38.2271 -38.2136 -38.1592 -38.0775
   -38.0774 -37.9477 -37.9476 -37.7259 -37.7258   3.3308   3.3429   3.5200
     3.6283   3.8701   3.9885   4.1110   4.1425   4.2971   4.3758   4.4295
     4.4984   4.8322   4.9670   5.1597   5.3359   5.5962   5.6888   6.0310
     6.0378   6.2619   6.2638   6.7369   6.8394   6.9903   7.2419   7.3876
     7.4577   7.7990   8.1440   8.5116   8.7828   8.8235   8.8804   9.0924
    12.4837  12.7234  13.1790  13.8571  14.7799  15.8730  16.8103  16.9266

          k = 0.2778 0.6094 0.0000 (  4491 PWs)   bands (ev):

   -38.5776 -38.5582 -38.5408 -38.5330 -38.5057 -38.4607 -38.4513 -38.4136
   -38.3970 -38.3666 -38.3000 -38.2926 -38.2247 -38.2125 -38.1749 -38.0692
   -38.0691 -37.9802 -37.9800 -37.7244 -37.7241   3.2990   3.5506   3.5939
     3.7480   3.8568   4.0061   4.0414   4.1503   4.2409   4.3354   4.4222
     4.5845   4.7429   5.0946   5.2163   5.4181   5.5341   5.6845   5.9497
     5.9998   6.3050   6.3237   6.7078   6.8960   7.0831   7.2378   7.4192
     7.4886   8.0967   8.3026   8.4492   8.6095   8.6719   8.7269   8.8694
    13.6960  14.0007  14.4543  14.8973  15.2860  15.7422  16.2787  16.5013

          k = 0.2778-0.4170 0.0000 (  4462 PWs)   bands (ev):

   -38.5887 -38.5733 -38.5646 -38.5392 -38.5090 -38.4438 -38.3909 -38.3358
   -38.3285 -38.3141 -38.2790 -38.2620 -38.2265 -38.2059 -38.1410 -38.0791
   -38.0788 -37.9018 -37.9016 -37.7282 -37.7280   3.1848   3.3210   3.4261
     3.5699   3.7171   3.7851   3.9574   4.1636   4.2521   4.3129   4.5658
     4.7164   4.7643   4.8623   5.2206   5.2684   5.5810   5.7866   6.0153
     6.0934   6.2513   6.3269   6.5429   6.8190   7.0373   7.2615   7.4224
     7.5494   7.6458   7.9990   8.5150   8.8805   8.9105   9.0063   9.1982
    11.3095  11.4693  11.8222  12.4681  13.4692  14.7222  16.0572  17.2202

          k = 0.2778-0.2887 0.0000 (  4463 PWs)   bands (ev):

   -38.5691 -38.5601 -38.5392 -38.5165 -38.4696 -38.4442 -38.3663 -38.2809
   -38.2623 -38.2505 -38.2187 -38.1958 -38.1899 -38.1452 -38.1145 -38.0485
   -38.0478 -37.8120 -37.8117 -37.7355 -37.7354   2.9496   3.0644   3.2202
     3.2778   3.3803   3.5202   3.6487   3.8794   4.0684   4.2033   4.5515
     4.8036   5.1381   5.2081   5.3917   5.5364   5.6477   5.7870   5.9767
     6.1788   6.3477   6.5751   6.6948   6.8359   7.1262   7.3170   7.4576
     7.5791   7.8178   8.1225   8.3510   8.4445   8.6427   8.6582   8.9056
     9.1286   9.3105   9.4004  10.0364  11.2920  12.7662  14.2727  15.5506

          k = 0.2778-0.1604 0.0000 (  4458 PWs)   bands (ev):

   -38.5640 -38.5296 -38.4929 -38.4560 -38.4105 -38.3804 -38.3359 -38.2615
   -38.2128 -38.2041 -38.1944 -38.1634 -38.1298 -38.1107 -38.0880 -37.9788
   -37.9785 -37.7632 -37.7631 -37.7427 -37.7423   2.5649   2.8482   3.0352
     3.1554   3.4342   3.5195   3.8026   3.8703   4.1165   4.2913   4.7089
     4.9356   5.1526   5.3318   5.5366   5.6681   5.7839   5.8303   6.0887
     6.1528   6.4268   6.5422   6.5621   6.7156   6.8712   7.0999   7.2506
     7.3349   7.3919   7.4713   7.6643   7.8371   7.8533   7.9559   8.0924
     8.3171   8.7024   8.8919   8.9532  10.2306  11.6932  13.1182  14.2524

          k = 0.3889 0.6736 0.0000 (  4511 PWs)   bands (ev):

   -38.6145 -38.5891 -38.5700 -38.5505 -38.5334 -38.4200 -38.4124 -38.3852
   -38.3704 -38.3353 -38.2914 -38.2844 -38.2367 -38.2033 -38.1659 -38.0956
   -38.0954 -37.9381 -37.9376 -37.7256 -37.7253   3.0251   3.3677   3.4009
     3.5976   3.6568   3.8114   3.8221   4.1051   4.2025   4.2589   4.5121
     4.5149   4.7041   4.9520   5.3170   5.5157   5.7299   5.8968   5.9287
     6.2619   6.3400   6.7184   6.7361   6.8147   7.1465   7.4766   7.6936
     7.8282   8.2529   8.3648   8.4292   8.6139   8.6870   8.9028   8.9092
    13.2270  13.5326  13.8408  14.1444  14.5013  14.8909  15.2302  16.6208

          k = 0.3889-0.3528 0.0000 (  4485 PWs)   bands (ev):

   -38.6555 -38.6304 -38.6175 -38.5849 -38.5670 -38.3920 -38.3667 -38.3081
   -38.3018 -38.2843 -38.2586 -38.2233 -38.2206 -38.1656 -38.1488 -38.1220
   -38.1196 -37.8448 -37.8447 -37.7296 -37.7292   2.6378   2.8270   2.9397
     2.9903   3.1735   3.2790   3.3582   3.6832   3.8088   3.9082   4.4244
     4.7444   5.0056   5.3823   5.4866   5.6876   5.8317   5.9386   6.4337
     6.5919   6.6395   7.1918   7.2990   7.6504   7.7834   7.8928   8.2413
     8.3712   8.3821   8.4565   8.6023   8.7942   8.8868   9.0304   9.2058
    10.7649  11.2599  11.6458  11.9939  12.7329  13.7067  14.5372  16.4167

          k = 0.3889-0.2245 0.0000 (  4444 PWs)   bands (ev):

   -38.6312 -38.6112 -38.5987 -38.5698 -38.5342 -38.4178 -38.3680 -38.2863
   -38.2549 -38.2441 -38.2356 -38.2004 -38.1627 -38.1482 -38.1183 -38.1038
   -38.0991 -37.7987 -37.7985 -37.7335 -37.7331   2.5873   2.6416   2.8262
     2.9216   2.9912   3.1739   3.2549   3.5720   3.6568   3.8724   4.5206
     4.9460   5.3025   5.3810   5.5381   5.8648   5.8901   5.9478   6.4691
     6.6726   6.8125   7.1460   7.5387   7.8027   8.0596   8.1954   8.2711
     8.4201   8.4994   8.5387   8.5706   8.6807   8.7261   8.8654   8.9643
     9.0734   9.1843   9.4255   9.9550  11.3639  12.9390  14.5175  16.0524

          k =-0.5000-0.8660 0.0000 (  4492 PWs)   bands (ev):

   -38.6877 -38.6630 -38.6498 -38.6119 -38.5987 -38.3774 -38.3733 -38.2855
   -38.2725 -38.2675 -38.2601 -38.2148 -38.1758 -38.1755 -38.1466 -38.1326
   -38.1304 -37.8130 -37.8127 -37.7304 -37.7303   2.3613   2.5491   2.6590
     2.7130   2.8930   3.0207   3.0622   3.4150   3.4724   3.7174   4.4130
     4.8897   5.1230   5.2661   5.4310   5.7995   6.1802   6.2238   6.4120
     7.0915   7.1445   7.2108   7.8953   8.1473   8.3527   8.4807   8.7786
     8.8935   8.9192   8.9876   8.9927   9.0617   9.1860   9.3808   9.3855
     9.7303  10.8382  11.7305  11.9245  12.3135  12.4701  12.6032  16.1039

     the Fermi energy is     8.3370 ev

!    total energy              =   -1198.23198834 Ry
     estimated scf accuracy    <       0.00000088 Ry
     smearing contrib. (-TS)   =      -0.03055491 Ry
     internal energy E=F+TS    =   -1198.20143344 Ry

     The total energy is F=E-TS. E is the sum of the following terms:
     one-electron contribution =  -13436.72790498 Ry
     hartree contribution      =    6764.19280802 Ry
     xc contribution           =    -209.34954925 Ry
     ewald contribution        =    5683.68321277 Ry

     total magnetization       =    -0.01 Bohr mag/cell
     absolute magnetization    =     0.01 Bohr mag/cell

     convergence has been achieved in   8 iterations

     negative rho (up, down):  2.021E-01 2.021E-01

     Forces acting on atoms (cartesian axes, Ry/au):

     atom    1 type  1   force =     0.00000000    0.00000000    0.00956936
     atom    2 type  1   force =     0.00000000    0.00000000   -0.00466465
     atom    3 type  1   force =     0.00000000    0.00000000   -0.00549956
     atom    4 type  1   force =     0.00000000    0.00000000    0.00000524
     atom    5 type  1   force =     0.00000000    0.00000000    0.00548964
     atom    6 type  1   force =     0.00000000    0.00000000    0.00464174
     atom    7 type  1   force =     0.00000000    0.00000000   -0.00954176

     Total force =     0.016921     Total SCF correction =     0.008542
     SCF correction compared to forces is large: reduce conv_thr to get better values
     Energy error            =      4.4E-04
     Gradient error          =      9.6E-03

     number of scf cycles    =   2
     number of bfgs steps    =   1

     energy   old            =   -1198.2315509873 Ry
     energy   new            =   -1198.2319883435 Ry

     CASE: energy  _new < energy  _old

     new trust radius        =       0.0134185396 bohr
     new conv_thr            =       0.0000004374 Ry


ATOMIC_POSITIONS (angstrom)
Rh            0.0000000000        0.0000000000        0.0135556434
Rh            2.7108568000        1.5651139000        2.2060289762
Rh            1.3554284000        0.7825569000        4.4191747312
Rh            0.0000000000        0.0000000000        6.6402171596
Rh            2.7108568000        1.5651139000        8.8612488088
Rh            1.3554284000        0.7825569000       11.0743901294
Rh            0.0000000000        0.0000000000       13.2668956514



     Writing output data file /home/STUDENTI/leonardo.razzai/WORK/relax_surf/7-L.save/
     NEW-OLD atomic charge density approx. for the potential

     negative rho (up, down):  2.017E-01 2.016E-01
     Generating pointlists ...

     total cpu time spent up to now is      404.8 secs

     Self-consistent Calculation

     iteration #  1     ecut=    35.00 Ry     beta= 0.40
     Davidson diagonalization with overlap
     ethr =  1.00E-06,  avg # of iterations =  6.0

     negative rho (up, down):  2.017E-01 2.017E-01

     total cpu time spent up to now is      435.6 secs

     total energy              =   -1198.23127636 Ry
     estimated scf accuracy    <       0.05302993 Ry

     total magnetization       =    -0.01 Bohr mag/cell
     absolute magnetization    =     0.01 Bohr mag/cell

     iteration #  2     ecut=    35.00 Ry     beta= 0.40
     Davidson diagonalization with overlap
     ethr =  5.05E-05,  avg # of iterations =  1.0

     negative rho (up, down):  2.017E-01 2.017E-01

     total cpu time spent up to now is      449.3 secs

     total energy              =   -1198.23200650 Ry
     estimated scf accuracy    <       0.03131843 Ry

     total magnetization       =    -0.01 Bohr mag/cell
     absolute magnetization    =     0.01 Bohr mag/cell

     iteration #  3     ecut=    35.00 Ry     beta= 0.40
     Davidson diagonalization with overlap
     ethr =  2.98E-05,  avg # of iterations =  1.0

     negative rho (up, down):  2.017E-01 2.017E-01

     total cpu time spent up to now is      463.1 secs

     total energy              =   -1198.23233253 Ry
     estimated scf accuracy    <       0.00119613 Ry

     total magnetization       =    -0.01 Bohr mag/cell
     absolute magnetization    =     0.01 Bohr mag/cell

     iteration #  4     ecut=    35.00 Ry     beta= 0.40
     Davidson diagonalization with overlap
     ethr =  1.14E-06,  avg # of iterations =  1.0

     negative rho (up, down):  2.017E-01 2.017E-01

     total cpu time spent up to now is      476.7 secs

     total energy              =   -1198.23231439 Ry
     estimated scf accuracy    <       0.00060706 Ry

     total magnetization       =    -0.01 Bohr mag/cell
     absolute magnetization    =     0.01 Bohr mag/cell

     iteration #  5     ecut=    35.00 Ry     beta= 0.40
     Davidson diagonalization with overlap
     ethr =  5.78E-07,  avg # of iterations =  1.0

     negative rho (up, down):  2.017E-01 2.017E-01

     total cpu time spent up to now is      490.5 secs

     total energy              =   -1198.23232281 Ry
     estimated scf accuracy    <       0.00003366 Ry

     total magnetization       =    -0.00 Bohr mag/cell
     absolute magnetization    =     0.01 Bohr mag/cell

     iteration #  6     ecut=    35.00 Ry     beta= 0.40
     Davidson diagonalization with overlap
     ethr =  3.21E-08,  avg # of iterations =  1.0

     negative rho (up, down):  2.017E-01 2.017E-01

     total cpu time spent up to now is      504.3 secs

     total energy              =   -1198.23232354 Ry
     estimated scf accuracy    <       0.00000056 Ry

     total magnetization       =    -0.00 Bohr mag/cell
     absolute magnetization    =     0.00 Bohr mag/cell

     iteration #  7     ecut=    35.00 Ry     beta= 0.40
     Davidson diagonalization with overlap
     ethr =  5.37E-10,  avg # of iterations =  3.5

     negative rho (up, down):  2.017E-01 2.017E-01

     total cpu time spent up to now is      522.3 secs

     total energy              =   -1198.23232360 Ry
     estimated scf accuracy    <       0.00000067 Ry

     total magnetization       =    -0.00 Bohr mag/cell
     absolute magnetization    =     0.00 Bohr mag/cell

     iteration #  8     ecut=    35.00 Ry     beta= 0.40
     Davidson diagonalization with overlap
     ethr =  5.37E-10,  avg # of iterations =  1.0

     negative rho (up, down):  2.017E-01 2.017E-01

     total cpu time spent up to now is      536.1 secs

     total energy              =   -1198.23232362 Ry
     estimated scf accuracy    <       0.00000072 Ry

     total magnetization       =    -0.00 Bohr mag/cell
     absolute magnetization    =     0.00 Bohr mag/cell

     iteration #  9     ecut=    35.00 Ry     beta= 0.40
     Davidson diagonalization with overlap
     ethr =  5.37E-10,  avg # of iterations =  1.0

     negative rho (up, down):  2.017E-01 2.017E-01
 
     Magnetic moment per site:
     atom:    1    charge:   13.1820    magn:   -0.0007    constr:    0.0000
     atom:    2    charge:   13.2427    magn:   -0.0004    constr:    0.0000
     atom:    3    charge:   13.2451    magn:    0.0001    constr:    0.0000
     atom:    4    charge:   13.2456    magn:    0.0002    constr:    0.0000
     atom:    5    charge:   13.2447    magn:    0.0001    constr:    0.0000
     atom:    6    charge:   13.2429    magn:   -0.0004    constr:    0.0000
     atom:    7    charge:   13.1821    magn:   -0.0007    constr:    0.0000

     total cpu time spent up to now is      549.6 secs

     End of self-consistent calculation

 ------ SPIN UP ------------


          k = 0.0556 0.0962 0.0000 (  4451 PWs)   bands (ev):

   -38.6438 -38.5737 -38.4159 -38.2645 -38.1700 -38.1632 -38.1408 -38.1384
   -38.1211 -38.1166 -38.0909 -38.0789 -38.0662 -38.0572 -38.0328 -37.7666
   -37.7657 -37.7382 -37.7381 -37.7064 -37.7063   1.0351   1.5205   2.2173
     2.7221   2.7256   3.0619   3.1035   4.9110   4.9189   5.1252   5.1793
     5.2875   5.3572   5.5597   5.5808   5.6038   5.6481   5.6697   5.7044
     5.7993   5.8396   5.8919   5.9645   6.0846   6.2151   6.2198   6.7548
     7.0505   7.0826   7.2862   7.3371   7.5128   7.5597   7.6697   7.7571
     8.0709   8.0993   8.5832   8.6182   8.8001   9.3671  10.2755  10.8257

          k = 0.0556 0.2245 0.0000 (  4420 PWs)   bands (ev):

   -38.5928 -38.5437 -38.4299 -38.3470 -38.2998 -38.2637 -38.2385 -38.2154
   -38.1739 -38.1718 -38.1510 -38.1260 -38.1021 -38.0816 -38.0596 -37.8646
   -37.8645 -37.7545 -37.7541 -37.7396 -37.7391   1.9485   2.3510   2.9374
     3.2836   3.4224   3.7106   3.7986   4.2222   4.5035   4.6037   4.6541
     4.8547   4.8765   5.3543   5.4719   5.6203   5.7112   5.7925   5.8554
     5.9128   6.0642   6.1811   6.2979   6.4464   6.5268   6.6444   6.7201
     6.7688   6.9276   7.0518   7.1665   7.3362   7.6211   7.7102   7.9653
     8.0925   8.5042   8.6506   8.8051   9.5310  10.7287  11.9418  12.8430

          k = 0.0556 0.3528 0.0000 (  4467 PWs)   bands (ev):

   -38.5570 -38.5343 -38.5168 -38.4932 -38.4395 -38.4169 -38.3541 -38.2696
   -38.2295 -38.2218 -38.1984 -38.1737 -38.1465 -38.1111 -38.0940 -38.0189
   -38.0184 -37.7833 -37.7833 -37.7444 -37.7443   2.7416   3.0154   3.0299
     3.1492   3.3731   3.4332   3.6753   3.8264   4.0887   4.1573   4.6469
     4.9476   5.1457   5.3587   5.5529   5.6546   5.6810   5.7873   6.0541
     6.1796   6.4474   6.6089   6.7515   6.8166   7.0524   7.3056   7.4550
     7.5244   7.7256   7.8359   7.9816   8.1016   8.2818   8.3512   8.4804
     8.4913   8.6495   8.8964   9.2972  10.6402  12.1415  13.6257  14.8368

          k = 0.0556 0.4811 0.0000 (  4463 PWs)   bands (ev):

   -38.6473 -38.6280 -38.6110 -38.5809 -38.5512 -38.4045 -38.3725 -38.2867
   -38.2698 -38.2590 -38.2386 -38.2055 -38.1807 -38.1436 -38.1291 -38.1177
   -38.1114 -37.8164 -37.8163 -37.7371 -37.7368   2.5607   2.6778   2.8144
     2.8882   3.0193   3.1840   3.1993   3.5650   3.6451   3.8269   4.4605
     4.8759   5.1997   5.3720   5.5119   5.7674   5.9476   5.9827   6.5011
     6.6827   6.8274   7.2341   7.5170   7.8550   8.0504   8.0884   8.3737
     8.4717   8.5812   8.6164   8.7055   8.7294   8.8820   8.9856   9.1357
     9.5823  10.1173  10.4373  10.7684  11.8530  13.2467  14.6112  16.3558

          k = 0.0556-0.5453 0.0000 (  4486 PWs)   bands (ev):

   -38.6755 -38.6552 -38.6354 -38.6012 -38.5825 -38.3850 -38.3762 -38.2855
   -38.2798 -38.2651 -38.2550 -38.2127 -38.1903 -38.1563 -38.1452 -38.1288
   -38.1261 -37.8241 -37.8238 -37.7357 -37.7354   2.4436   2.6272   2.7289
     2.7839   2.9621   3.1050   3.1100   3.4839   3.5532   3.7520   4.4175
     4.8473   5.1050   5.3224   5.4495   5.7988   5.9832   6.1335   6.5076
     6.8188   7.0644   7.2898   7.7163   8.0721   8.1918   8.4381   8.4882
     8.6910   8.7929   8.8615   8.8911   8.9561   9.0364   9.1473   9.2573
    10.2097  11.0031  11.7240  11.8899  12.1848  12.8902  13.4703  16.1871

          k = 0.0556-0.4170 0.0000 (  4465 PWs)   bands (ev):

   -38.5963 -38.5842 -38.5677 -38.5434 -38.4954 -38.4314 -38.3697 -38.2804
   -38.2527 -38.2438 -38.2192 -38.1922 -38.1655 -38.1272 -38.1121 -38.0795
   -38.0768 -37.8025 -37.8025 -37.7402 -37.7398   2.7474   2.7735   2.9701
     3.0612   3.1104   3.3046   3.3904   3.6889   3.8319   3.9651   4.5511
     4.9167   5.3275   5.4565   5.5880   5.6468   5.7098   5.9904   6.2716
     6.3870   6.6163   6.9980   7.1889   7.3879   7.5758   7.6945   7.9946
     8.0833   8.1251   8.2589   8.3586   8.5121   8.6181   8.7132   8.8892
     9.0057   9.2011   9.2715   9.9015  11.2599  12.8163  14.3839  15.7576

          k = 0.0556-0.2887 0.0000 (  4439 PWs)   bands (ev):

   -38.5633 -38.5310 -38.4640 -38.4203 -38.3792 -38.3378 -38.3078 -38.2499
   -38.2022 -38.1963 -38.1768 -38.1505 -38.1245 -38.0950 -38.0760 -37.9439
   -37.9434 -37.7612 -37.7612 -37.7491 -37.7488   2.4649   2.7626   3.1300
     3.2955   3.5360   3.7167   3.9134   4.0517   4.2329   4.3951   4.6386
     4.7053   4.9991   5.1313   5.4917   5.6690   5.7570   5.8134   5.9096
     6.0485   6.1148   6.2705   6.3863   6.7012   6.7307   6.8321   6.9945
     7.1504   7.2271   7.3403   7.5900   7.6941   7.8297   7.9606   8.0706
     8.2538   8.5564   8.8405   8.9113  10.0655  11.4359  12.7938  13.8608

          k = 0.0556-0.1604 0.0000 (  4443 PWs)   bands (ev):

   -38.6222 -38.5601 -38.4183 -38.2928 -38.2260 -38.2052 -38.1785 -38.1689
   -38.1508 -38.1431 -38.1175 -38.1041 -38.0796 -38.0721 -38.0450 -37.7949
   -37.7948 -37.7590 -37.7587 -37.7204 -37.7204   1.4288   1.8903   2.5623
     3.0194   3.0577   3.3822   3.4246   4.5897   4.7182   4.8727   4.9522
     5.0765   5.1084   5.4313   5.5581   5.6694   5.7493   5.7816   5.8715
     5.9004   5.9452   6.0035   6.0259   6.2053   6.2624   6.4506   6.5153
     6.8853   6.9728   7.0533   7.1182   7.3102   7.4990   7.6381   7.8619
     8.0143   8.3657   8.5506   8.7850   9.0427  10.0282  11.0873  11.8066

          k = 0.0556-0.0321 0.0000 (  4465 PWs)   bands (ev):

   -38.6554 -38.5814 -38.4166 -38.2552 -38.1406 -38.1380 -38.1301 -38.1273
   -38.0986 -38.0914 -38.0861 -38.0633 -38.0628 -38.0375 -38.0258 -37.7687
   -37.7675 -37.7102 -37.7101 -37.6991 -37.6988   0.8264   1.3199   2.0230
     2.5362   2.5550   2.8788   2.9201   5.0737   5.1000   5.2729   5.3439
     5.3962   5.4084   5.4284   5.4976   5.5410   5.6013   5.6568   5.6724
     5.6967   5.7307   5.9301   5.9887   6.0614   6.0730   6.2897   7.1561
     7.1848   7.2475   7.3690   7.3800   7.5204   7.5601   7.8158   7.9248
     8.1357   8.2512   8.2668   8.6506   8.8323   8.8449   9.6452  10.0782

          k = 0.1667 0.2887 0.0000 (  4425 PWs)   bands (ev):

   -38.5408 -38.5291 -38.4804 -38.4475 -38.4171 -38.3776 -38.3386 -38.2696
   -38.2257 -38.2256 -38.1794 -38.1791 -38.1528 -38.1347 -38.0864 -37.9755
   -37.9755 -37.7942 -37.7942 -37.7453 -37.7448   2.9333   3.0961   3.3774
     3.7154   3.8922   3.8944   4.0283   4.0553   4.1066   4.2872   4.4041
     4.5371   4.9915   5.0270   5.1130   5.3157   5.4896   5.5119   5.5458
     5.6425   6.1937   6.2376   6.4499   6.5737   6.6603   7.1133   7.1532
     7.3202   7.5593   7.7298   7.9519   8.1841   8.3066   8.4378   8.4380
     8.5613   8.6262   8.7114   9.3958  10.6171  11.9963  13.3961  14.5450

          k = 0.1667 0.4170 0.0000 (  4459 PWs)   bands (ev):

   -38.5809 -38.5642 -38.5572 -38.5277 -38.4935 -38.4393 -38.3744 -38.2999
   -38.2986 -38.2822 -38.2344 -38.2286 -38.2031 -38.1770 -38.1180 -38.0710
   -38.0702 -37.8566 -37.8565 -37.7370 -37.7369   3.1117   3.1763   3.3303
     3.4871   3.5343   3.6087   3.8235   3.9041   4.1215   4.3040   4.5632
     4.6866   4.9389   5.0972   5.1973   5.4463   5.5307   5.8900   5.9580
     6.1249   6.2122   6.4479   6.5750   6.8393   7.1303   7.2753   7.4022
     7.6337   7.7615   7.9978   8.4777   8.7726   8.8641   8.9370   9.1068
    10.1747  10.3251  10.5436  11.1580  12.2645  13.6429  15.0968  16.3896

          k = 0.1667 0.5453 0.0000 (  4490 PWs)   bands (ev):

   -38.6384 -38.6187 -38.5962 -38.5683 -38.5493 -38.3943 -38.3749 -38.3494
   -38.3323 -38.3089 -38.2694 -38.2445 -38.2329 -38.1836 -38.1461 -38.1161
   -38.1157 -37.8905 -37.8904 -37.7326 -37.7326   2.8076   3.0933   3.1379
     3.2355   3.4057   3.4900   3.6165   3.8535   4.0536   4.1059   4.4460
     4.5633   4.7813   5.1835   5.4870   5.6563   5.7210   5.9383   6.2125
     6.3178   6.5406   6.8280   7.1968   7.2505   7.3467   7.7205   8.0077
     8.1534   8.2840   8.3963   8.5729   8.7058   8.7902   8.9871   9.1138
    12.0350  12.4626  12.8783  13.2765  13.7779  14.2462  14.5021  16.4924

          k = 0.1667-0.4811 0.0000 (  4476 PWs)   bands (ev):

   -38.6177 -38.5984 -38.5831 -38.5535 -38.5304 -38.4141 -38.3745 -38.3296
   -38.3199 -38.2984 -38.2562 -38.2446 -38.2195 -38.1830 -38.1346 -38.1010
   -38.1001 -37.8787 -37.8785 -37.7342 -37.7340   2.9153   3.1242   3.1980
     3.3450   3.4441   3.5335   3.6876   3.8917   4.0599   4.1914   4.4605
     4.6660   4.8919   5.0624   5.4555   5.5481   5.7530   5.9540   6.0477
     6.1731   6.5297   6.6761   6.9392   7.0699   7.1960   7.6130   7.8077
     7.8209   7.9751   8.1225   8.5329   8.8273   8.8783   9.0378   9.2035
    11.1421  11.4109  11.7235  12.2921  13.2232  14.3905  15.5421  16.7303

          k = 0.1667-0.3528 0.0000 (  4458 PWs)   bands (ev):

   -38.5451 -38.5343 -38.5188 -38.4937 -38.4529 -38.4413 -38.3662 -38.2825
   -38.2625 -38.2581 -38.2108 -38.1913 -38.1892 -38.1616 -38.1013 -38.0281
   -38.0279 -37.8270 -37.8269 -37.7412 -37.7410   3.2004   3.2946   3.4163
     3.5468   3.6670   3.7672   3.8690   4.0203   4.2617   4.3038   4.4989
     4.6704   4.8599   4.9716   5.2360   5.3549   5.3873   5.5985   5.7980
     5.8735   6.1132   6.1635   6.4600   6.7150   6.8824   7.0548   7.3233
     7.4871   7.6933   7.8665   8.3329   8.5282   8.6397   8.6721   8.8808
     9.2805   9.3491   9.4863  10.1335  11.3524  12.7741  14.2311  15.4667

          k = 0.1667-0.2245 0.0000 (  4433 PWs)   bands (ev):

   -38.5674 -38.5332 -38.4498 -38.3954 -38.3574 -38.3133 -38.2937 -38.2484
   -38.1962 -38.1948 -38.1684 -38.1483 -38.1253 -38.1013 -38.0746 -37.9190
   -37.9188 -37.7639 -37.7639 -37.7500 -37.7496   2.4172   2.7397   3.2191
     3.5718   3.7091   3.8671   3.9878   4.1586   4.2825   4.3428   4.5083
     4.6703   4.7977   5.1045   5.2844   5.4438   5.5139   5.6261   5.7661
     5.8250   6.0604   6.2228   6.5404   6.5708   6.6079   6.8213   6.9347
     7.1712   7.1894   7.2727   7.5930   7.6935   7.8828   8.0285   8.0417
     8.1463   8.4519   8.6744   8.9445  10.0311  11.3173  12.6261  13.6580

          k = 0.1667-0.0962 0.0000 (  4427 PWs)   bands (ev):

   -38.6126 -38.5542 -38.4210 -38.3111 -38.2543 -38.2261 -38.1969 -38.1808
   -38.1618 -38.1576 -38.1253 -38.1146 -38.0868 -38.0766 -38.0462 -37.8206
   -37.8205 -37.7577 -37.7572 -37.7252 -37.7250   1.6070   2.0504   2.6946
     3.0945   3.1922   3.5005   3.5635   4.4042   4.6910   4.7674   4.8420
     5.0021   5.0209   5.5055   5.5455   5.6911   5.7868   5.7906   5.9011
     6.0067   6.0358   6.0871   6.1284   6.1375   6.3264   6.4629   6.6171
     6.7079   6.9183   6.9615   7.1380   7.2912   7.5114   7.5935   7.8681
     8.1703   8.2878   8.6815   8.8952   9.1242  10.2670  11.3983  12.1861

          k = 0.2778 0.4811 0.0000 (  4485 PWs)   bands (ev):

   -38.5772 -38.5738 -38.5496 -38.5391 -38.4896 -38.4609 -38.4240 -38.3795
   -38.3542 -38.3435 -38.2988 -38.2836 -38.2193 -38.2071 -38.1501 -38.0791
   -38.0791 -37.9499 -37.9498 -37.7314 -37.7314   3.3376   3.3511   3.5212
     3.6172   3.8582   3.9862   4.1147   4.1532   4.2806   4.3623   4.4206
     4.4956   4.8282   4.9660   5.1533   5.3378   5.5964   5.6931   6.0288
     6.0368   6.2568   6.2582   6.7392   6.8438   6.9955   7.2467   7.3978
     7.4679   7.8069   8.1523   8.5198   8.7890   8.8288   8.8885   9.0975
    12.4892  12.7249  13.1812  13.8610  14.7861  15.8805  16.8157  16.9305

          k = 0.2778 0.6094 0.0000 (  4491 PWs)   bands (ev):

   -38.5735 -38.5582 -38.5354 -38.5295 -38.5003 -38.4605 -38.4478 -38.4122
   -38.3911 -38.3642 -38.3006 -38.2943 -38.2170 -38.2055 -38.1649 -38.0710
   -38.0709 -37.9822 -37.9820 -37.7301 -37.7298   3.3066   3.5561   3.5902
     3.7449   3.8560   4.0093   4.0400   4.1352   4.2210   4.3418   4.4144
     4.5788   4.7345   5.0932   5.2105   5.4189   5.5383   5.6857   5.9466
     5.9987   6.3000   6.3197   6.7096   6.9010   7.0878   7.2432   7.4324
     7.4996   8.1039   8.3114   8.4575   8.6148   8.6804   8.7320   8.8748
    13.7014  14.0025  14.4573  14.9008  15.2896  15.7479  16.2821  16.5060

          k = 0.2778-0.4170 0.0000 (  4462 PWs)   bands (ev):

   -38.5856 -38.5721 -38.5606 -38.5343 -38.5036 -38.4409 -38.3910 -38.3380
   -38.3311 -38.3107 -38.2727 -38.2568 -38.2190 -38.1997 -38.1324 -38.0806
   -38.0802 -37.9042 -37.9041 -37.7336 -37.7335   3.1924   3.3279   3.4247
     3.5665   3.7060   3.7859   3.9497   4.1568   4.2499   4.3082   4.5574
     4.7118   4.7614   4.8614   5.2157   5.2703   5.5854   5.7844   6.0156
     6.0927   6.2472   6.3238   6.5425   6.8228   7.0413   7.2667   7.4284
     7.5561   7.6559   8.0078   8.5232   8.8866   8.9159   9.0129   9.2033
    11.3152  11.4711  11.8236  12.4718  13.4765  14.7313  16.0633  17.2273

          k = 0.2778-0.2887 0.0000 (  4463 PWs)   bands (ev):

   -38.5649 -38.5548 -38.5378 -38.5162 -38.4636 -38.4426 -38.3666 -38.2792
   -38.2613 -38.2509 -38.2113 -38.1921 -38.1838 -38.1370 -38.1068 -38.0501
   -38.0492 -37.8147 -37.8144 -37.7406 -37.7405   2.9567   3.0721   3.2218
     3.2713   3.3809   3.5121   3.6427   3.8708   4.0626   4.1991   4.5496
     4.7988   5.1434   5.1999   5.3993   5.5386   5.6448   5.7906   5.9790
     6.1688   6.3475   6.5719   6.6948   6.8315   7.1277   7.3223   7.4648
     7.5813   7.8236   8.1259   8.3584   8.4502   8.6467   8.6644   8.9109
     9.1332   9.3151   9.4006  10.0417  11.3017  12.7772  14.2809  15.5591

          k = 0.2778-0.1604 0.0000 (  4458 PWs)   bands (ev):

   -38.5582 -38.5276 -38.4903 -38.4573 -38.4107 -38.3749 -38.3324 -38.2589
   -38.2103 -38.2041 -38.1897 -38.1581 -38.1246 -38.1027 -38.0800 -37.9809
   -37.9806 -37.7659 -37.7658 -37.7474 -37.7471   2.5719   2.8455   3.0395
     3.1526   3.4270   3.5230   3.7952   3.8650   4.1141   4.2844   4.7028
     4.9378   5.1512   5.3324   5.5419   5.6723   5.7917   5.8342   6.0766
     6.1542   6.4245   6.5340   6.5587   6.7180   6.8682   7.0948   7.2573
     7.3361   7.4002   7.4756   7.6614   7.8361   7.8610   7.9581   8.0966
     8.3231   8.7155   8.8989   8.9599  10.2390  11.7032  13.1294  14.2609

          k = 0.3889 0.6736 0.0000 (  4511 PWs)   bands (ev):

   -38.6103 -38.5902 -38.5655 -38.5463 -38.5258 -38.4195 -38.4128 -38.3788
   -38.3710 -38.3358 -38.2909 -38.2801 -38.2288 -38.1965 -38.1565 -38.0971
   -38.0969 -37.9403 -37.9399 -37.7312 -37.7309   3.0327   3.3581   3.4087
     3.6051   3.6531   3.8051   3.8144   4.0949   4.1916   4.2522   4.5056
     4.5215   4.7000   4.9476   5.3160   5.5103   5.7275   5.9045   5.9292
     6.2635   6.3388   6.7191   6.7315   6.8135   7.1518   7.4831   7.7022
     7.8355   8.2605   8.3738   8.4376   8.6192   8.6946   8.9089   8.9144
    13.2319  13.5360  13.8433  14.1457  14.5046  14.8995  15.2349  16.6233

          k = 0.3889-0.3528 0.0000 (  4485 PWs)   bands (ev):

   -38.6514 -38.6316 -38.6122 -38.5810 -38.5596 -38.3938 -38.3715 -38.3072
   -38.3000 -38.2791 -38.2517 -38.2185 -38.2159 -38.1582 -38.1422 -38.1225
   -38.1187 -37.8474 -37.8473 -37.7351 -37.7348   2.6452   2.8338   2.9365
     2.9915   3.1655   3.2738   3.3543   3.6762   3.8021   3.8984   4.4210
     4.7419   5.0162   5.3782   5.4877   5.6920   5.8368   5.9285   6.4303
     6.5854   6.6457   7.1911   7.2981   7.6484   7.7827   7.9010   8.2491
     8.3773   8.3862   8.4630   8.6095   8.7999   8.8919   9.0346   9.2115
    10.7694  11.2607  11.6491  11.9980  12.7403  13.7161  14.5419  16.4195

          k = 0.3889-0.2245 0.0000 (  4444 PWs)   bands (ev):

   -38.6271 -38.6100 -38.5946 -38.5672 -38.5275 -38.4175 -38.3719 -38.2831
   -38.2518 -38.2440 -38.2299 -38.1955 -38.1577 -38.1410 -38.1104 -38.1050
   -38.0988 -37.8014 -37.8012 -37.7388 -37.7384   2.5942   2.6484   2.8202
     2.9240   2.9905   3.1697   3.2470   3.5616   3.6517   3.8644   4.5181
     4.9473   5.3083   5.3859   5.5457   5.8656   5.8769   5.9517   6.4582
     6.6711   6.8169   7.1404   7.5372   7.8038   8.0651   8.1960   8.2750
     8.4271   8.5014   8.5458   8.5730   8.6866   8.7335   8.8641   8.9665
     9.0791   9.1863   9.4306   9.9617  11.3741  12.9508  14.5235  16.0603

          k =-0.5000-0.8660 0.0000 (  4492 PWs)   bands (ev):

   -38.6837 -38.6642 -38.6446 -38.6077 -38.5912 -38.3820 -38.3797 -38.2757
   -38.2693 -38.2619 -38.2599 -38.2100 -38.1710 -38.1709 -38.1476 -38.1292
   -38.1226 -37.8156 -37.8154 -37.7360 -37.7360   2.3683   2.5557   2.6499
     2.7203   2.8874   3.0187   3.0557   3.4069   3.4641   3.7085   4.4091
     4.8910   5.1304   5.2716   5.4387   5.7860   6.1818   6.2288   6.4009
     7.0889   7.1394   7.2162   7.8989   8.1515   8.3555   8.4915   8.7836
     8.8994   8.9203   8.9922   8.9981   9.0658   9.1902   9.3792   9.3845
     9.7342  10.8379  11.7361  11.9295  12.3260  12.4736  12.6109  16.1013

 ------ SPIN DOWN ----------


          k = 0.0556 0.0962 0.0000 (  4451 PWs)   bands (ev):

   -38.6439 -38.5739 -38.4161 -38.2647 -38.1704 -38.1635 -38.1410 -38.1387
   -38.1210 -38.1167 -38.0909 -38.0789 -38.0661 -38.0572 -38.0327 -37.7675
   -37.7666 -37.7389 -37.7388 -37.7071 -37.7070   1.0351   1.5205   2.2172
     2.7221   2.7256   3.0617   3.1033   4.9109   4.9188   5.1250   5.1791
     5.2873   5.3570   5.5596   5.5807   5.6038   5.6477   5.6695   5.7041
     5.7992   5.8393   5.8917   5.9641   6.0843   6.2147   6.2193   6.7546
     7.0503   7.0826   7.2859   7.3367   7.5126   7.5593   7.6693   7.7567
     8.0705   8.0990   8.5826   8.6180   8.7999   9.3669  10.2752  10.8255

          k = 0.0556 0.2245 0.0000 (  4420 PWs)   bands (ev):

   -38.5928 -38.5439 -38.4301 -38.3472 -38.3002 -38.2638 -38.2386 -38.2154
   -38.1742 -38.1721 -38.1510 -38.1260 -38.1021 -38.0815 -38.0595 -37.8653
   -37.8652 -37.7554 -37.7551 -37.7403 -37.7398   1.9485   2.3510   2.9374
     3.2836   3.4223   3.7104   3.7985   4.2221   4.5034   4.6036   4.6539
     4.8545   4.8763   5.3541   5.4717   5.6199   5.7110   5.7923   5.8553
     5.9126   6.0640   6.1808   6.2978   6.4462   6.5265   6.6441   6.7200
     6.7684   6.9273   7.0515   7.1662   7.3359   7.6208   7.7099   7.9650
     8.0922   8.5037   8.6502   8.8048   9.5307  10.7285  11.9416  12.8428

          k = 0.0556 0.3528 0.0000 (  4467 PWs)   bands (ev):

   -38.5571 -38.5345 -38.5169 -38.4935 -38.4397 -38.4169 -38.3542 -38.2697
   -38.2297 -38.2221 -38.1984 -38.1738 -38.1465 -38.1111 -38.0939 -38.0196
   -38.0190 -37.7840 -37.7840 -37.7454 -37.7452   2.7415   3.0153   3.0298
     3.1491   3.3731   3.4331   3.6751   3.8262   4.0886   4.1570   4.6467
     4.9474   5.1455   5.3584   5.5527   5.6545   5.6808   5.7871   6.0538
     6.1793   6.4472   6.6086   6.7512   6.8164   7.0521   7.3053   7.4547
     7.5243   7.7253   7.8356   7.9813   8.1013   8.2815   8.3509   8.4800
     8.4911   8.6491   8.8961   9.2969  10.6400  12.1413  13.6255  14.8367

          k = 0.0556 0.4811 0.0000 (  4463 PWs)   bands (ev):

   -38.6474 -38.6283 -38.6111 -38.5810 -38.5512 -38.4048 -38.3729 -38.2868
   -38.2700 -38.2593 -38.2386 -38.2056 -38.1808 -38.1437 -38.1293 -38.1181
   -38.1117 -37.8171 -37.8170 -37.7381 -37.7377   2.5607   2.6778   2.8143
     2.8881   3.0192   3.1839   3.1992   3.5647   3.6448   3.8266   4.4603
     4.8757   5.1995   5.3718   5.5117   5.7671   5.9473   5.9825   6.5008
     6.6824   6.8272   7.2338   7.5167   7.8547   8.0502   8.0880   8.3732
     8.4713   8.5809   8.6163   8.7054   8.7292   8.8817   8.9851   9.1354
     9.5821  10.1172  10.4372  10.7682  11.8528  13.2465  14.6111  16.3555

          k = 0.0556-0.5453 0.0000 (  4486 PWs)   bands (ev):

   -38.6757 -38.6555 -38.6355 -38.6012 -38.5824 -38.3853 -38.3766 -38.2856
   -38.2800 -38.2652 -38.2550 -38.2128 -38.1903 -38.1566 -38.1457 -38.1289
   -38.1262 -37.8248 -37.8245 -37.7366 -37.7363   2.4436   2.6271   2.7288
     2.7839   2.9619   3.1049   3.1099   3.4837   3.5529   3.7517   4.4173
     4.8471   5.1047   5.3222   5.4494   5.7985   5.9830   6.1334   6.5073
     6.8185   7.0641   7.2895   7.7159   8.0718   8.1915   8.4376   8.4879
     8.6908   8.7927   8.8613   8.8909   8.9560   9.0362   9.1469   9.2570
    10.2096  11.0030  11.7239  11.8899  12.1846  12.8901  13.4702  16.1881

          k = 0.0556-0.4170 0.0000 (  4465 PWs)   bands (ev):

   -38.5965 -38.5844 -38.5678 -38.5435 -38.4954 -38.4316 -38.3700 -38.2805
   -38.2529 -38.2441 -38.2192 -38.1922 -38.1655 -38.1271 -38.1120 -38.0801
   -38.0773 -37.8032 -37.8031 -37.7412 -37.7408   2.7474   2.7734   2.9700
     3.0611   3.1103   3.3045   3.3902   3.6886   3.8317   3.9649   4.5510
     4.9165   5.3272   5.4565   5.5879   5.6466   5.7096   5.9901   6.2714
     6.3867   6.6161   6.9977   7.1886   7.3876   7.5755   7.6942   7.9942
     8.0830   8.1250   8.2585   8.3585   8.5118   8.6179   8.7128   8.8889
     9.0055   9.2009   9.2713   9.9013  11.2597  12.8161  14.3837  15.7574

          k = 0.0556-0.2887 0.0000 (  4439 PWs)   bands (ev):

   -38.5634 -38.5312 -38.4642 -38.4206 -38.3795 -38.3378 -38.3078 -38.2500
   -38.2024 -38.1966 -38.1768 -38.1505 -38.1245 -38.0949 -38.0759 -37.9446
   -37.9440 -37.7619 -37.7619 -37.7500 -37.7497   2.4649   2.7626   3.1299
     3.2954   3.5359   3.7166   3.9132   4.0515   4.2327   4.3950   4.6384
     4.7051   4.9990   5.1311   5.4915   5.6688   5.7568   5.8133   5.9094
     6.0482   6.1145   6.2702   6.3859   6.7009   6.7306   6.8319   6.9943
     7.1501   7.2270   7.3401   7.5897   7.6938   7.8293   7.9603   8.0703
     8.2535   8.5559   8.8403   8.9110  10.0653  11.4357  12.7936  13.8606

          k = 0.0556-0.1604 0.0000 (  4443 PWs)   bands (ev):

   -38.6222 -38.5603 -38.4185 -38.2930 -38.2263 -38.2054 -38.1786 -38.1689
   -38.1510 -38.1434 -38.1175 -38.1041 -38.0795 -38.0721 -38.0449 -37.7956
   -37.7955 -37.7599 -37.7596 -37.7211 -37.7211   1.4288   1.8902   2.5623
     3.0194   3.0577   3.3819   3.4244   4.5896   4.7181   4.8726   4.9520
     5.0763   5.1082   5.4311   5.5578   5.6693   5.7492   5.7813   5.8714
     5.9002   5.9450   6.0032   6.0257   6.2052   6.2623   6.4502   6.5150
     6.8851   6.9726   7.0529   7.1178   7.3099   7.4987   7.6378   7.8616
     8.0139   8.3654   8.5500   8.7848   9.0425  10.0279  11.0870  11.8064

          k = 0.0556-0.0321 0.0000 (  4465 PWs)   bands (ev):

   -38.6555 -38.5817 -38.4168 -38.2554 -38.1409 -38.1384 -38.1304 -38.1276
   -38.0986 -38.0914 -38.0861 -38.0633 -38.0628 -38.0374 -38.0257 -37.7696
   -37.7684 -37.7109 -37.7108 -37.6998 -37.6995   0.8264   1.3199   2.0230
     2.5362   2.5550   2.8785   2.9199   5.0737   5.1000   5.2728   5.3437
     5.3960   5.4082   5.4283   5.4975   5.5407   5.6012   5.6567   5.6723
     5.6964   5.7306   5.9297   5.9883   6.0610   6.0726   6.2894   7.1559
     7.1847   7.2473   7.3688   7.3798   7.5201   7.5598   7.8155   7.9244
     8.1353   8.2509   8.2665   8.6501   8.8321   8.8446   9.6449  10.0780

          k = 0.1667 0.2887 0.0000 (  4425 PWs)   bands (ev):

   -38.5409 -38.5292 -38.4805 -38.4478 -38.4174 -38.3777 -38.3386 -38.2697
   -38.2260 -38.2259 -38.1793 -38.1792 -38.1528 -38.1346 -38.0863 -37.9762
   -37.9761 -37.7949 -37.7948 -37.7462 -37.7458   2.9333   3.0961   3.3773
     3.7153   3.8922   3.8943   4.0282   4.0552   4.1064   4.2870   4.4038
     4.5370   4.9913   5.0269   5.1127   5.3155   5.4893   5.5115   5.5456
     5.6425   6.1935   6.2373   6.4496   6.5734   6.6599   7.1131   7.1532
     7.3198   7.5590   7.7295   7.9516   8.1839   8.3063   8.4373   8.4379
     8.5608   8.6259   8.7112   9.3955  10.6169  11.9961  13.3959  14.5449

          k = 0.1667 0.4170 0.0000 (  4459 PWs)   bands (ev):

   -38.5810 -38.5645 -38.5573 -38.5278 -38.4936 -38.4394 -38.3746 -38.3002
   -38.2988 -38.2824 -38.2344 -38.2286 -38.2031 -38.1769 -38.1179 -38.0717
   -38.0708 -37.8572 -37.8572 -37.7379 -37.7379   3.1116   3.1763   3.3302
     3.4869   3.5342   3.6086   3.8233   3.9040   4.1213   4.3039   4.5630
     4.6864   4.9386   5.0971   5.1972   5.4461   5.5305   5.8897   5.9576
     6.1247   6.2119   6.4476   6.5748   6.8390   7.1301   7.2752   7.4019
     7.6333   7.7610   7.9974   8.4772   8.7725   8.8637   8.9368   9.1066
    10.1746  10.3250  10.5433  11.1577  12.2643  13.6427  15.0967  16.3895

          k = 0.1667 0.5453 0.0000 (  4490 PWs)   bands (ev):

   -38.6385 -38.6191 -38.5963 -38.5683 -38.5493 -38.3946 -38.3752 -38.3497
   -38.3326 -38.3090 -38.2695 -38.2446 -38.2329 -38.1835 -38.1460 -38.1167
   -38.1163 -37.8912 -37.8910 -37.7336 -37.7336   2.8075   3.0933   3.1378
     3.2355   3.4055   3.4900   3.6163   3.8534   4.0534   4.1056   4.4458
     4.5632   4.7812   5.1833   5.4867   5.6561   5.7206   5.9380   6.2123
     6.3177   6.5404   6.8278   7.1964   7.2503   7.3464   7.7202   8.0073
     8.1531   8.2837   8.3957   8.5724   8.7057   8.7899   8.9868   9.1137
    12.0350  12.4625  12.8782  13.2764  13.7778  14.2460  14.5021  16.4928

          k = 0.1667-0.4811 0.0000 (  4476 PWs)   bands (ev):

   -38.6179 -38.5988 -38.5832 -38.5536 -38.5304 -38.4143 -38.3748 -38.3299
   -38.3203 -38.2984 -38.2562 -38.2446 -38.2195 -38.1829 -38.1346 -38.1016
   -38.1007 -37.8794 -37.8792 -37.7351 -37.7350   2.9153   3.1242   3.1978
     3.3450   3.4439   3.5334   3.6875   3.8916   4.0597   4.1912   4.4603
     4.6658   4.8918   5.0622   5.4553   5.5478   5.7526   5.9537   6.0476
     6.1729   6.5295   6.6759   6.9388   7.0696   7.1958   7.6128   7.8074
     7.8206   7.9747   8.1220   8.5324   8.8272   8.8779   9.0374   9.2034
    11.1420  11.4107  11.7233  12.2919  13.2231  14.3903  15.5420  16.7301

          k = 0.1667-0.3528 0.0000 (  4458 PWs)   bands (ev):

   -38.5452 -38.5345 -38.5189 -38.4939 -38.4531 -38.4413 -38.3663 -38.2827
   -38.2629 -38.2585 -38.2107 -38.1912 -38.1893 -38.1614 -38.1012 -38.0288
   -38.0286 -37.8277 -37.8276 -37.7421 -37.7419   3.2004   3.2945   3.4162
     3.5467   3.6669   3.7671   3.8688   4.0201   4.2615   4.3037   4.4987
     4.6703   4.8597   4.9714   5.2358   5.3547   5.3872   5.5983   5.7977
     5.8732   6.1129   6.1632   6.4597   6.7148   6.8821   7.0545   7.3232
     7.4867   7.6929   7.8661   8.3324   8.5281   8.6395   8.6718   8.8806
     9.2805   9.3489   9.4859  10.1333  11.3522  12.7739  14.2309  15.4666

          k = 0.1667-0.2245 0.0000 (  4433 PWs)   bands (ev):

   -38.5675 -38.5334 -38.4500 -38.3957 -38.3577 -38.3134 -38.2937 -38.2485
   -38.1964 -38.1951 -38.1685 -38.1483 -38.1253 -38.1012 -38.0745 -37.9196
   -37.9195 -37.7646 -37.7646 -37.7509 -37.7505   2.4172   2.7397   3.2190
     3.5718   3.7090   3.8669   3.9876   4.1585   4.2824   4.3426   4.5080
     4.6702   4.7976   5.1043   5.2843   5.4435   5.5135   5.6258   5.7658
     5.8249   6.0602   6.2225   6.5400   6.5704   6.6076   6.8212   6.9344
     7.1710   7.1892   7.2725   7.5927   7.6933   7.8825   8.0282   8.0412
     8.1461   8.4514   8.6742   8.9442  10.0308  11.3170  12.6259  13.6579

          k = 0.1667-0.0962 0.0000 (  4427 PWs)   bands (ev):

   -38.6127 -38.5544 -38.4212 -38.3113 -38.2546 -38.2263 -38.1970 -38.1808
   -38.1621 -38.1579 -38.1252 -38.1146 -38.0868 -38.0765 -38.0460 -37.8213
   -37.8212 -37.7586 -37.7581 -37.7259 -37.7257   1.6070   2.0504   2.6945
     3.0945   3.1921   3.5003   3.5633   4.4041   4.6908   4.7674   4.8419
     5.0018   5.0207   5.5053   5.5452   5.6909   5.7867   5.7903   5.9008
     6.0066   6.0356   6.0870   6.1282   6.1373   6.3263   6.4625   6.6168
     6.7076   6.9178   6.9613   7.1376   7.2909   7.5110   7.5932   7.8679
     8.1700   8.2875   8.6809   8.8950   9.1240  10.2668  11.3981  12.1860

          k = 0.2778 0.4811 0.0000 (  4485 PWs)   bands (ev):

   -38.5775 -38.5740 -38.5497 -38.5391 -38.4896 -38.4610 -38.4243 -38.3798
   -38.3545 -38.3435 -38.2989 -38.2838 -38.2193 -38.2071 -38.1499 -38.0798
   -38.0797 -37.9506 -37.9505 -37.7324 -37.7323   3.3376   3.3511   3.5211
     3.6169   3.8581   3.9861   4.1146   4.1531   4.2804   4.3621   4.4203
     4.4954   4.8280   4.9659   5.1530   5.3376   5.5962   5.6930   6.0284
     6.0363   6.2564   6.2578   6.7391   6.8437   6.9953   7.2468   7.3974
     7.4675   7.8066   8.1517   8.5192   8.7887   8.8287   8.8882   9.0974
    12.4892  12.7247  13.1810  13.8609  14.7860  15.8803  16.8157  16.9305

          k = 0.2778 0.6094 0.0000 (  4491 PWs)   bands (ev):

   -38.5737 -38.5585 -38.5355 -38.5296 -38.5004 -38.4607 -38.4479 -38.4124
   -38.3912 -38.3644 -38.3008 -38.2945 -38.2169 -38.2055 -38.1648 -38.0717
   -38.0715 -37.9829 -37.9827 -37.7310 -37.7307   3.3066   3.5560   3.5901
     3.7448   3.8559   4.0092   4.0399   4.1350   4.2207   4.3417   4.4142
     4.5786   4.7343   5.0931   5.2103   5.4187   5.5381   5.6855   5.9461
     5.9983   6.2995   6.3193   6.7095   6.9008   7.0877   7.2432   7.4319
     7.4992   8.1035   8.3106   8.4571   8.6147   8.6800   8.7319   8.8747
    13.7014  14.0023  14.4571  14.9007  15.2894  15.7478  16.2820  16.5059

          k = 0.2778-0.4170 0.0000 (  4462 PWs)   bands (ev):

   -38.5858 -38.5724 -38.5607 -38.5343 -38.5036 -38.4410 -38.3912 -38.3384
   -38.3314 -38.3108 -38.2727 -38.2568 -38.2189 -38.1997 -38.1323 -38.0812
   -38.0809 -37.9049 -37.9048 -37.7345 -37.7345   3.1924   3.3279   3.4246
     3.5663   3.7059   3.7858   3.9496   4.1567   4.2498   4.3081   4.5572
     4.7116   4.7613   4.8612   5.2155   5.2701   5.5852   5.7842   6.0152
     6.0923   6.2469   6.3235   6.5423   6.8225   7.0412   7.2666   7.4280
     7.5558   7.6555   8.0073   8.5226   8.8863   8.9157   9.0126   9.2032
    11.3152  11.4709  11.8234  12.4716  13.4763  14.7311  16.0631  17.2272

          k = 0.2778-0.2887 0.0000 (  4463 PWs)   bands (ev):

   -38.5651 -38.5549 -38.5380 -38.5164 -38.4636 -38.4428 -38.3668 -38.2793
   -38.2615 -38.2513 -38.2113 -38.1922 -38.1838 -38.1369 -38.1068 -38.0508
   -38.0498 -37.8154 -37.8151 -37.7415 -37.7415   2.9567   3.0721   3.2217
     3.2711   3.3808   3.5119   3.6425   3.8706   4.0624   4.1989   4.5494
     4.7986   5.1433   5.1997   5.3992   5.5384   5.6446   5.7904   5.9788
     6.1686   6.3473   6.5716   6.6946   6.8311   7.1274   7.3221   7.4645
     7.5811   7.8232   8.1255   8.3581   8.4500   8.6464   8.6641   8.9108
     9.1330   9.3149   9.4002  10.0414  11.3015  12.7771  14.2807  15.5589

          k = 0.2778-0.1604 0.0000 (  4458 PWs)   bands (ev):

   -38.5583 -38.5278 -38.4904 -38.4576 -38.4109 -38.3749 -38.3325 -38.2590
   -38.2105 -38.2044 -38.1897 -38.1582 -38.1246 -38.1026 -38.0799 -37.9815
   -37.9813 -37.7666 -37.7665 -37.7483 -37.7480   2.5719   2.8454   3.0395
     3.1525   3.4269   3.5230   3.7950   3.8648   4.1140   4.2842   4.7026
     4.9376   5.1510   5.3322   5.5417   5.6721   5.7917   5.8339   6.0763
     6.1539   6.4241   6.5338   6.5583   6.7178   6.8680   7.0946   7.2570
     7.3359   7.4000   7.4755   7.6611   7.8358   7.8606   7.9576   8.0963
     8.3228   8.7150   8.8986   8.9597  10.2387  11.7030  13.1291  14.2608

          k = 0.3889 0.6736 0.0000 (  4511 PWs)   bands (ev):

   -38.6105 -38.5905 -38.5656 -38.5463 -38.5258 -38.4197 -38.4131 -38.3788
   -38.3713 -38.3360 -38.2910 -38.2801 -38.2288 -38.1964 -38.1563 -38.0977
   -38.0975 -37.9410 -37.9406 -37.7321 -37.7319   3.0326   3.3579   3.4087
     3.6050   3.6530   3.8049   3.8143   4.0947   4.1914   4.2521   4.5055
     4.5215   4.6998   4.9474   5.3157   5.5100   5.7271   5.9044   5.9288
     6.2633   6.3387   6.7189   6.7311   6.8132   7.1515   7.4830   7.7018
     7.8353   8.2601   8.3731   8.4374   8.6190   8.6943   8.9086   8.9144
    13.2318  13.5359  13.8432  14.1456  14.5045  14.8994  15.2349  16.6236

          k = 0.3889-0.3528 0.0000 (  4485 PWs)   bands (ev):

   -38.6516 -38.6319 -38.6123 -38.5811 -38.5596 -38.3941 -38.3719 -38.3074
   -38.3003 -38.2792 -38.2517 -38.2186 -38.2159 -38.1582 -38.1423 -38.1231
   -38.1191 -37.8481 -37.8480 -37.7360 -37.7357   2.6451   2.8337   2.9364
     2.9914   3.1653   3.2737   3.3541   3.6761   3.8019   3.8981   4.4208
     4.7417   5.0161   5.3779   5.4874   5.6917   5.8367   5.9282   6.4300
     6.5852   6.6455   7.1909   7.2978   7.6481   7.7824   7.9006   8.2487
     8.3769   8.3859   8.4628   8.6091   8.7999   8.8915   9.0343   9.2113
    10.7693  11.2605  11.6489  11.9978  12.7402  13.7160  14.5418  16.4190

          k = 0.3889-0.2245 0.0000 (  4444 PWs)   bands (ev):

   -38.6272 -38.6103 -38.5946 -38.5674 -38.5275 -38.4177 -38.3722 -38.2832
   -38.2520 -38.2443 -38.2299 -38.1955 -38.1577 -38.1410 -38.1103 -38.1056
   -38.0993 -37.8021 -37.8019 -37.7398 -37.7394   2.5942   2.6484   2.8201
     2.9240   2.9905   3.1695   3.2468   3.5614   3.6515   3.8641   4.5179
     4.9471   5.3079   5.3858   5.5457   5.8654   5.8766   5.9515   6.4579
     6.6708   6.8165   7.1401   7.5369   7.8035   8.0647   8.1959   8.2746
     8.4270   8.5012   8.5454   8.5728   8.6865   8.7332   8.8637   8.9660
     9.0788   9.1862   9.4305   9.9615  11.3739  12.9506  14.5234  16.0601

          k =-0.5000-0.8660 0.0000 (  4492 PWs)   bands (ev):

   -38.6839 -38.6645 -38.6447 -38.6078 -38.5912 -38.3824 -38.3801 -38.2756
   -38.2695 -38.2620 -38.2602 -38.2101 -38.1713 -38.1709 -38.1482 -38.1295
   -38.1225 -37.8163 -37.8161 -37.7370 -37.7369   2.3683   2.5557   2.6497
     2.7203   2.8872   3.0185   3.0555   3.4067   3.4639   3.7083   4.4089
     4.8909   5.1301   5.2714   5.4386   5.7857   6.1815   6.2286   6.4007
     7.0885   7.1391   7.2159   7.8986   8.1510   8.3553   8.4910   8.7834
     8.8993   8.9201   8.9921   8.9978   9.0657   9.1902   9.3786   9.3840
     9.7341  10.8378  11.7361  11.9294  12.3259  12.4736  12.6108  16.1008

     the Fermi energy is     8.3419 ev

!    total energy              =   -1198.23232357 Ry
     estimated scf accuracy    <       0.00000033 Ry
     smearing contrib. (-TS)   =      -0.03044286 Ry
     internal energy E=F+TS    =   -1198.20188071 Ry

     The total energy is F=E-TS. E is the sum of the following terms:
     one-electron contribution =  -13445.89848452 Ry
     hartree contribution      =    6768.75724749 Ry
     xc contribution           =    -209.35551016 Ry
     ewald contribution        =    5688.29486648 Ry

     total magnetization       =    -0.00 Bohr mag/cell
     absolute magnetization    =     0.00 Bohr mag/cell

     convergence has been achieved in   9 iterations

     negative rho (up, down):  2.017E-01 2.017E-01

     Forces acting on atoms (cartesian axes, Ry/au):

     atom    1 type  1   force =     0.00000000    0.00000000    0.00659665
     atom    2 type  1   force =     0.00000000    0.00000000   -0.00208853
     atom    3 type  1   force =     0.00000000    0.00000000   -0.00403711
     atom    4 type  1   force =     0.00000000    0.00000000    0.00001554
     atom    5 type  1   force =     0.00000000    0.00000000    0.00405789
     atom    6 type  1   force =     0.00000000    0.00000000    0.00208904
     atom    7 type  1   force =     0.00000000    0.00000000   -0.00663347

     Total force =     0.011358     Total SCF correction =     0.005358
     SCF correction compared to forces is large: reduce conv_thr to get better values
     Energy error            =      3.4E-04
     Gradient error          =      6.6E-03

     number of scf cycles    =   3
     number of bfgs steps    =   2

     energy   old            =   -1198.2319883435 Ry
     energy   new            =   -1198.2323235669 Ry

     CASE: energy  _new < energy  _old

     new trust radius        =       0.0201278094 bohr
     new conv_thr            =       0.0000003352 Ry


ATOMIC_POSITIONS (angstrom)
Rh            0.0000000000        0.0000000000        0.0241727990
Rh            2.7108568000        1.5651139000        2.2020704262
Rh            1.3554284000        0.7825569000        4.4128064215
Rh            0.0000000000        0.0000000000        6.6402359996
Rh            2.7108568000        1.5651139000        8.8676377874
Rh            1.3554284000        0.7825569000       11.0783431930
Rh            0.0000000000        0.0000000000       13.2562444734



     Writing output data file /home/STUDENTI/leonardo.razzai/WORK/relax_surf/7-L.save/
     NEW-OLD atomic charge density approx. for the potential

     negative rho (up, down):  2.003E-01 2.003E-01
     Generating pointlists ...
     new r_m :   0.4081 (alat units)  2.0906 (a.u.) for type    1

     total cpu time spent up to now is      553.6 secs

     Self-consistent Calculation

     iteration #  1     ecut=    35.00 Ry     beta= 0.40
     Davidson diagonalization with overlap
     ethr =  1.00E-06,  avg # of iterations =  6.1

     negative rho (up, down):  2.003E-01 2.003E-01

     total cpu time spent up to now is      586.9 secs

     total energy              =   -1198.23145302 Ry
     estimated scf accuracy    <       0.04536951 Ry

     total magnetization       =    -0.00 Bohr mag/cell
     absolute magnetization    =     0.00 Bohr mag/cell

     iteration #  2     ecut=    35.00 Ry     beta= 0.40
     Davidson diagonalization with overlap
     ethr =  4.32E-05,  avg # of iterations =  1.0

     negative rho (up, down):  2.003E-01 2.003E-01

     total cpu time spent up to now is      600.7 secs

     total energy              =   -1198.23231479 Ry
     estimated scf accuracy    <       0.02459965 Ry

     total magnetization       =    -0.00 Bohr mag/cell
     absolute magnetization    =     0.00 Bohr mag/cell

     iteration #  3     ecut=    35.00 Ry     beta= 0.40
     Davidson diagonalization with overlap
     ethr =  2.34E-05,  avg # of iterations =  1.0

     negative rho (up, down):  2.004E-01 2.003E-01

     total cpu time spent up to now is      614.4 secs

     total energy              =   -1198.23258953 Ry
     estimated scf accuracy    <       0.00107611 Ry

     total magnetization       =    -0.00 Bohr mag/cell
     absolute magnetization    =     0.00 Bohr mag/cell

     iteration #  4     ecut=    35.00 Ry     beta= 0.40
     Davidson diagonalization with overlap
     ethr =  1.02E-06,  avg # of iterations =  1.0

     negative rho (up, down):  2.004E-01 2.004E-01

     total cpu time spent up to now is      628.1 secs

     total energy              =   -1198.23255878 Ry
     estimated scf accuracy    <       0.00047857 Ry

     total magnetization       =    -0.00 Bohr mag/cell
     absolute magnetization    =     0.00 Bohr mag/cell

     iteration #  5     ecut=    35.00 Ry     beta= 0.40
     Davidson diagonalization with overlap
     ethr =  4.56E-07,  avg # of iterations =  1.0

     negative rho (up, down):  2.004E-01 2.004E-01

     total cpu time spent up to now is      641.8 secs

     total energy              =   -1198.23257524 Ry
     estimated scf accuracy    <       0.00001700 Ry

     total magnetization       =    -0.00 Bohr mag/cell
     absolute magnetization    =     0.00 Bohr mag/cell

     iteration #  6     ecut=    35.00 Ry     beta= 0.40
     Davidson diagonalization with overlap
     ethr =  1.62E-08,  avg # of iterations =  1.7

     negative rho (up, down):  2.004E-01 2.004E-01

     total cpu time spent up to now is      656.3 secs

     total energy              =   -1198.23257561 Ry
     estimated scf accuracy    <       0.00000406 Ry

     total magnetization       =    -0.00 Bohr mag/cell
     absolute magnetization    =     0.00 Bohr mag/cell

     iteration #  7     ecut=    35.00 Ry     beta= 0.40
     Davidson diagonalization with overlap
     ethr =  3.86E-09,  avg # of iterations =  1.2

     negative rho (up, down):  2.004E-01 2.004E-01

     total cpu time spent up to now is      670.5 secs

     total energy              =   -1198.23257549 Ry
     estimated scf accuracy    <       0.00000550 Ry

     total magnetization       =    -0.00 Bohr mag/cell
     absolute magnetization    =     0.00 Bohr mag/cell

     iteration #  8     ecut=    35.00 Ry     beta= 0.40
     Davidson diagonalization with overlap
     ethr =  3.86E-09,  avg # of iterations =  1.0

     negative rho (up, down):  2.004E-01 2.004E-01

     total cpu time spent up to now is      684.2 secs

     total energy              =   -1198.23257552 Ry
     estimated scf accuracy    <       0.00000635 Ry

     total magnetization       =    -0.00 Bohr mag/cell
     absolute magnetization    =     0.00 Bohr mag/cell

     iteration #  9     ecut=    35.00 Ry     beta= 0.40
     Davidson diagonalization with overlap
     ethr =  3.86E-09,  avg # of iterations =  1.1

     negative rho (up, down):  2.004E-01 2.004E-01

     total cpu time spent up to now is      698.1 secs

     total energy              =   -1198.23257581 Ry
     estimated scf accuracy    <       0.00000119 Ry

     total magnetization       =    -0.00 Bohr mag/cell
     absolute magnetization    =     0.00 Bohr mag/cell

     iteration # 10     ecut=    35.00 Ry     beta= 0.40
     Davidson diagonalization with overlap
     ethr =  1.13E-09,  avg # of iterations =  1.1

     negative rho (up, down):  2.004E-01 2.004E-01
 
     Magnetic moment per site:
     atom:    1    charge:   13.1048    magn:   -0.0001    constr:    0.0000
     atom:    2    charge:   13.1590    magn:   -0.0000    constr:    0.0000
     atom:    3    charge:   13.1563    magn:    0.0000    constr:    0.0000
     atom:    4    charge:   13.1528    magn:    0.0000    constr:    0.0000
     atom:    5    charge:   13.1564    magn:    0.0000    constr:    0.0000
     atom:    6    charge:   13.1589    magn:   -0.0000    constr:    0.0000
     atom:    7    charge:   13.1046    magn:   -0.0001    constr:    0.0000

     total cpu time spent up to now is      711.6 secs

     End of self-consistent calculation

 ------ SPIN UP ------------


          k = 0.0556 0.0962 0.0000 (  4451 PWs)   bands (ev):

   -38.6408 -38.5837 -38.4182 -38.2661 -38.1767 -38.1672 -38.1449 -38.1436
   -38.1142 -38.1124 -38.0840 -38.0717 -38.0594 -38.0485 -38.0223 -37.7783
   -37.7773 -37.7471 -37.7470 -37.7155 -37.7153   1.0406   1.5072   2.2099
     2.7200   2.7361   3.0398   3.0854   4.9106   4.9228   5.1248   5.1815
     5.2775   5.3515   5.5562   5.5806   5.6114   5.6505   5.6593   5.6941
     5.7938   5.8403   5.8923   5.9575   6.0863   6.1993   6.2032   6.7499
     7.0536   7.0917   7.2822   7.3298   7.5144   7.5521   7.6704   7.7612
     8.0643   8.1004   8.5908   8.6182   8.8071   9.3688  10.2911  10.8358

          k = 0.0556 0.2245 0.0000 (  4420 PWs)   bands (ev):

   -38.5904 -38.5523 -38.4308 -38.3523 -38.3059 -38.2596 -38.2345 -38.2121
   -38.1780 -38.1768 -38.1455 -38.1192 -38.0963 -38.0734 -38.0497 -37.8734
   -37.8733 -37.7664 -37.7660 -37.7486 -37.7480   1.9543   2.3392   2.9297
     3.2878   3.4154   3.6914   3.7858   4.2232   4.4988   4.5974   4.6473
     4.8401   4.8739   5.3523   5.4658   5.6155   5.7127   5.7957   5.8553
     5.9171   6.0493   6.1798   6.2987   6.4343   6.5178   6.6377   6.7219
     6.7673   6.9211   7.0543   7.1618   7.3336   7.6249   7.7117   7.9642
     8.0938   8.5114   8.6568   8.8126   9.5362  10.7360  11.9578  12.8524

          k = 0.0556 0.3528 0.0000 (  4467 PWs)   bands (ev):

   -38.5559 -38.5348 -38.5201 -38.5009 -38.4402 -38.4105 -38.3549 -38.2693
   -38.2328 -38.2277 -38.1941 -38.1680 -38.1412 -38.1021 -38.0848 -38.0265
   -38.0257 -37.7923 -37.7922 -37.7573 -37.7571   2.7469   3.0023   3.0403
     3.1369   3.3703   3.4216   3.6600   3.8127   4.0804   4.1454   4.6379
     4.9470   5.1367   5.3550   5.5512   5.6608   5.6832   5.7845   6.0431
     6.1663   6.4428   6.5978   6.7408   6.8157   7.0442   7.3045   7.4626
     7.5228   7.7262   7.8351   7.9857   8.0981   8.2804   8.3551   8.4818
     8.4919   8.6611   8.9034   9.3041  10.6503  12.1540  13.6370  14.8458

          k = 0.0556 0.4811 0.0000 (  4463 PWs)   bands (ev):

   -38.6482 -38.6351 -38.6076 -38.5801 -38.5424 -38.4116 -38.3841 -38.2845
   -38.2722 -38.2626 -38.2318 -38.2009 -38.1760 -38.1398 -38.1299 -38.1169
   -38.1086 -37.8252 -37.8251 -37.7508 -37.7505   2.5655   2.6827   2.7986
     2.8888   3.0081   3.1769   3.1838   3.5486   3.6341   3.8124   4.4534
     4.8721   5.2074   5.3743   5.5116   5.7544   5.9339   5.9839   6.4870
     6.6724   6.8306   7.2270   7.5109   7.8545   8.0460   8.0920   8.3816
     8.4739   8.5788   8.6199   8.7135   8.7333   8.8832   8.9843   9.1398
     9.5840  10.1146  10.4405  10.7724  11.8624  13.2602  14.6154  16.3606

          k = 0.0556-0.5453 0.0000 (  4486 PWs)   bands (ev):

   -38.6767 -38.6628 -38.6321 -38.5995 -38.5726 -38.3966 -38.3893 -38.2847
   -38.2807 -38.2629 -38.2487 -38.2081 -38.1863 -38.1557 -38.1500 -38.1242
   -38.1194 -37.8329 -37.8326 -37.7496 -37.7493   2.4484   2.6318   2.7100
     2.7885   2.9472   3.0941   3.1014   3.4702   3.5392   3.7367   4.4091
     4.8437   5.1140   5.3263   5.4487   5.7746   5.9811   6.1346   6.4931
     6.8092   7.0675   7.2820   7.7139   8.0729   8.1925   8.4460   8.4906
     8.6946   8.7890   8.8656   8.8969   8.9605   9.0369   9.1447   9.2583
    10.2119  10.9994  11.7279  11.8929  12.1933  12.9018  13.4748  16.1811

          k = 0.0556-0.4170 0.0000 (  4465 PWs)   bands (ev):

   -38.5969 -38.5870 -38.5674 -38.5463 -38.4880 -38.4337 -38.3771 -38.2797
   -38.2556 -38.2492 -38.2137 -38.1873 -38.1604 -38.1187 -38.1041 -38.0861
   -38.0815 -37.8114 -37.8113 -37.7536 -37.7532   2.7520   2.7787   2.9573
     3.0507   3.1114   3.2940   3.3746   3.6716   3.8228   3.9522   4.5453
     4.9131   5.3278   5.4597   5.5873   5.6431   5.7097   5.9695   6.2678
     6.3833   6.6047   6.9930   7.1789   7.3815   7.5744   7.6926   8.0011
     8.0869   8.1273   8.2560   8.3653   8.5132   8.6186   8.7219   8.8915
     9.0107   9.2004   9.2728   9.9067  11.2707  12.8302  14.3918  15.7663

          k = 0.0556-0.2887 0.0000 (  4439 PWs)   bands (ev):

   -38.5616 -38.5374 -38.4642 -38.4275 -38.3834 -38.3320 -38.3037 -38.2485
   -38.2056 -38.2023 -38.1730 -38.1439 -38.1190 -38.0863 -38.0666 -37.9522
   -37.9516 -37.7703 -37.7702 -37.7614 -37.7611   2.4709   2.7528   3.1247
     3.2948   3.5210   3.7123   3.9030   4.0421   4.2284   4.3842   4.6275
     4.6910   5.0003   5.1290   5.4928   5.6698   5.7551   5.8137   5.9046
     6.0361   6.1075   6.2719   6.3764   6.6866   6.7304   6.8321   6.9881
     7.1552   7.2275   7.3414   7.5820   7.6920   7.8307   7.9619   8.0727
     8.2571   8.5674   8.8488   8.9173  10.0733  11.4460  12.8079  13.8699

          k = 0.0556-0.1604 0.0000 (  4443 PWs)   bands (ev):

   -38.6194 -38.5697 -38.4201 -38.2960 -38.2327 -38.2062 -38.1757 -38.1669
   -38.1533 -38.1458 -38.1087 -38.0971 -38.0733 -38.0647 -38.0347 -37.8042
   -37.8041 -37.7703 -37.7699 -37.7295 -37.7294   1.4344   1.8774   2.5547
     3.0255   3.0576   3.3603   3.4066   4.5905   4.7151   4.8769   4.9546
     5.0603   5.0964   5.4244   5.5572   5.6672   5.7502   5.7899   5.8734
     5.8930   5.9384   5.9940   6.0232   6.2073   6.2640   6.4320   6.5023
     6.8869   6.9771   7.0482   7.1177   7.3076   7.5016   7.6373   7.8637
     8.0099   8.3669   8.5584   8.7914   9.0462  10.0325  11.1038  11.8164

          k = 0.0556-0.0321 0.0000 (  4465 PWs)   bands (ev):

   -38.6523 -38.5917 -38.4192 -38.2563 -38.1463 -38.1437 -38.1352 -38.1337
   -38.0911 -38.0849 -38.0786 -38.0576 -38.0572 -38.0270 -38.0153 -37.7803
   -37.7789 -37.7193 -37.7191 -37.7081 -37.7079   0.8319   1.3065   2.0158
     2.5347   2.5658   2.8567   2.9022   5.0756   5.1044   5.2734   5.3430
     5.3945   5.4052   5.4303   5.5009   5.5275   5.6117   5.6484   5.6664
     5.7003   5.7340   5.9180   5.9751   6.0429   6.0561   6.2932   7.1537
     7.1904   7.2490   7.3677   7.3767   7.5180   7.5557   7.8074   7.9188
     8.1409   8.2571   8.2638   8.6591   8.8315   8.8506   9.6591  10.0885

          k = 0.1667 0.2887 0.0000 (  4425 PWs)   bands (ev):

   -38.5397 -38.5330 -38.4807 -38.4556 -38.4209 -38.3713 -38.3348 -38.2685
   -38.2321 -38.2316 -38.1770 -38.1723 -38.1468 -38.1229 -38.0778 -37.9834
   -37.9833 -37.8032 -37.8031 -37.7579 -37.7574   2.9406   3.0902   3.3698
     3.7024   3.8875   3.9001   4.0156   4.0585   4.0858   4.2663   4.3894
     4.5387   4.9838   5.0240   5.1050   5.3118   5.4829   5.4918   5.5337
     5.6588   6.1967   6.2379   6.4496   6.5580   6.6650   7.1120   7.1616
     7.3079   7.5600   7.7262   7.9549   8.1830   8.3128   8.4381   8.4462
     8.5623   8.6261   8.7157   9.4024  10.6270  12.0082  13.4081  14.5537

          k = 0.1667 0.4170 0.0000 (  4459 PWs)   bands (ev):

   -38.5822 -38.5704 -38.5537 -38.5302 -38.4850 -38.4415 -38.3801 -38.3067
   -38.3043 -38.2820 -38.2279 -38.2211 -38.1998 -38.1672 -38.1089 -38.0780
   -38.0767 -37.8653 -37.8652 -37.7505 -37.7503   3.1174   3.1823   3.3217
     3.4727   3.5281   3.5931   3.8099   3.8956   4.1107   4.2948   4.5542
     4.6729   4.9246   5.1016   5.1953   5.4355   5.5316   5.8851   5.9580
     6.1206   6.2026   6.4411   6.5681   6.8352   7.1332   7.2757   7.4102
     7.6335   7.7686   8.0052   8.4849   8.7769   8.8663   8.9403   9.1108
    10.1787  10.3257  10.5409  11.1600  12.2733  13.6553  15.1041  16.3976

          k = 0.1667 0.5453 0.0000 (  4490 PWs)   bands (ev):

   -38.6393 -38.6262 -38.5935 -38.5670 -38.5391 -38.4024 -38.3843 -38.3538
   -38.3395 -38.3025 -38.2642 -38.2404 -38.2264 -38.1755 -38.1363 -38.1224
   -38.1214 -37.8991 -37.8989 -37.7466 -37.7465   2.8129   3.0987   3.1188
     3.2391   3.3874   3.4762   3.6045   3.8472   4.0405   4.0887   4.4345
     4.5515   4.7918   5.1716   5.4779   5.6554   5.7210   5.9302   6.2041
     6.3234   6.5359   6.8217   7.1924   7.2454   7.3424   7.7253   8.0128
     8.1583   8.2889   8.4038   8.5807   8.7094   8.7957   8.9919   9.1186
    12.0384  12.4614  12.8788  13.2780  13.7827  14.2550  14.5063  16.4897

          k = 0.1667-0.4811 0.0000 (  4476 PWs)   bands (ev):

   -38.6188 -38.6059 -38.5797 -38.5532 -38.5209 -38.4187 -38.3831 -38.3360
   -38.3273 -38.2936 -38.2494 -38.2394 -38.2148 -38.1743 -38.1254 -38.1077
   -38.1058 -37.8873 -37.8871 -37.7479 -37.7478   2.9208   3.1298   3.1846
     3.3431   3.4276   3.5176   3.6760   3.8840   4.0466   4.1785   4.4505
     4.6519   4.9030   5.0485   5.4559   5.5343   5.7514   5.9514   6.0474
     6.1677   6.5257   6.6692   6.9292   7.0654   7.1962   7.6172   7.8107
     7.8268   7.9822   8.1312   8.5398   8.8317   8.8826   9.0416   9.2080
    11.1458  11.4099  11.7230  12.2941  13.2302  14.4009  15.5463  16.7350

          k = 0.1667-0.3528 0.0000 (  4458 PWs)   bands (ev):

   -38.5458 -38.5356 -38.5188 -38.5012 -38.4549 -38.4338 -38.3670 -38.2827
   -38.2692 -38.2644 -38.2038 -38.1874 -38.1834 -38.1504 -38.0925 -38.0356
   -38.0352 -37.8358 -37.8357 -37.7542 -37.7541   3.2059   3.3029   3.4047
     3.5376   3.6564   3.7577   3.8587   4.0085   4.2454   4.3024   4.4767
     4.6697   4.8514   4.9665   5.2298   5.3484   5.3868   5.5939   5.7871
     5.8673   6.1137   6.1642   6.4506   6.7174   6.8829   7.0543   7.3294
     7.4834   7.6956   7.8693   8.3385   8.5322   8.6471   8.6709   8.8846
     9.2850   9.3515   9.4812  10.1372  11.3626  12.7870  14.2406  15.4751

          k = 0.1667-0.2245 0.0000 (  4433 PWs)   bands (ev):

   -38.5656 -38.5403 -38.4501 -38.4021 -38.3626 -38.3082 -38.2886 -38.2463
   -38.2010 -38.1997 -38.1659 -38.1416 -38.1190 -38.0912 -38.0658 -37.9273
   -37.9272 -37.7731 -37.7730 -37.7621 -37.7616   2.4232   2.7294   3.2112
     3.5739   3.6991   3.8548   3.9798   4.1522   4.2812   4.3283   4.4943
     4.6686   4.7912   5.0979   5.2795   5.4365   5.5118   5.6209   5.7550
     5.8337   6.0601   6.2253   6.5242   6.5683   6.6041   6.8304   6.9259
     7.1667   7.1920   7.2704   7.5866   7.6891   7.8838   8.0305   8.0444
     8.1498   8.4622   8.6795   8.9517  10.0390  11.3271  12.6404  13.6671

          k = 0.1667-0.0962 0.0000 (  4427 PWs)   bands (ev):

   -38.6100 -38.5635 -38.4225 -38.3151 -38.2605 -38.2251 -38.1924 -38.1763
   -38.1660 -38.1637 -38.1166 -38.1076 -38.0819 -38.0686 -38.0362 -37.8297
   -37.8295 -37.7693 -37.7687 -37.7342 -37.7340   1.6126   2.0378   2.6869
     3.0998   3.1892   3.4794   3.5478   4.4063   4.6818   4.7740   4.8370
     4.9895   5.0090   5.5005   5.5465   5.6875   5.7909   5.7995   5.8992
     5.9993   6.0259   6.0881   6.1256   6.1315   6.3283   6.4449   6.6043
     6.7072   6.9135   6.9628   7.1437   7.2872   7.5150   7.5922   7.8659
     8.1722   8.2882   8.6927   8.9015   9.1265  10.2720  11.4150  12.1958

          k = 0.2778 0.4811 0.0000 (  4485 PWs)   bands (ev):

   -38.5811 -38.5774 -38.5482 -38.5353 -38.4850 -38.4607 -38.4283 -38.3849
   -38.3605 -38.3398 -38.2965 -38.2839 -38.2103 -38.2011 -38.1386 -38.0865
   -38.0864 -37.9581 -37.9580 -37.7454 -37.7452   3.3414   3.3566   3.5182
     3.5951   3.8364   3.9768   4.1147   4.1644   4.2534   4.3397   4.4045
     4.4890   4.8198   4.9617   5.1399   5.3369   5.5943   5.6953   6.0213
     6.0311   6.2458   6.2465   6.7393   6.8476   7.0000   7.2506   7.4075
     7.4774   7.8137   8.1589   8.5265   8.7937   8.8330   8.8963   9.1016
    12.4939  12.7231  13.1811  13.8634  14.7917  15.8883  16.8205  16.9330

          k = 0.2778 0.6094 0.0000 (  4491 PWs)   bands (ev):

   -38.5744 -38.5645 -38.5334 -38.5279 -38.4966 -38.4665 -38.4463 -38.4139
   -38.3859 -38.3643 -38.3041 -38.2989 -38.2091 -38.1986 -38.1521 -38.0786
   -38.0784 -37.9900 -37.9899 -37.7441 -37.7437   3.3119   3.5500   3.5860
     3.7336   3.8508   3.9992   4.0428   4.1085   4.1886   4.3484   4.4014
     4.5678   4.7191   5.0885   5.1984   5.4163   5.5414   5.6839   5.9376
     5.9928   6.2885   6.3099   6.7092   6.9058   7.0915   7.2471   7.4461
     7.5109   8.1092   8.3180   8.4649   8.6192   8.6881   8.7363   8.8791
    13.7059  14.0014  14.4584  14.9027  15.2911  15.7531  16.2840  16.5095

          k = 0.2778-0.4170 0.0000 (  4462 PWs)   bands (ev):

   -38.5880 -38.5786 -38.5571 -38.5330 -38.4965 -38.4423 -38.3961 -38.3462
   -38.3397 -38.3077 -38.2665 -38.2525 -38.2101 -38.1935 -38.1221 -38.0877
   -38.0872 -37.9127 -37.9126 -37.7473 -37.7472   3.1979   3.3320   3.4159
     3.5570   3.6853   3.7805   3.9359   4.1429   4.2432   4.2994   4.5413
     4.6998   4.7550   4.8575   5.2032   5.2700   5.5881   5.7779   6.0118
     6.0870   6.2382   6.3162   6.5384   6.8256   7.0437   7.2705   7.4331
     7.5608   7.6651   8.0155   8.5301   8.8911   8.9199   9.0184   9.2072
    11.3202  11.4697  11.8221  12.4738  13.4836  14.7417  16.0692  17.2342

          k = 0.2778-0.2887 0.0000 (  4463 PWs)   bands (ev):

   -38.5653 -38.5552 -38.5396 -38.5219 -38.4575 -38.4425 -38.3706 -38.2797
   -38.2655 -38.2568 -38.2035 -38.1893 -38.1778 -38.1273 -38.0983 -38.0573
   -38.0559 -37.8235 -37.8233 -37.7538 -37.7536   2.9622   3.0776   3.2172
     3.2567   3.3767   3.4964   3.6305   3.8562   4.0518   4.1901   4.5434
     4.7879   5.1458   5.1834   5.4061   5.5371   5.6361   5.7927   5.9785
     6.1507   6.3437   6.5640   6.6913   6.8220   7.1258   7.3262   7.4715
     7.5798   7.8267   8.1258   8.3647   8.4549   8.6482   8.6693   8.9156
     9.1361   9.3179   9.3968  10.0458  11.3121  12.7905  14.2899  15.5677

          k = 0.2778-0.1604 0.0000 (  4458 PWs)   bands (ev):

   -38.5567 -38.5324 -38.4907 -38.4650 -38.4132 -38.3688 -38.3302 -38.2582
   -38.2134 -38.2099 -38.1858 -38.1519 -38.1201 -38.0936 -38.0705 -37.9889
   -37.9885 -37.7749 -37.7747 -37.7600 -37.7596   2.5776   2.8360   3.0412
     3.1445   3.4121   3.5232   3.7806   3.8538   4.1076   4.2713   4.6901
     4.9359   5.1459   5.3294   5.5462   5.6756   5.7962   5.8364   6.0511
     6.1521   6.4170   6.5200   6.5500   6.7177   6.8598   7.0832   7.2629
     7.3349   7.4085   7.4786   7.6537   7.8309   7.8673   7.9567   8.0989
     8.3268   8.7300   8.9050   8.9666  10.2475  11.7144  13.1425  14.2700

          k = 0.3889 0.6736 0.0000 (  4511 PWs)   bands (ev):

   -38.6110 -38.5976 -38.5636 -38.5450 -38.5157 -38.4248 -38.4194 -38.3768
   -38.3761 -38.3370 -38.2922 -38.2764 -38.2206 -38.1894 -38.1446 -38.1042
   -38.1040 -37.9485 -37.9481 -37.7451 -37.7449   3.0380   3.3374   3.4150
     3.6096   3.6420   3.7941   3.7967   4.0766   4.1717   4.2408   4.4930
     4.5277   4.6920   4.9377   5.3095   5.4984   5.7198   5.9123   5.9257
     6.2623   6.3338   6.7175   6.7208   6.8084   7.1555   7.4880   7.7100
     7.8422   8.2658   8.3806   8.4464   8.6232   8.7016   8.9138   8.9190
    13.2356  13.5374  13.8434  14.1444  14.5055  14.9090  15.2391  16.6245

          k = 0.3889-0.3528 0.0000 (  4485 PWs)   bands (ev):

   -38.6525 -38.6390 -38.6090 -38.5799 -38.5499 -38.4025 -38.3833 -38.3111
   -38.3035 -38.2744 -38.2433 -38.2150 -38.2116 -38.1512 -38.1389 -38.1270
   -38.1181 -37.8561 -37.8560 -37.7489 -37.7486   2.6503   2.8387   2.9224
     2.9908   3.1479   3.2606   3.3471   3.6643   3.7900   3.8817   4.4127
     4.7336   5.0274   5.3667   5.4849   5.6939   5.8390   5.9109   6.4209
     6.5738   6.6508   7.1864   7.2926   7.6420   7.7775   7.9080   8.2556
     8.3809   8.3881   8.4689   8.6154   8.8051   8.8951   9.0363   9.2162
    10.7723  11.2582  11.6508  12.0008  12.7474  13.7268  14.5459  16.4193

          k = 0.3889-0.2245 0.0000 (  4444 PWs)   bands (ev):

   -38.6278 -38.6158 -38.5918 -38.5678 -38.5195 -38.4222 -38.3819 -38.2805
   -38.2542 -38.2496 -38.2248 -38.1898 -38.1534 -38.1348 -38.1116 -38.1012
   -38.1012 -37.8102 -37.8101 -37.7524 -37.7519   2.5985   2.6536   2.8044
     2.9217   2.9857   3.1619   3.2299   3.5439   3.6418   3.8507   4.5115
     4.9455   5.3128   5.3900   5.5502   5.8501   5.8624   5.9529   6.4412
     6.6634   6.8196   7.1293   7.5318   7.8003   8.0681   8.1941   8.2753
     8.4330   8.4996   8.5509   8.5729   8.6921   8.7400   8.8580   8.9658
     9.0840   9.1861   9.4350   9.9681  11.3850  12.9652  14.5295  16.0682

          k =-0.5000-0.8660 0.0000 (  4492 PWs)   bands (ev):

   -38.6849 -38.6718 -38.6411 -38.6062 -38.5812 -38.3940 -38.3936 -38.2713
   -38.2655 -38.2643 -38.2570 -38.2046 -38.1708 -38.1668 -38.1540 -38.1252
   -38.1135 -37.8244 -37.8242 -37.7500 -37.7498   2.3729   2.5604   2.6304
     2.7254   2.8735   3.0143   3.0406   3.3930   3.4494   3.6936   4.4008
     4.8891   5.1375   5.2764   5.4432   5.7587   6.1802   6.2311   6.3838
     7.0801   7.1291   7.2194   7.8988   8.1531   8.3562   8.5023   8.7867
     8.9028   8.9165   8.9969   9.0017   9.0685   9.1935   9.3721   9.3787
     9.7364  10.8342  11.7408  11.9346  12.3405  12.4764  12.6185  16.0933

 ------ SPIN DOWN ----------


          k = 0.0556 0.0962 0.0000 (  4451 PWs)   bands (ev):

   -38.6408 -38.5837 -38.4182 -38.2661 -38.1768 -38.1673 -38.1449 -38.1437
   -38.1142 -38.1124 -38.0840 -38.0717 -38.0594 -38.0485 -38.0223 -37.7784
   -37.7774 -37.7472 -37.7471 -37.7155 -37.7154   1.0406   1.5072   2.2099
     2.7200   2.7361   3.0398   3.0853   4.9105   4.9228   5.1248   5.1815
     5.2775   5.3515   5.5562   5.5805   5.6114   5.6505   5.6593   5.6940
     5.7938   5.8403   5.8923   5.9575   6.0863   6.1992   6.2032   6.7498
     7.0536   7.0917   7.2822   7.3298   7.5144   7.5521   7.6703   7.7612
     8.0643   8.1003   8.5907   8.6182   8.8071   9.3688  10.2910  10.8358

          k = 0.0556 0.2245 0.0000 (  4420 PWs)   bands (ev):

   -38.5904 -38.5523 -38.4308 -38.3523 -38.3059 -38.2596 -38.2345 -38.2121
   -38.1780 -38.1768 -38.1455 -38.1191 -38.0963 -38.0734 -38.0497 -37.8734
   -37.8733 -37.7664 -37.7660 -37.7486 -37.7481   1.9543   2.3392   2.9297
     3.2878   3.4154   3.6914   3.7858   4.2232   4.4988   4.5974   4.6473
     4.8400   4.8739   5.3522   5.4658   5.6154   5.7127   5.7957   5.8553
     5.9171   6.0492   6.1798   6.2987   6.4342   6.5178   6.6377   6.7219
     6.7673   6.9210   7.0543   7.1617   7.3336   7.6249   7.7116   7.9642
     8.0937   8.5114   8.6567   8.8126   9.5362  10.7360  11.9578  12.8524

          k = 0.0556 0.3528 0.0000 (  4467 PWs)   bands (ev):

   -38.5559 -38.5349 -38.5201 -38.5010 -38.4402 -38.4105 -38.3549 -38.2693
   -38.2329 -38.2278 -38.1941 -38.1680 -38.1412 -38.1021 -38.0848 -38.0266
   -38.0258 -37.7923 -37.7922 -37.7574 -37.7572   2.7469   3.0023   3.0403
     3.1369   3.3703   3.4216   3.6600   3.8127   4.0804   4.1454   4.6379
     4.9470   5.1367   5.3550   5.5511   5.6608   5.6832   5.7845   6.0431
     6.1663   6.4428   6.5978   6.7408   6.8157   7.0442   7.3045   7.4626
     7.5228   7.7261   7.8351   7.9857   8.0981   8.2804   8.3551   8.4817
     8.4919   8.6611   8.9034   9.3041  10.6503  12.1540  13.6370  14.8458

          k = 0.0556 0.4811 0.0000 (  4463 PWs)   bands (ev):

   -38.6482 -38.6351 -38.6076 -38.5801 -38.5424 -38.4116 -38.3841 -38.2845
   -38.2722 -38.2626 -38.2318 -38.2009 -38.1760 -38.1398 -38.1299 -38.1170
   -38.1086 -37.8252 -37.8251 -37.7509 -37.7506   2.5655   2.6827   2.7986
     2.8888   3.0080   3.1769   3.1838   3.5485   3.6341   3.8123   4.4533
     4.8721   5.2074   5.3743   5.5115   5.7544   5.9339   5.9839   6.4870
     6.6724   6.8306   7.2270   7.5108   7.8544   8.0460   8.0920   8.3816
     8.4739   8.5788   8.6199   8.7135   8.7333   8.8832   8.9842   9.1397
     9.5840  10.1146  10.4405  10.7724  11.8624  13.2602  14.6154  16.3606

          k = 0.0556-0.5453 0.0000 (  4486 PWs)   bands (ev):

   -38.6767 -38.6628 -38.6321 -38.5995 -38.5725 -38.3966 -38.3894 -38.2848
   -38.2807 -38.2630 -38.2487 -38.2081 -38.1863 -38.1557 -38.1500 -38.1242
   -38.1194 -37.8330 -37.8326 -37.7496 -37.7493   2.4484   2.6318   2.7100
     2.7885   2.9472   3.0941   3.1014   3.4702   3.5392   3.7367   4.4090
     4.8436   5.1140   5.3263   5.4487   5.7746   5.9811   6.1345   6.4931
     6.8092   7.0675   7.2820   7.7139   8.0729   8.1924   8.4459   8.4906
     8.6946   8.7890   8.8656   8.8968   8.9605   9.0369   9.1447   9.2583
    10.2118  10.9994  11.7279  11.8929  12.1933  12.9018  13.4748  16.1824

          k = 0.0556-0.4170 0.0000 (  4465 PWs)   bands (ev):

   -38.5969 -38.5870 -38.5674 -38.5463 -38.4880 -38.4337 -38.3771 -38.2797
   -38.2557 -38.2492 -38.2137 -38.1873 -38.1604 -38.1187 -38.1041 -38.0861
   -38.0815 -37.8114 -37.8113 -37.7537 -37.7532   2.7520   2.7787   2.9573
     3.0506   3.1114   3.2940   3.3746   3.6716   3.8228   3.9522   4.5452
     4.9131   5.3277   5.4597   5.5873   5.6431   5.7096   5.9695   6.2678
     6.3833   6.6047   6.9930   7.1789   7.3815   7.5743   7.6926   8.0011
     8.0869   8.1273   8.2560   8.3653   8.5132   8.6186   8.7218   8.8914
     9.0107   9.2004   9.2728   9.9067  11.2706  12.8302  14.3918  15.7663

          k = 0.0556-0.2887 0.0000 (  4439 PWs)   bands (ev):

   -38.5616 -38.5374 -38.4642 -38.4275 -38.3835 -38.3320 -38.3037 -38.2485
   -38.2056 -38.2023 -38.1730 -38.1439 -38.1190 -38.0863 -38.0665 -37.9522
   -37.9516 -37.7703 -37.7702 -37.7615 -37.7611   2.4709   2.7528   3.1247
     3.2948   3.5209   3.7123   3.9030   4.0421   4.2284   4.3841   4.6275
     4.6910   5.0003   5.1290   5.4928   5.6698   5.7551   5.8137   5.9045
     6.0361   6.1075   6.2719   6.3763   6.6866   6.7304   6.8321   6.9881
     7.1552   7.2275   7.3414   7.5820   7.6920   7.8307   7.9618   8.0727
     8.2571   8.5673   8.8488   8.9172  10.0733  11.4460  12.8079  13.8699

          k = 0.0556-0.1604 0.0000 (  4443 PWs)   bands (ev):

   -38.6194 -38.5697 -38.4201 -38.2960 -38.2327 -38.2062 -38.1757 -38.1669
   -38.1533 -38.1458 -38.1087 -38.0971 -38.0733 -38.0647 -38.0347 -37.8043
   -37.8042 -37.7703 -37.7699 -37.7295 -37.7294   1.4344   1.8774   2.5547
     3.0255   3.0576   3.3603   3.4066   4.5905   4.7151   4.8769   4.9546
     5.0603   5.0964   5.4243   5.5572   5.6671   5.7502   5.7899   5.8734
     5.8930   5.9384   5.9939   6.0231   6.2073   6.2640   6.4320   6.5023
     6.8869   6.9771   7.0481   7.1177   7.3076   7.5016   7.6373   7.8637
     8.0098   8.3669   8.5583   8.7914   9.0462  10.0325  11.1038  11.8164

          k = 0.0556-0.0321 0.0000 (  4465 PWs)   bands (ev):

   -38.6523 -38.5917 -38.4192 -38.2563 -38.1464 -38.1437 -38.1352 -38.1337
   -38.0911 -38.0848 -38.0786 -38.0576 -38.0572 -38.0269 -38.0153 -37.7804
   -37.7790 -37.7193 -37.7192 -37.7082 -37.7079   0.8319   1.3065   2.0158
     2.5347   2.5658   2.8566   2.9021   5.0756   5.1044   5.2734   5.3430
     5.3944   5.4052   5.4303   5.5009   5.5275   5.6117   5.6484   5.6664
     5.7002   5.7340   5.9179   5.9751   6.0428   6.0561   6.2931   7.1536
     7.1904   7.2490   7.3677   7.3767   7.5180   7.5557   7.8073   7.9187
     8.1408   8.2571   8.2638   8.6591   8.8315   8.8505   9.6591  10.0885

          k = 0.1667 0.2887 0.0000 (  4425 PWs)   bands (ev):

   -38.5397 -38.5330 -38.4807 -38.4557 -38.4209 -38.3713 -38.3348 -38.2685
   -38.2321 -38.2317 -38.1770 -38.1723 -38.1468 -38.1229 -38.0777 -37.9835
   -37.9834 -37.8032 -37.8031 -37.7579 -37.7575   2.9406   3.0902   3.3698
     3.7024   3.8875   3.9001   4.0156   4.0585   4.0858   4.2663   4.3894
     4.5387   4.9838   5.0240   5.1050   5.3118   5.4829   5.4918   5.5337
     5.6588   6.1967   6.2379   6.4496   6.5580   6.6650   7.1120   7.1616
     7.3078   7.5600   7.7261   7.9549   8.1830   8.3128   8.4381   8.4461
     8.5623   8.6261   8.7157   9.4024  10.6270  12.0082  13.4081  14.5537

          k = 0.1667 0.4170 0.0000 (  4459 PWs)   bands (ev):

   -38.5822 -38.5704 -38.5537 -38.5302 -38.4850 -38.4416 -38.3801 -38.3067
   -38.3043 -38.2820 -38.2279 -38.2211 -38.1998 -38.1672 -38.1089 -38.0781
   -38.0767 -37.8653 -37.8652 -37.7505 -37.7504   3.1174   3.1823   3.3217
     3.4727   3.5281   3.5931   3.8099   3.8955   4.1107   4.2948   4.5542
     4.6729   4.9246   5.1016   5.1952   5.4355   5.5316   5.8851   5.9580
     6.1206   6.2025   6.4411   6.5681   6.8351   7.1332   7.2757   7.4102
     7.6335   7.7685   8.0052   8.4848   8.7769   8.8663   8.9403   9.1108
    10.1787  10.3257  10.5409  11.1600  12.2733  13.6553  15.1040  16.3976

          k = 0.1667 0.5453 0.0000 (  4490 PWs)   bands (ev):

   -38.6393 -38.6262 -38.5935 -38.5670 -38.5391 -38.4024 -38.3843 -38.3538
   -38.3396 -38.3025 -38.2642 -38.2404 -38.2264 -38.1755 -38.1363 -38.1224
   -38.1215 -37.8991 -37.8989 -37.7467 -37.7466   2.8129   3.0987   3.1188
     3.2391   3.3874   3.4761   3.6045   3.8472   4.0404   4.0887   4.4345
     4.5515   4.7918   5.1716   5.4779   5.6554   5.7209   5.9302   6.2041
     6.3234   6.5359   6.8217   7.1924   7.2453   7.3423   7.7253   8.0127
     8.1583   8.2888   8.4037   8.5807   8.7094   8.7957   8.9919   9.1186
    12.0384  12.4614  12.8788  13.2780  13.7827  14.2550  14.5063  16.4906

          k = 0.1667-0.4811 0.0000 (  4476 PWs)   bands (ev):

   -38.6188 -38.6060 -38.5797 -38.5532 -38.5208 -38.4187 -38.3831 -38.3360
   -38.3274 -38.2936 -38.2494 -38.2394 -38.2148 -38.1743 -38.1253 -38.1077
   -38.1058 -37.8874 -37.8871 -37.7480 -37.7478   2.9208   3.1298   3.1846
     3.3431   3.4276   3.5176   3.6760   3.8840   4.0466   4.1785   4.4505
     4.6519   4.9030   5.0485   5.4559   5.5342   5.7514   5.9514   6.0474
     6.1677   6.5257   6.6692   6.9292   7.0654   7.1962   7.6172   7.8107
     7.8267   7.9822   8.1312   8.5398   8.8317   8.8826   9.0416   9.2080
    11.1458  11.4099  11.7230  12.2941  13.2302  14.4009  15.5463  16.7350

          k = 0.1667-0.3528 0.0000 (  4458 PWs)   bands (ev):

   -38.5458 -38.5356 -38.5188 -38.5012 -38.4549 -38.4337 -38.3670 -38.2827
   -38.2692 -38.2644 -38.2038 -38.1874 -38.1834 -38.1504 -38.0924 -38.0356
   -38.0352 -37.8359 -37.8358 -37.7543 -37.7541   3.2059   3.3029   3.4047
     3.5376   3.6563   3.7577   3.8587   4.0085   4.2454   4.3024   4.4767
     4.6697   4.8513   4.9665   5.2298   5.3484   5.3868   5.5939   5.7871
     5.8672   6.1137   6.1642   6.4506   6.7174   6.8829   7.0543   7.3294
     7.4834   7.6956   7.8693   8.3384   8.5322   8.6471   8.6709   8.8846
     9.2849   9.3514   9.4812  10.1372  11.3626  12.7870  14.2406  15.4751

          k = 0.1667-0.2245 0.0000 (  4433 PWs)   bands (ev):

   -38.5656 -38.5403 -38.4501 -38.4022 -38.3626 -38.3082 -38.2886 -38.2463
   -38.2011 -38.1997 -38.1659 -38.1416 -38.1190 -38.0912 -38.0658 -37.9274
   -37.9273 -37.7731 -37.7730 -37.7621 -37.7617   2.4232   2.7294   3.2112
     3.5739   3.6991   3.8547   3.9798   4.1522   4.2812   4.3283   4.4943
     4.6686   4.7912   5.0979   5.2795   5.4365   5.5118   5.6208   5.7550
     5.8337   6.0601   6.2253   6.5242   6.5683   6.6040   6.8304   6.9259
     7.1667   7.1920   7.2704   7.5866   7.6891   7.8838   8.0305   8.0443
     8.1498   8.4621   8.6795   8.9517  10.0390  11.3270  12.6404  13.6671

          k = 0.1667-0.0962 0.0000 (  4427 PWs)   bands (ev):

   -38.6100 -38.5635 -38.4225 -38.3151 -38.2605 -38.2251 -38.1924 -38.1763
   -38.1661 -38.1637 -38.1166 -38.1076 -38.0819 -38.0686 -38.0362 -37.8297
   -37.8296 -37.7693 -37.7688 -37.7342 -37.7340   1.6126   2.0378   2.6869
     3.0998   3.1892   3.4794   3.5478   4.4062   4.6818   4.7740   4.8370
     4.9895   5.0090   5.5004   5.5465   5.6875   5.7909   5.7995   5.8992
     5.9993   6.0259   6.0881   6.1255   6.1314   6.3283   6.4448   6.6043
     6.7072   6.9134   6.9628   7.1436   7.2872   7.5150   7.5922   7.8659
     8.1721   8.2882   8.6927   8.9015   9.1265  10.2720  11.4150  12.1958

          k = 0.2778 0.4811 0.0000 (  4485 PWs)   bands (ev):

   -38.5811 -38.5775 -38.5482 -38.5353 -38.4850 -38.4607 -38.4284 -38.3849
   -38.3605 -38.3398 -38.2965 -38.2839 -38.2103 -38.2011 -38.1386 -38.0865
   -38.0864 -37.9581 -37.9580 -37.7454 -37.7453   3.3414   3.3566   3.5182
     3.5951   3.8364   3.9768   4.1147   4.1644   4.2534   4.3397   4.4045
     4.4889   4.8198   4.9617   5.1399   5.3369   5.5943   5.6953   6.0212
     6.0310   6.2457   6.2464   6.7393   6.8476   7.0000   7.2506   7.4075
     7.4773   7.8137   8.1589   8.5264   8.7936   8.8330   8.8962   9.1016
    12.4939  12.7231  13.1811  13.8633  14.7917  15.8882  16.8205  16.9330

          k = 0.2778 0.6094 0.0000 (  4491 PWs)   bands (ev):

   -38.5745 -38.5646 -38.5334 -38.5279 -38.4966 -38.4665 -38.4463 -38.4139
   -38.3859 -38.3643 -38.3041 -38.2990 -38.2091 -38.1986 -38.1521 -38.0787
   -38.0785 -37.9901 -37.9899 -37.7442 -37.7438   3.3119   3.5500   3.5860
     3.7336   3.8508   3.9992   4.0428   4.1084   4.1886   4.3484   4.4014
     4.5678   4.7191   5.0885   5.1984   5.4163   5.5414   5.6839   5.9376
     5.9927   6.2885   6.3099   6.7092   6.9058   7.0915   7.2471   7.4460
     7.5109   8.1092   8.3179   8.4649   8.6191   8.6880   8.7362   8.8791
    13.7059  14.0014  14.4583  14.9027  15.2911  15.7530  16.2839  16.5095

          k = 0.2778-0.4170 0.0000 (  4462 PWs)   bands (ev):

   -38.5880 -38.5786 -38.5571 -38.5330 -38.4965 -38.4423 -38.3962 -38.3463
   -38.3397 -38.3077 -38.2665 -38.2525 -38.2101 -38.1935 -38.1221 -38.0878
   -38.0872 -37.9128 -37.9126 -37.7474 -37.7473   3.1979   3.3320   3.4159
     3.5570   3.6853   3.7805   3.9359   4.1429   4.2432   4.2993   4.5413
     4.6997   4.7550   4.8575   5.2032   5.2700   5.5881   5.7779   6.0117
     6.0870   6.2382   6.3162   6.5384   6.8255   7.0437   7.2705   7.4331
     7.5608   7.6650   8.0155   8.5301   8.8911   8.9199   9.0184   9.2072
    11.3202  11.4697  11.8221  12.4738  13.4836  14.7417  16.0692  17.2342

          k = 0.2778-0.2887 0.0000 (  4463 PWs)   bands (ev):

   -38.5653 -38.5553 -38.5396 -38.5219 -38.4575 -38.4425 -38.3706 -38.2797
   -38.2655 -38.2569 -38.2035 -38.1893 -38.1778 -38.1273 -38.0983 -38.0574
   -38.0559 -37.8236 -37.8233 -37.7539 -37.7537   2.9622   3.0776   3.2172
     3.2567   3.3767   3.4964   3.6305   3.8562   4.0518   4.1901   4.5433
     4.7879   5.1458   5.1834   5.4061   5.5371   5.6361   5.7927   5.9784
     6.1507   6.3437   6.5639   6.6913   6.8219   7.1258   7.3262   7.4715
     7.5798   7.8267   8.1257   8.3647   8.4549   8.6482   8.6692   8.9156
     9.1361   9.3179   9.3967  10.0458  11.3120  12.7905  14.2899  15.5677

          k = 0.2778-0.1604 0.0000 (  4458 PWs)   bands (ev):

   -38.5567 -38.5324 -38.4907 -38.4650 -38.4133 -38.3688 -38.3302 -38.2582
   -38.2134 -38.2100 -38.1858 -38.1519 -38.1201 -38.0936 -38.0705 -37.9889
   -37.9885 -37.7749 -37.7748 -37.7601 -37.7597   2.5776   2.8359   3.0412
     3.1445   3.4121   3.5232   3.7806   3.8538   4.1076   4.2713   4.6901
     4.9359   5.1458   5.3294   5.5462   5.6756   5.7962   5.8364   6.0511
     6.1521   6.4170   6.5199   6.5500   6.7177   6.8598   7.0831   7.2629
     7.3348   7.4085   7.4786   7.6537   7.8308   7.8672   7.9567   8.0989
     8.3267   8.7299   8.9050   8.9666  10.2475  11.7144  13.1425  14.2700

          k = 0.3889 0.6736 0.0000 (  4511 PWs)   bands (ev):

   -38.6110 -38.5976 -38.5636 -38.5450 -38.5157 -38.4249 -38.4194 -38.3768
   -38.3761 -38.3370 -38.2922 -38.2764 -38.2205 -38.1893 -38.1446 -38.1042
   -38.1040 -37.9486 -37.9482 -37.7452 -37.7450   3.0380   3.3374   3.4150
     3.6096   3.6420   3.7941   3.7967   4.0766   4.1717   4.2407   4.4929
     4.5277   4.6920   4.9376   5.3095   5.4984   5.7198   5.9123   5.9257
     6.2623   6.3338   6.7175   6.7208   6.8084   7.1555   7.4880   7.7100
     7.8422   8.2657   8.3805   8.4464   8.6231   8.7016   8.9138   8.9190
    13.2356  13.5374  13.8434  14.1444  14.5055  14.9090  15.2391  16.6249

          k = 0.3889-0.3528 0.0000 (  4485 PWs)   bands (ev):

   -38.6525 -38.6391 -38.6090 -38.5799 -38.5499 -38.4025 -38.3834 -38.3112
   -38.3036 -38.2744 -38.2433 -38.2150 -38.2117 -38.1512 -38.1389 -38.1270
   -38.1181 -37.8562 -37.8561 -37.7490 -37.7487   2.6503   2.8387   2.9224
     2.9908   3.1479   3.2606   3.3471   3.6643   3.7900   3.8817   4.4127
     4.7336   5.0274   5.3667   5.4849   5.6939   5.8390   5.9109   6.4209
     6.5737   6.6507   7.1864   7.2926   7.6419   7.7775   7.9079   8.2556
     8.3809   8.3881   8.4689   8.6153   8.8051   8.8951   9.0363   9.2162
    10.7723  11.2582  11.6508  12.0007  12.7474  13.7268  14.5459  16.4192

          k = 0.3889-0.2245 0.0000 (  4444 PWs)   bands (ev):

   -38.6278 -38.6158 -38.5918 -38.5678 -38.5195 -38.4222 -38.3819 -38.2805
   -38.2543 -38.2496 -38.2248 -38.1898 -38.1534 -38.1348 -38.1117 -38.1012
   -38.1012 -37.8103 -37.8101 -37.7524 -37.7520   2.5985   2.6536   2.8044
     2.9217   2.9857   3.1619   3.2299   3.5439   3.6418   3.8507   4.5115
     4.9455   5.3127   5.3900   5.5502   5.8501   5.8624   5.9529   6.4412
     6.6634   6.8196   7.1293   7.5317   7.8003   8.0681   8.1941   8.2752
     8.4330   8.4996   8.5509   8.5729   8.6921   8.7399   8.8580   8.9658
     9.0839   9.1861   9.4350   9.9681  11.3850  12.9652  14.5295  16.0682

          k =-0.5000-0.8660 0.0000 (  4492 PWs)   bands (ev):

   -38.6849 -38.6718 -38.6411 -38.6062 -38.5812 -38.3940 -38.3937 -38.2714
   -38.2656 -38.2643 -38.2570 -38.2046 -38.1708 -38.1668 -38.1541 -38.1253
   -38.1135 -37.8245 -37.8243 -37.7500 -37.7499   2.3729   2.5604   2.6304
     2.7254   2.8735   3.0143   3.0406   3.3930   3.4494   3.6935   4.4008
     4.8890   5.1375   5.2764   5.4432   5.7587   6.1802   6.2311   6.3838
     7.0801   7.1291   7.2194   7.8987   8.1531   8.3561   8.5022   8.7867
     8.9028   8.9165   8.9969   9.0017   9.0685   9.1935   9.3721   9.3787
     9.7364  10.8342  11.7408  11.9346  12.3405  12.4764  12.6185  16.0933

     the Fermi energy is     8.3461 ev

!    total energy              =   -1198.23257648 Ry
     estimated scf accuracy    <       0.00000022 Ry
     smearing contrib. (-TS)   =      -0.03027503 Ry
     internal energy E=F+TS    =   -1198.20230145 Ry

     The total energy is F=E-TS. E is the sum of the following terms:
     one-electron contribution =  -13461.73345906 Ry
     hartree contribution      =    6776.65209748 Ry
     xc contribution           =    -209.36500128 Ry
     ewald contribution        =    5696.24406142 Ry

     total magnetization       =    -0.00 Bohr mag/cell
     absolute magnetization    =     0.00 Bohr mag/cell

     convergence has been achieved in  10 iterations

     negative rho (up, down):  2.004E-01 2.004E-01

     Forces acting on atoms (cartesian axes, Ry/au):

     atom    1 type  1   force =     0.00000000    0.00000000    0.00223906
     atom    2 type  1   force =     0.00000000    0.00000000    0.00136811
     atom    3 type  1   force =     0.00000000    0.00000000   -0.00148595
     atom    4 type  1   force =     0.00000000    0.00000000   -0.00000536
     atom    5 type  1   force =     0.00000000    0.00000000    0.00147809
     atom    6 type  1   force =     0.00000000    0.00000000   -0.00136889
     atom    7 type  1   force =     0.00000000    0.00000000   -0.00222506

     Total force =     0.004255     Total SCF correction =     0.001950
     SCF correction compared to forces is large: reduce conv_thr to get better values
     Energy error            =      2.5E-04
     Gradient error          =      2.2E-03

     number of scf cycles    =   4
     number of bfgs steps    =   3

     energy   old            =   -1198.2323235669 Ry
     energy   new            =   -1198.2325764764 Ry

     CASE: energy  _new < energy  _old

     new trust radius        =       0.0085496492 bohr
     new conv_thr            =       0.0000002239 Ry


ATOMIC_POSITIONS (angstrom)
Rh            0.0000000000        0.0000000000        0.0286970785
Rh            2.7108568000        1.5651139000        2.2018361471
Rh            1.3554284000        0.7825569000        4.4100185525
Rh            0.0000000000        0.0000000000        6.6402359719
Rh            2.7108568000        1.5651139000        8.8704236331
Rh            1.3554284000        0.7825569000       11.0785750794
Rh            0.0000000000        0.0000000000       13.2517246375



     Writing output data file /home/STUDENTI/leonardo.razzai/WORK/relax_surf/7-L.save/
     NEW-OLD atomic charge density approx. for the potential

     negative rho (up, down):  1.999E-01 1.999E-01
     Generating pointlists ...

     total cpu time spent up to now is      715.7 secs

     Self-consistent Calculation

     iteration #  1     ecut=    35.00 Ry     beta= 0.40
     Davidson diagonalization with overlap
     ethr =  1.00E-06,  avg # of iterations =  5.0

     negative rho (up, down):  1.999E-01 1.999E-01

     total cpu time spent up to now is      743.2 secs

     total energy              =   -1198.23250988 Ry
     estimated scf accuracy    <       0.00309110 Ry

     total magnetization       =    -0.00 Bohr mag/cell
     absolute magnetization    =     0.00 Bohr mag/cell

     iteration #  2     ecut=    35.00 Ry     beta= 0.40
     Davidson diagonalization with overlap
     ethr =  2.94E-06,  avg # of iterations =  1.0

     negative rho (up, down):  1.999E-01 1.999E-01

     total cpu time spent up to now is      756.8 secs

     total energy              =   -1198.23259796 Ry
     estimated scf accuracy    <       0.00112874 Ry

     total magnetization       =    -0.00 Bohr mag/cell
     absolute magnetization    =     0.00 Bohr mag/cell

     iteration #  3     ecut=    35.00 Ry     beta= 0.40
     Davidson diagonalization with overlap
     ethr =  1.07E-06,  avg # of iterations =  1.0

     negative rho (up, down):  1.999E-01 1.999E-01

     total cpu time spent up to now is      770.5 secs

     total energy              =   -1198.23261286 Ry
     estimated scf accuracy    <       0.00016947 Ry

     total magnetization       =    -0.00 Bohr mag/cell
     absolute magnetization    =     0.00 Bohr mag/cell

     iteration #  4     ecut=    35.00 Ry     beta= 0.40
     Davidson diagonalization with overlap
     ethr =  1.61E-07,  avg # of iterations =  1.0

     negative rho (up, down):  1.999E-01 1.999E-01

     total cpu time spent up to now is      784.2 secs

     total energy              =   -1198.23260692 Ry
     estimated scf accuracy    <       0.00006214 Ry

     total magnetization       =    -0.00 Bohr mag/cell
     absolute magnetization    =     0.00 Bohr mag/cell

     iteration #  5     ecut=    35.00 Ry     beta= 0.40
     Davidson diagonalization with overlap
     ethr =  5.92E-08,  avg # of iterations =  1.0

     negative rho (up, down):  1.999E-01 1.999E-01

     total cpu time spent up to now is      797.8 secs

     total energy              =   -1198.23260970 Ry
     estimated scf accuracy    <       0.00000270 Ry

     total magnetization       =    -0.00 Bohr mag/cell
     absolute magnetization    =     0.00 Bohr mag/cell

     iteration #  6     ecut=    35.00 Ry     beta= 0.40
     Davidson diagonalization with overlap
     ethr =  2.57E-09,  avg # of iterations =  1.6

     negative rho (up, down):  1.999E-01 1.999E-01

     total cpu time spent up to now is      812.2 secs

     total energy              =   -1198.23260965 Ry
     estimated scf accuracy    <       0.00000104 Ry

     total magnetization       =    -0.00 Bohr mag/cell
     absolute magnetization    =     0.00 Bohr mag/cell

     iteration #  7     ecut=    35.00 Ry     beta= 0.40
     Davidson diagonalization with overlap
     ethr =  9.90E-10,  avg # of iterations =  1.1

     negative rho (up, down):  1.999E-01 1.999E-01

     total cpu time spent up to now is      825.9 secs

     total energy              =   -1198.23260961 Ry
     estimated scf accuracy    <       0.00000170 Ry

     total magnetization       =    -0.00 Bohr mag/cell
     absolute magnetization    =     0.00 Bohr mag/cell

     iteration #  8     ecut=    35.00 Ry     beta= 0.40
     Davidson diagonalization with overlap
     ethr =  9.90E-10,  avg # of iterations =  1.0

     negative rho (up, down):  1.999E-01 1.999E-01

     total cpu time spent up to now is      839.6 secs

     total energy              =   -1198.23260976 Ry
     estimated scf accuracy    <       0.00000142 Ry

     total magnetization       =    -0.00 Bohr mag/cell
     absolute magnetization    =     0.00 Bohr mag/cell

     iteration #  9     ecut=    35.00 Ry     beta= 0.40
     Davidson diagonalization with overlap
     ethr =  9.90E-10,  avg # of iterations =  1.5

     negative rho (up, down):  1.999E-01 1.999E-01

     total cpu time spent up to now is      853.8 secs

     total energy              =   -1198.23260991 Ry
     estimated scf accuracy    <       0.00000058 Ry

     total magnetization       =    -0.00 Bohr mag/cell
     absolute magnetization    =     0.00 Bohr mag/cell

     iteration # 10     ecut=    35.00 Ry     beta= 0.40
     Davidson diagonalization with overlap
     ethr =  5.50E-10,  avg # of iterations =  1.0

     negative rho (up, down):  1.999E-01 1.999E-01
 
     Magnetic moment per site:
     atom:    1    charge:   13.1064    magn:   -0.0000    constr:    0.0000
     atom:    2    charge:   13.1611    magn:   -0.0000    constr:    0.0000
     atom:    3    charge:   13.1564    magn:    0.0000    constr:    0.0000
     atom:    4    charge:   13.1515    magn:    0.0000    constr:    0.0000
     atom:    5    charge:   13.1563    magn:    0.0000    constr:    0.0000
     atom:    6    charge:   13.1611    magn:   -0.0000    constr:    0.0000
     atom:    7    charge:   13.1064    magn:   -0.0000    constr:    0.0000

     total cpu time spent up to now is      867.2 secs

     End of self-consistent calculation

 ------ SPIN UP ------------


          k = 0.0556 0.0962 0.0000 (  4451 PWs)   bands (ev):

   -38.6393 -38.5870 -38.4158 -38.2647 -38.1774 -38.1671 -38.1451 -38.1441
   -38.1098 -38.1082 -38.0791 -38.0672 -38.0547 -38.0426 -38.0157 -37.7792
   -37.7782 -37.7471 -37.7471 -37.7155 -37.7154   1.0441   1.5032   2.2102
     2.7199   2.7413   3.0345   3.0820   4.9107   4.9270   5.1258   5.1833
     5.2746   5.3529   5.5584   5.5811   5.6149   5.6513   5.6575   5.6933
     5.7922   5.8436   5.8962   5.9584   6.0898   6.1970   6.2011   6.7506
     7.0564   7.0974   7.2823   7.3295   7.5179   7.5529   7.6732   7.7646
     8.0647   8.1036   8.5962   8.6209   8.8126   9.3717  10.2996  10.8428

          k = 0.0556 0.2245 0.0000 (  4420 PWs)   bands (ev):

   -38.5893 -38.5551 -38.4284 -38.3526 -38.3059 -38.2556 -38.2311 -38.2091
   -38.1782 -38.1769 -38.1407 -38.1141 -38.0924 -38.0680 -38.0434 -37.8734
   -37.8733 -37.7674 -37.7670 -37.7486 -37.7481   1.9578   2.3356   2.9294
     3.2902   3.4138   3.6866   3.7839   4.2251   4.4975   4.5968   4.6470
     4.8364   4.8761   5.3540   5.4666   5.6162   5.7157   5.7992   5.8557
     5.9213   6.0444   6.1823   6.3001   6.4308   6.5177   6.6392   6.7251
     6.7694   6.9215   7.0585   7.1627   7.3346   7.6282   7.7151   7.9665
     8.0964   8.5163   8.6620   8.8183   9.5414  10.7412  11.9667  12.8593

          k = 0.0556 0.3528 0.0000 (  4467 PWs)   bands (ev):

   -38.5550 -38.5350 -38.5200 -38.5025 -38.4373 -38.4051 -38.3529 -38.2666
   -38.2327 -38.2284 -38.1906 -38.1631 -38.1374 -38.0963 -38.0789 -38.0262
   -38.0253 -37.7923 -37.7922 -37.7586 -37.7584   2.7500   2.9978   3.0455
     3.1335   3.3694   3.4199   3.6557   3.8112   4.0802   4.1445   4.6370
     4.9490   5.1343   5.3557   5.5523   5.6642   5.6869   5.7848   6.0401
     6.1640   6.4446   6.5972   6.7399   6.8178   7.0435   7.3061   7.4677
     7.5247   7.7280   7.8379   7.9892   8.0997   8.2828   8.3582   8.4847
     8.4949   8.6683   8.9091   9.3094  10.6569  12.1619  13.6444  14.8526

          k = 0.0556 0.4811 0.0000 (  4463 PWs)   bands (ev):

   -38.6476 -38.6363 -38.6050 -38.5787 -38.5360 -38.4124 -38.3860 -38.2819
   -38.2717 -38.2618 -38.2274 -38.1965 -38.1723 -38.1368 -38.1288 -38.1127
   -38.1038 -37.8252 -37.8251 -37.7523 -37.7520   2.5679   2.6855   2.7928
     2.8899   3.0046   3.1752   3.1813   3.5461   3.6334   3.8109   4.4536
     4.8726   5.2124   5.3778   5.5119   5.7501   5.9312   5.9857   6.4861
     6.6705   6.8339   7.2273   7.5115   7.8562   8.0472   8.0957   8.3869
     8.4766   8.5800   8.6236   8.7193   8.7369   8.8863   8.9867   9.1442
     9.5870  10.1161  10.4445  10.7767  11.8681  13.2685  14.6201  16.3651

          k = 0.0556-0.5453 0.0000 (  4486 PWs)   bands (ev):

   -38.6762 -38.6641 -38.6293 -38.5978 -38.5656 -38.3988 -38.3918 -38.2841
   -38.2799 -38.2595 -38.2440 -38.2037 -38.1829 -38.1536 -38.1493 -38.1192
   -38.1138 -37.8329 -37.8326 -37.7511 -37.7509   2.4508   2.6346   2.7032
     2.7908   2.9423   3.0893   3.1032   3.4688   3.5375   3.7350   4.4089
     4.8439   5.1197   5.3305   5.4487   5.7657   5.9834   6.1363   6.4920
     6.8080   7.0707   7.2817   7.7151   8.0757   8.1956   8.4517   8.4936
     8.6983   8.7892   8.8699   8.9013   8.9647   9.0399   9.1464   9.2616
    10.2149  11.0004  11.7325  11.8967  12.1985  12.9089  13.4792  16.1816

          k = 0.0556-0.4170 0.0000 (  4465 PWs)   bands (ev):

   -38.5962 -38.5874 -38.5658 -38.5463 -38.4823 -38.4323 -38.3775 -38.2769
   -38.2554 -38.2495 -38.2099 -38.1826 -38.1566 -38.1132 -38.0990 -38.0854
   -38.0798 -37.8114 -37.8113 -37.7550 -37.7546   2.7546   2.7813   2.9527
     3.0476   3.1126   3.2930   3.3700   3.6688   3.8227   3.9511   4.5457
     4.9140   5.3297   5.4632   5.5877   5.6426   5.7117   5.9628   6.2677
     6.3854   6.6043   6.9943   7.1781   7.3821   7.5761   7.6937   8.0059
     8.0900   8.1305   8.2570   8.3704   8.5156   8.6215   8.7281   8.8949
     9.0155   9.2026   9.2761   9.9114  11.2772  12.8387  14.3980  15.7727

          k = 0.0556-0.2887 0.0000 (  4439 PWs)   bands (ev):

   -38.5608 -38.5395 -38.4623 -38.4286 -38.3821 -38.3269 -38.3002 -38.2457
   -38.2056 -38.2029 -38.1694 -38.1389 -38.1152 -38.0806 -38.0604 -37.9520
   -37.9514 -37.7704 -37.7703 -37.7625 -37.7622   2.4744   2.7499   3.1246
     3.2958   3.5165   3.7114   3.9026   4.0404   4.2291   4.3825   4.6250
     4.6877   5.0032   5.1306   5.4956   5.6729   5.7570   5.8142   5.9049
     6.0327   6.1076   6.2758   6.3746   6.6842   6.7320   6.8344   6.9879
     7.1600   7.2305   7.3441   7.5821   7.6937   7.8333   7.9650   8.0761
     8.2602   8.5741   8.8547   8.9224  10.0794  11.4527  12.8162  13.8767

          k = 0.0556-0.1604 0.0000 (  4443 PWs)   bands (ev):

   -38.6180 -38.5728 -38.4177 -38.2954 -38.2333 -38.2047 -38.1732 -38.1655
   -38.1517 -38.1443 -38.1029 -38.0921 -38.0690 -38.0596 -38.0282 -37.8044
   -37.8043 -37.7711 -37.7707 -37.7295 -37.7295   1.4379   1.8736   2.5548
     3.0280   3.0590   3.3551   3.4033   4.5924   4.7146   4.8803   4.9563
     5.0570   5.0941   5.4252   5.5595   5.6684   5.7508   5.7958   5.8764
     5.8906   5.9377   5.9916   6.0250   6.2117   6.2669   6.4291   6.5010
     6.8897   6.9809   7.0492   7.1203   7.3084   7.5045   7.6400   7.8668
     8.0110   8.3698   8.5640   8.7966   9.0507  10.0364  11.1127  11.8233

          k = 0.0556-0.0321 0.0000 (  4465 PWs)   bands (ev):

   -38.6507 -38.5951 -38.4168 -38.2546 -38.1469 -38.1441 -38.1356 -38.1344
   -38.0862 -38.0803 -38.0735 -38.0539 -38.0529 -38.0203 -38.0088 -37.7812
   -37.7798 -37.7194 -37.7192 -37.7082 -37.7080   0.8353   1.3024   2.0161
     2.5350   2.5710   2.8513   2.8989   5.0773   5.1091   5.2743   5.3438
     5.3914   5.4107   5.4317   5.5021   5.5240   5.6182   5.6466   5.6646
     5.7041   5.7390   5.9171   5.9736   6.0397   6.0535   6.2977   7.1544
     7.1941   7.2525   7.3686   7.3769   7.5203   7.5575   7.8075   7.9194
     8.1455   8.2623   8.2646   8.6652   8.8333   8.8556   9.6670  10.0954

          k = 0.1667 0.2887 0.0000 (  4425 PWs)   bands (ev):

   -38.5394 -38.5342 -38.4792 -38.4571 -38.4192 -38.3663 -38.3312 -38.2656
   -38.2327 -38.2320 -38.1740 -38.1676 -38.1429 -38.1157 -38.0721 -37.9832
   -37.9831 -37.8032 -37.8031 -37.7591 -37.7586   2.9445   3.0888   3.3685
     3.6990   3.8852   3.9038   4.0108   4.0618   4.0789   4.2619   4.3879
     4.5425   4.9839   5.0251   5.1050   5.3129   5.4825   5.4870   5.5309
     5.6669   6.2006   6.2405   6.4524   6.5544   6.6700   7.1130   7.1661
     7.3065   7.5617   7.7276   7.9583   8.1853   8.3175   8.4407   8.4521
     8.5653   8.6289   8.7199   9.4076  10.6336  12.0158  13.4156  14.5604

          k = 0.1667 0.4170 0.0000 (  4459 PWs)   bands (ev):

   -38.5818 -38.5715 -38.5513 -38.5303 -38.4787 -38.4405 -38.3801 -38.3073
   -38.3046 -38.2789 -38.2236 -38.2163 -38.1966 -38.1608 -38.1031 -38.0777
   -38.0760 -37.8652 -37.8652 -37.7519 -37.7518   3.1202   3.1855   3.3185
     3.4679   3.5262   3.5885   3.8081   3.8954   4.1105   4.2941   4.5534
     4.6700   4.9210   5.1044   5.1958   5.4335   5.5336   5.8863   5.9608
     6.1221   6.2022   6.4416   6.5682   6.8373   7.1366   7.2783   7.4154
     7.6353   7.7728   8.0104   8.4903   8.7810   8.8700   8.9439   9.1149
    10.1824  10.3282  10.5427  11.1636  12.2792  13.6633  15.1099  16.4039

          k = 0.1667 0.5453 0.0000 (  4490 PWs)   bands (ev):

   -38.6387 -38.6275 -38.5910 -38.5655 -38.5320 -38.4038 -38.3860 -38.3540
   -38.3403 -38.2971 -38.2598 -38.2370 -38.2221 -38.1702 -38.1308 -38.1217
   -38.1200 -37.8990 -37.8988 -37.7481 -37.7481   2.8155   3.1015   3.1119
     3.2410   3.3812   3.4712   3.6039   3.8485   4.0388   4.0861   4.4327
     4.5478   4.7972   5.1693   5.4768   5.6561   5.7238   5.9305   6.2026
     6.3272   6.5385   6.8220   7.1934   7.2463   7.3436   7.7288   8.0173
     8.1627   8.2927   8.4089   8.5863   8.7134   8.8006   8.9963   9.1230
    12.0419  12.4632  12.8817  13.2812  13.7866  14.2611  14.5106  16.4912

          k = 0.1667-0.4811 0.0000 (  4476 PWs)   bands (ev):

   -38.6183 -38.6072 -38.5771 -38.5522 -38.5140 -38.4189 -38.3844 -38.3366
   -38.3281 -38.2891 -38.2446 -38.2357 -38.2111 -38.1686 -38.1197 -38.1072
   -38.1046 -37.8873 -37.8870 -37.7494 -37.7493   2.9235   3.1328   3.1796
     3.3431   3.4221   3.5123   3.6753   3.8845   4.0453   4.1771   4.4494
     4.6479   4.9084   5.0454   5.4575   5.5309   5.7533   5.9531   6.0493
     6.1685   6.5270   6.6705   6.9288   7.0666   7.1985   7.6204   7.8140
     7.8316   7.9866   8.1372   8.5452   8.8358   8.8869   9.0455   9.2123
    11.1494  11.4117  11.7256  12.2975  13.2354  14.4079  15.5508  16.7393

          k = 0.1667-0.3528 0.0000 (  4458 PWs)   bands (ev):

   -38.5454 -38.5358 -38.5179 -38.5029 -38.4525 -38.4281 -38.3650 -38.2805
   -38.2697 -38.2644 -38.1993 -38.1846 -38.1789 -38.1434 -38.0867 -38.0353
   -38.0347 -37.8359 -37.8358 -37.7555 -37.7554   3.2088   3.3070   3.4008
     3.5347   3.6536   3.7544   3.8580   4.0060   4.2419   4.3050   4.4705
     4.6722   4.8510   4.9666   5.2290   5.3464   5.3892   5.5953   5.7865
     5.8677   6.1168   6.1674   6.4496   6.7213   6.8858   7.0568   7.3336
     7.4840   7.6981   7.8725   8.3434   8.5362   8.6520   8.6735   8.8887
     9.2889   9.3547   9.4821  10.1414  11.3690  12.7952  14.2472  15.4817

          k = 0.1667-0.2245 0.0000 (  4433 PWs)   bands (ev):

   -38.5647 -38.5425 -38.4480 -38.4030 -38.3620 -38.3036 -38.2848 -38.2433
   -38.2014 -38.1997 -38.1625 -38.1368 -38.1149 -38.0849 -38.0600 -37.9273
   -37.9271 -37.7732 -37.7731 -37.7631 -37.7627   2.4268   2.7265   3.2107
     3.5756   3.6963   3.8507   3.9790   4.1514   4.2827   4.3251   4.4918
     4.6702   4.7916   5.0979   5.2806   5.4363   5.5135   5.6215   5.7520
     5.8387   6.0626   6.2288   6.5204   6.5702   6.6055   6.8356   6.9235
     7.1683   7.1950   7.2728   7.5871   7.6903   7.8860   8.0338   8.0479
     8.1536   8.4687   8.6843   8.9570  10.0451  11.3336  12.6487  13.6739

          k = 0.1667-0.0962 0.0000 (  4427 PWs)   bands (ev):

   -38.6087 -38.5665 -38.4201 -38.3149 -38.2608 -38.2225 -38.1885 -38.1727
   -38.1663 -38.1643 -38.1107 -38.1025 -38.0783 -38.0633 -38.0298 -37.8298
   -37.8297 -37.7702 -37.7696 -37.7343 -37.7340   1.6161   2.0341   2.6869
     3.1025   3.1891   3.4745   3.5452   4.4085   4.6782   4.7791   4.8361
     4.9876   5.0071   5.5019   5.5496   5.6884   5.7925   5.8055   5.9017
     5.9939   6.0257   6.0910   6.1219   6.1354   6.3324   6.4423   6.6031
     6.7097   6.9146   6.9656   7.1484   7.2878   7.5175   7.5951   7.8681
     8.1756   8.2900   8.6997   8.9067   9.1307  10.2762  11.4240  12.2028

          k = 0.2778 0.4811 0.0000 (  4485 PWs)   bands (ev):

   -38.5814 -38.5780 -38.5460 -38.5329 -38.4806 -38.4595 -38.4282 -38.3847
   -38.3607 -38.3356 -38.2932 -38.2816 -38.2045 -38.1973 -38.1316 -38.0862
   -38.0860 -37.9579 -37.9578 -37.7469 -37.7468   3.3429   3.3592   3.5178
     3.5879   3.8298   3.9734   4.1162   4.1701   4.2460   4.3333   4.4013
     4.4893   4.8195   4.9627   5.1369   5.3386   5.5970   5.6977   6.0214
     6.0319   6.2450   6.2455   6.7419   6.8525   7.0049   7.2541   7.4132
     7.4826   7.8181   8.1639   8.5318   8.7979   8.8369   8.9019   9.1057
    12.4979  12.7247  13.1838  13.8669  14.7964  15.8940  16.8249  16.9363

          k = 0.2778 0.6094 0.0000 (  4491 PWs)   bands (ev):

   -38.5739 -38.5655 -38.5316 -38.5260 -38.4936 -38.4674 -38.4433 -38.4121
   -38.3821 -38.3615 -38.3028 -38.2978 -38.2045 -38.1942 -38.1443 -38.0784
   -38.0782 -37.9898 -37.9896 -37.7457 -37.7453   3.3142   3.5452   3.5873
     3.7301   3.8499   3.9943   4.0471   4.1000   4.1791   4.3530   4.4003
     4.5665   4.7160   5.0895   5.1962   5.4173   5.5454   5.6856   5.9373
     5.9934   6.2875   6.3095   6.7117   6.9117   7.0957   7.2503   7.4529
     7.5172   8.1132   8.3229   8.4702   8.6235   8.6935   8.7404   8.8833
    13.7098  14.0033  14.4614  14.9059  15.2938  15.7577  16.2874  16.5132

          k = 0.2778-0.4170 0.0000 (  4462 PWs)   bands (ev):

   -38.5879 -38.5798 -38.5545 -38.5319 -38.4905 -38.4415 -38.3964 -38.3471
   -38.3407 -38.3036 -38.2624 -38.2490 -38.2045 -38.1889 -38.1156 -38.0874
   -38.0868 -37.9126 -37.9125 -37.7488 -37.7487   3.2005   3.3339   3.4129
     3.5545   3.6791   3.7787   3.9337   4.1398   4.2436   4.2992   4.5368
     4.6973   4.7552   4.8586   5.2000   5.2720   5.5912   5.7786   6.0133
     6.0878   6.2383   6.3166   6.5395   6.8303   7.0473   7.2739   7.4376
     7.5644   7.6699   8.0209   8.5355   8.8954   8.9239   9.0230   9.2112
    11.3242  11.4714  11.8244  12.4772  13.4888  14.7488  16.0745  17.2398

          k = 0.2778-0.2887 0.0000 (  4463 PWs)   bands (ev):

   -38.5646 -38.5550 -38.5390 -38.5230 -38.4528 -38.4393 -38.3697 -38.2775
   -38.2654 -38.2570 -38.1987 -38.1858 -38.1737 -38.1211 -38.0927 -38.0569
   -38.0552 -37.8235 -37.8233 -37.7551 -37.7550   2.9653   3.0802   3.2155
     3.2524   3.3757   3.4922   3.6285   3.8542   4.0514   4.1899   4.5435
     4.7862   5.1474   5.1790   5.4102   5.5379   5.6346   5.7963   5.9808
     6.1466   6.3454   6.5642   6.6926   6.8218   7.1274   7.3301   7.4765
     7.5810   7.8295   8.1279   8.3695   8.4595   8.6516   8.6733   8.9202
     9.1395   9.3213   9.3982  10.0501  11.3186  12.7988  14.2965  15.5743

          k = 0.2778-0.1604 0.0000 (  4458 PWs)   bands (ev):

   -38.5560 -38.5340 -38.4893 -38.4663 -38.4110 -38.3636 -38.3271 -38.2555
   -38.2134 -38.2106 -38.1822 -38.1468 -38.1165 -38.0877 -38.0644 -37.9887
   -37.9882 -37.7749 -37.7748 -37.7612 -37.7609   2.5809   2.8330   3.0431
     3.1430   3.4080   3.5241   3.7775   3.8523   4.1080   4.2695   4.6876
     4.9363   5.1465   5.3302   5.5504   5.6798   5.7977   5.8398   6.0411
     6.1540   6.4173   6.5187   6.5498   6.7199   6.8588   7.0807   7.2675
     7.3373   7.4143   7.4820   7.6538   7.8317   7.8714   7.9589   8.1024
     8.3297   8.7382   8.9101   8.9720  10.2537  11.7215  13.1505  14.2769

          k = 0.3889 0.6736 0.0000 (  4511 PWs)   bands (ev):

   -38.6104 -38.5988 -38.5614 -38.5437 -38.5090 -38.4254 -38.4204 -38.3768
   -38.3744 -38.3335 -38.2900 -38.2729 -38.2157 -38.1847 -38.1373 -38.1038
   -38.1036 -37.9484 -37.9480 -37.7467 -37.7465   3.0406   3.3296   3.4182
     3.6116   3.6382   3.7903   3.7939   4.0720   4.1667   4.2403   4.4902
     4.5315   4.6925   4.9365   5.3091   5.4954   5.7200   5.9172   5.9273
     6.2646   6.3345   6.7201   6.7208   6.8096   7.1592   7.4914   7.7154
     7.8473   8.2693   8.3855   8.4526   8.6273   8.7070   8.9182   8.9233
    13.2392  13.5401  13.8458  14.1466  14.5079  14.9154  15.2437  16.6278

          k = 0.3889-0.3528 0.0000 (  4485 PWs)   bands (ev):

   -38.6519 -38.6403 -38.6064 -38.5784 -38.5430 -38.4039 -38.3855 -38.3112
   -38.3035 -38.2701 -38.2377 -38.2116 -38.2081 -38.1467 -38.1363 -38.1251
   -38.1137 -37.8561 -37.8560 -37.7504 -37.7502   2.6529   2.8416   2.9167
     2.9918   3.1420   3.2559   3.3484   3.6636   3.7890   3.8794   4.4124
     4.7317   5.0331   5.3638   5.4861   5.6968   5.8407   5.9073   6.4194
     6.5736   6.6544   7.1874   7.2930   7.6427   7.7782   7.9125   8.2603
     8.3845   8.3911   8.4737   8.6203   8.8093   8.8991   9.0395   9.2206
    10.7756  11.2595  11.6543  12.0045  12.7523  13.7339  14.5502  16.4217

          k = 0.3889-0.2245 0.0000 (  4444 PWs)   bands (ev):

   -38.6272 -38.6168 -38.5894 -38.5668 -38.5136 -38.4220 -38.3833 -38.2769
   -38.2540 -38.2502 -38.2210 -38.1848 -38.1499 -38.1305 -38.1112 -38.0985
   -38.0952 -37.8102 -37.8101 -37.7538 -37.7534   2.6008   2.6565   2.7988
     2.9212   2.9851   3.1627   3.2240   3.5410   3.6415   3.8495   4.5119
     4.9472   5.3171   5.3942   5.5520   5.8398   5.8630   5.9549   6.4397
     6.6619   6.8234   7.1284   7.5332   7.8005   8.0716   8.1963   8.2775
     8.4372   8.5002   8.5547   8.5754   8.6968   8.7447   8.8587   8.9689
     9.0889   9.1888   9.4394   9.9733  11.3914  12.9740  14.5350  16.0741

          k =-0.5000-0.8660 0.0000 (  4492 PWs)   bands (ev):

   -38.6844 -38.6731 -38.6383 -38.6045 -38.5741 -38.3964 -38.3963 -38.2710
   -38.2661 -38.2579 -38.2535 -38.1997 -38.1687 -38.1633 -38.1537 -38.1204
   -38.1076 -37.8244 -37.8243 -37.7515 -37.7514   2.3753   2.5632   2.6234
     2.7280   2.8690   3.0166   3.0353   3.3915   3.4474   3.6920   4.4007
     4.8903   5.1429   5.2810   5.4450   5.7483   6.1819   6.2331   6.3823
     7.0787   7.1286   7.2228   7.9000   8.1568   8.3596   8.5090   8.7902
     8.9053   8.9164   9.0020   9.0056   9.0717   9.1973   9.3727   9.3798
     9.7394  10.8351  11.7447  11.9402  12.3477  12.4809  12.6234  16.0931

 ------ SPIN DOWN ----------


          k = 0.0556 0.0962 0.0000 (  4451 PWs)   bands (ev):

   -38.6393 -38.5870 -38.4158 -38.2647 -38.1774 -38.1671 -38.1451 -38.1441
   -38.1098 -38.1082 -38.0791 -38.0672 -38.0547 -38.0426 -38.0157 -37.7792
   -37.7782 -37.7471 -37.7471 -37.7155 -37.7154   1.0441   1.5032   2.2102
     2.7199   2.7413   3.0345   3.0820   4.9107   4.9270   5.1258   5.1833
     5.2746   5.3529   5.5584   5.5811   5.6149   5.6513   5.6575   5.6933
     5.7922   5.8436   5.8962   5.9584   6.0898   6.1970   6.2011   6.7506
     7.0564   7.0974   7.2823   7.3295   7.5179   7.5529   7.6732   7.7646
     8.0647   8.1036   8.5962   8.6209   8.8126   9.3717  10.2996  10.8428

          k = 0.0556 0.2245 0.0000 (  4420 PWs)   bands (ev):

   -38.5893 -38.5551 -38.4284 -38.3526 -38.3059 -38.2556 -38.2311 -38.2091
   -38.1782 -38.1769 -38.1407 -38.1141 -38.0924 -38.0680 -38.0434 -37.8734
   -37.8733 -37.7674 -37.7670 -37.7486 -37.7481   1.9578   2.3356   2.9294
     3.2902   3.4138   3.6866   3.7839   4.2251   4.4975   4.5968   4.6470
     4.8364   4.8761   5.3540   5.4666   5.6162   5.7157   5.7992   5.8557
     5.9213   6.0444   6.1823   6.3001   6.4308   6.5177   6.6392   6.7251
     6.7694   6.9215   7.0585   7.1627   7.3346   7.6282   7.7151   7.9665
     8.0964   8.5163   8.6620   8.8183   9.5414  10.7412  11.9667  12.8593

          k = 0.0556 0.3528 0.0000 (  4467 PWs)   bands (ev):

   -38.5550 -38.5350 -38.5200 -38.5025 -38.4373 -38.4051 -38.3529 -38.2666
   -38.2327 -38.2284 -38.1906 -38.1631 -38.1374 -38.0963 -38.0789 -38.0262
   -38.0253 -37.7923 -37.7922 -37.7586 -37.7584   2.7500   2.9978   3.0455
     3.1335   3.3694   3.4199   3.6557   3.8112   4.0802   4.1445   4.6370
     4.9490   5.1343   5.3557   5.5523   5.6642   5.6869   5.7848   6.0401
     6.1640   6.4446   6.5972   6.7399   6.8178   7.0435   7.3061   7.4677
     7.5247   7.7280   7.8379   7.9892   8.0997   8.2828   8.3582   8.4847
     8.4949   8.6683   8.9091   9.3094  10.6569  12.1619  13.6444  14.8526

          k = 0.0556 0.4811 0.0000 (  4463 PWs)   bands (ev):

   -38.6476 -38.6363 -38.6050 -38.5787 -38.5360 -38.4124 -38.3860 -38.2819
   -38.2717 -38.2618 -38.2274 -38.1965 -38.1723 -38.1368 -38.1288 -38.1127
   -38.1038 -37.8252 -37.8251 -37.7523 -37.7520   2.5679   2.6855   2.7928
     2.8899   3.0046   3.1752   3.1813   3.5461   3.6334   3.8109   4.4536
     4.8726   5.2124   5.3778   5.5119   5.7501   5.9312   5.9857   6.4861
     6.6705   6.8339   7.2273   7.5115   7.8562   8.0472   8.0957   8.3869
     8.4766   8.5800   8.6236   8.7193   8.7369   8.8863   8.9867   9.1442
     9.5870  10.1161  10.4445  10.7767  11.8681  13.2685  14.6201  16.3651

          k = 0.0556-0.5453 0.0000 (  4486 PWs)   bands (ev):

   -38.6762 -38.6641 -38.6293 -38.5978 -38.5656 -38.3988 -38.3918 -38.2841
   -38.2799 -38.2595 -38.2440 -38.2037 -38.1829 -38.1536 -38.1493 -38.1192
   -38.1138 -37.8329 -37.8326 -37.7511 -37.7509   2.4508   2.6346   2.7032
     2.7908   2.9423   3.0893   3.1032   3.4688   3.5375   3.7350   4.4089
     4.8439   5.1197   5.3305   5.4487   5.7657   5.9834   6.1363   6.4920
     6.8080   7.0707   7.2817   7.7151   8.0757   8.1956   8.4517   8.4936
     8.6983   8.7892   8.8699   8.9013   8.9647   9.0399   9.1464   9.2616
    10.2149  11.0004  11.7325  11.8967  12.1985  12.9089  13.4792  16.1829

          k = 0.0556-0.4170 0.0000 (  4465 PWs)   bands (ev):

   -38.5962 -38.5874 -38.5658 -38.5463 -38.4823 -38.4323 -38.3775 -38.2769
   -38.2554 -38.2495 -38.2099 -38.1826 -38.1566 -38.1132 -38.0990 -38.0854
   -38.0798 -37.8114 -37.8113 -37.7550 -37.7546   2.7546   2.7813   2.9527
     3.0476   3.1126   3.2930   3.3700   3.6688   3.8227   3.9511   4.5457
     4.9140   5.3297   5.4632   5.5877   5.6426   5.7117   5.9628   6.2677
     6.3854   6.6043   6.9943   7.1781   7.3821   7.5761   7.6937   8.0059
     8.0900   8.1305   8.2570   8.3704   8.5156   8.6215   8.7281   8.8949
     9.0155   9.2026   9.2761   9.9114  11.2772  12.8387  14.3980  15.7727

          k = 0.0556-0.2887 0.0000 (  4439 PWs)   bands (ev):

   -38.5608 -38.5395 -38.4623 -38.4286 -38.3821 -38.3269 -38.3002 -38.2457
   -38.2056 -38.2029 -38.1694 -38.1389 -38.1152 -38.0806 -38.0604 -37.9520
   -37.9514 -37.7704 -37.7703 -37.7625 -37.7622   2.4744   2.7499   3.1246
     3.2958   3.5165   3.7114   3.9026   4.0404   4.2291   4.3825   4.6250
     4.6877   5.0032   5.1306   5.4956   5.6729   5.7570   5.8142   5.9049
     6.0327   6.1076   6.2758   6.3746   6.6842   6.7320   6.8344   6.9879
     7.1600   7.2305   7.3441   7.5821   7.6937   7.8333   7.9650   8.0761
     8.2602   8.5741   8.8547   8.9224  10.0794  11.4527  12.8162  13.8767

          k = 0.0556-0.1604 0.0000 (  4443 PWs)   bands (ev):

   -38.6180 -38.5728 -38.4177 -38.2954 -38.2333 -38.2047 -38.1732 -38.1655
   -38.1517 -38.1443 -38.1029 -38.0921 -38.0690 -38.0596 -38.0282 -37.8044
   -37.8043 -37.7711 -37.7707 -37.7295 -37.7295   1.4379   1.8736   2.5548
     3.0280   3.0590   3.3551   3.4033   4.5924   4.7146   4.8803   4.9563
     5.0570   5.0941   5.4252   5.5595   5.6684   5.7508   5.7958   5.8764
     5.8906   5.9377   5.9916   6.0250   6.2117   6.2669   6.4291   6.5010
     6.8897   6.9809   7.0492   7.1203   7.3084   7.5045   7.6400   7.8668
     8.0110   8.3698   8.5640   8.7966   9.0507  10.0364  11.1127  11.8233

          k = 0.0556-0.0321 0.0000 (  4465 PWs)   bands (ev):

   -38.6507 -38.5951 -38.4168 -38.2546 -38.1470 -38.1441 -38.1356 -38.1344
   -38.0862 -38.0803 -38.0735 -38.0539 -38.0529 -38.0203 -38.0088 -37.7812
   -37.7798 -37.7194 -37.7192 -37.7082 -37.7080   0.8353   1.3024   2.0161
     2.5350   2.5710   2.8513   2.8989   5.0773   5.1091   5.2743   5.3438
     5.3914   5.4107   5.4317   5.5021   5.5240   5.6182   5.6466   5.6646
     5.7041   5.7390   5.9171   5.9736   6.0397   6.0535   6.2977   7.1544
     7.1941   7.2525   7.3686   7.3769   7.5203   7.5575   7.8075   7.9194
     8.1455   8.2623   8.2646   8.6652   8.8333   8.8556   9.6670  10.0954

          k = 0.1667 0.2887 0.0000 (  4425 PWs)   bands (ev):

   -38.5394 -38.5342 -38.4792 -38.4571 -38.4192 -38.3663 -38.3312 -38.2656
   -38.2327 -38.2320 -38.1740 -38.1676 -38.1429 -38.1157 -38.0721 -37.9832
   -37.9831 -37.8032 -37.8031 -37.7591 -37.7586   2.9445   3.0888   3.3685
     3.6990   3.8852   3.9038   4.0108   4.0618   4.0789   4.2619   4.3879
     4.5425   4.9839   5.0251   5.1050   5.3129   5.4825   5.4870   5.5309
     5.6669   6.2006   6.2405   6.4524   6.5544   6.6700   7.1130   7.1661
     7.3065   7.5617   7.7276   7.9583   8.1853   8.3175   8.4407   8.4521
     8.5653   8.6289   8.7199   9.4076  10.6336  12.0158  13.4156  14.5604

          k = 0.1667 0.4170 0.0000 (  4459 PWs)   bands (ev):

   -38.5818 -38.5715 -38.5513 -38.5303 -38.4787 -38.4405 -38.3801 -38.3073
   -38.3046 -38.2789 -38.2236 -38.2163 -38.1966 -38.1608 -38.1031 -38.0777
   -38.0760 -37.8652 -37.8652 -37.7519 -37.7518   3.1202   3.1855   3.3185
     3.4679   3.5262   3.5885   3.8080   3.8954   4.1105   4.2941   4.5534
     4.6700   4.9210   5.1044   5.1958   5.4335   5.5336   5.8863   5.9608
     6.1221   6.2022   6.4416   6.5682   6.8373   7.1366   7.2783   7.4154
     7.6353   7.7728   8.0104   8.4903   8.7810   8.8700   8.9439   9.1149
    10.1824  10.3282  10.5427  11.1636  12.2792  13.6633  15.1099  16.4039

          k = 0.1667 0.5453 0.0000 (  4490 PWs)   bands (ev):

   -38.6387 -38.6275 -38.5910 -38.5655 -38.5320 -38.4038 -38.3860 -38.3540
   -38.3403 -38.2971 -38.2598 -38.2370 -38.2221 -38.1702 -38.1308 -38.1217
   -38.1200 -37.8990 -37.8988 -37.7481 -37.7481   2.8155   3.1015   3.1119
     3.2410   3.3812   3.4712   3.6039   3.8485   4.0388   4.0861   4.4327
     4.5478   4.7972   5.1693   5.4768   5.6561   5.7238   5.9305   6.2026
     6.3272   6.5385   6.8220   7.1934   7.2463   7.3436   7.7288   8.0173
     8.1627   8.2927   8.4089   8.5863   8.7134   8.8006   8.9963   9.1230
    12.0419  12.4632  12.8817  13.2812  13.7866  14.2611  14.5106  16.4921

          k = 0.1667-0.4811 0.0000 (  4476 PWs)   bands (ev):

   -38.6183 -38.6072 -38.5771 -38.5522 -38.5140 -38.4189 -38.3844 -38.3366
   -38.3281 -38.2891 -38.2446 -38.2357 -38.2111 -38.1686 -38.1197 -38.1072
   -38.1046 -37.8873 -37.8870 -37.7494 -37.7493   2.9235   3.1328   3.1796
     3.3431   3.4221   3.5123   3.6753   3.8845   4.0453   4.1771   4.4494
     4.6479   4.9084   5.0454   5.4575   5.5309   5.7533   5.9531   6.0493
     6.1685   6.5270   6.6705   6.9288   7.0666   7.1985   7.6204   7.8140
     7.8316   7.9866   8.1372   8.5452   8.8358   8.8869   9.0455   9.2123
    11.1494  11.4117  11.7256  12.2975  13.2354  14.4079  15.5508  16.7393

          k = 0.1667-0.3528 0.0000 (  4458 PWs)   bands (ev):

   -38.5454 -38.5358 -38.5179 -38.5029 -38.4525 -38.4281 -38.3650 -38.2805
   -38.2697 -38.2644 -38.1993 -38.1846 -38.1789 -38.1434 -38.0867 -38.0353
   -38.0347 -37.8359 -37.8358 -37.7555 -37.7554   3.2088   3.3070   3.4008
     3.5347   3.6536   3.7544   3.8580   4.0060   4.2419   4.3050   4.4705
     4.6722   4.8510   4.9666   5.2290   5.3464   5.3892   5.5953   5.7865
     5.8677   6.1168   6.1674   6.4496   6.7213   6.8858   7.0568   7.3336
     7.4840   7.6981   7.8725   8.3434   8.5362   8.6520   8.6735   8.8887
     9.2889   9.3547   9.4821  10.1414  11.3690  12.7952  14.2472  15.4817

          k = 0.1667-0.2245 0.0000 (  4433 PWs)   bands (ev):

   -38.5647 -38.5425 -38.4480 -38.4030 -38.3620 -38.3036 -38.2848 -38.2433
   -38.2014 -38.1997 -38.1625 -38.1368 -38.1149 -38.0849 -38.0600 -37.9273
   -37.9271 -37.7732 -37.7731 -37.7631 -37.7627   2.4268   2.7265   3.2107
     3.5756   3.6963   3.8507   3.9790   4.1514   4.2827   4.3251   4.4918
     4.6702   4.7916   5.0979   5.2806   5.4363   5.5135   5.6215   5.7520
     5.8387   6.0626   6.2288   6.5204   6.5702   6.6055   6.8356   6.9235
     7.1683   7.1950   7.2728   7.5871   7.6903   7.8860   8.0338   8.0479
     8.1536   8.4687   8.6843   8.9570  10.0451  11.3336  12.6487  13.6739

          k = 0.1667-0.0962 0.0000 (  4427 PWs)   bands (ev):

   -38.6087 -38.5665 -38.4201 -38.3149 -38.2608 -38.2225 -38.1885 -38.1727
   -38.1663 -38.1643 -38.1107 -38.1025 -38.0783 -38.0633 -38.0298 -37.8298
   -37.8297 -37.7702 -37.7696 -37.7343 -37.7340   1.6161   2.0341   2.6869
     3.1025   3.1891   3.4744   3.5452   4.4085   4.6782   4.7791   4.8361
     4.9876   5.0071   5.5019   5.5496   5.6883   5.7925   5.8055   5.9017
     5.9939   6.0257   6.0910   6.1219   6.1354   6.3324   6.4423   6.6031
     6.7097   6.9146   6.9656   7.1484   7.2878   7.5175   7.5951   7.8681
     8.1756   8.2900   8.6997   8.9067   9.1307  10.2761  11.4240  12.2028

          k = 0.2778 0.4811 0.0000 (  4485 PWs)   bands (ev):

   -38.5814 -38.5780 -38.5460 -38.5329 -38.4806 -38.4596 -38.4282 -38.3847
   -38.3607 -38.3356 -38.2932 -38.2816 -38.2045 -38.1973 -38.1316 -38.0862
   -38.0860 -37.9579 -37.9578 -37.7469 -37.7468   3.3429   3.3592   3.5178
     3.5879   3.8298   3.9734   4.1162   4.1701   4.2460   4.3333   4.4013
     4.4893   4.8195   4.9627   5.1369   5.3386   5.5970   5.6977   6.0214
     6.0319   6.2450   6.2455   6.7419   6.8525   7.0049   7.2541   7.4132
     7.4826   7.8181   8.1639   8.5318   8.7979   8.8369   8.9019   9.1057
    12.4979  12.7247  13.1838  13.8669  14.7964  15.8940  16.8249  16.9363

          k = 0.2778 0.6094 0.0000 (  4491 PWs)   bands (ev):

   -38.5739 -38.5655 -38.5316 -38.5260 -38.4936 -38.4674 -38.4433 -38.4121
   -38.3821 -38.3615 -38.3028 -38.2978 -38.2045 -38.1942 -38.1443 -38.0784
   -38.0782 -37.9898 -37.9896 -37.7457 -37.7453   3.3142   3.5452   3.5873
     3.7301   3.8499   3.9943   4.0471   4.1000   4.1791   4.3530   4.4003
     4.5665   4.7160   5.0895   5.1962   5.4173   5.5454   5.6856   5.9373
     5.9934   6.2875   6.3095   6.7117   6.9117   7.0957   7.2503   7.4529
     7.5172   8.1132   8.3229   8.4702   8.6235   8.6935   8.7404   8.8833
    13.7098  14.0033  14.4614  14.9059  15.2938  15.7577  16.2874  16.5132

          k = 0.2778-0.4170 0.0000 (  4462 PWs)   bands (ev):

   -38.5879 -38.5798 -38.5545 -38.5319 -38.4905 -38.4415 -38.3964 -38.3471
   -38.3407 -38.3036 -38.2624 -38.2490 -38.2045 -38.1889 -38.1156 -38.0874
   -38.0868 -37.9126 -37.9125 -37.7488 -37.7487   3.2005   3.3339   3.4129
     3.5545   3.6791   3.7787   3.9337   4.1398   4.2436   4.2992   4.5368
     4.6973   4.7552   4.8586   5.2000   5.2720   5.5912   5.7785   6.0133
     6.0878   6.2383   6.3166   6.5395   6.8303   7.0473   7.2739   7.4376
     7.5644   7.6699   8.0209   8.5355   8.8954   8.9239   9.0230   9.2112
    11.3242  11.4714  11.8244  12.4772  13.4888  14.7488  16.0745  17.2398

          k = 0.2778-0.2887 0.0000 (  4463 PWs)   bands (ev):

   -38.5646 -38.5550 -38.5390 -38.5230 -38.4528 -38.4393 -38.3697 -38.2775
   -38.2654 -38.2570 -38.1987 -38.1858 -38.1737 -38.1210 -38.0927 -38.0569
   -38.0552 -37.8235 -37.8233 -37.7551 -37.7550   2.9653   3.0802   3.2155
     3.2524   3.3757   3.4922   3.6285   3.8542   4.0514   4.1899   4.5435
     4.7862   5.1474   5.1790   5.4102   5.5379   5.6346   5.7963   5.9808
     6.1466   6.3454   6.5642   6.6926   6.8218   7.1274   7.3301   7.4765
     7.5810   7.8295   8.1279   8.3695   8.4595   8.6516   8.6733   8.9202
     9.1395   9.3213   9.3982  10.0501  11.3186  12.7988  14.2965  15.5743

          k = 0.2778-0.1604 0.0000 (  4458 PWs)   bands (ev):

   -38.5560 -38.5340 -38.4893 -38.4663 -38.4110 -38.3636 -38.3271 -38.2555
   -38.2134 -38.2106 -38.1822 -38.1468 -38.1165 -38.0877 -38.0644 -37.9887
   -37.9882 -37.7749 -37.7748 -37.7612 -37.7609   2.5809   2.8330   3.0431
     3.1430   3.4080   3.5241   3.7775   3.8523   4.1080   4.2695   4.6876
     4.9363   5.1465   5.3302   5.5504   5.6798   5.7977   5.8398   6.0411
     6.1539   6.4173   6.5187   6.5498   6.7199   6.8588   7.0807   7.2675
     7.3373   7.4143   7.4820   7.6538   7.8317   7.8714   7.9589   8.1024
     8.3297   8.7382   8.9101   8.9720  10.2537  11.7215  13.1505  14.2769

          k = 0.3889 0.6736 0.0000 (  4511 PWs)   bands (ev):

   -38.6104 -38.5988 -38.5614 -38.5437 -38.5090 -38.4254 -38.4204 -38.3768
   -38.3744 -38.3335 -38.2900 -38.2729 -38.2157 -38.1847 -38.1373 -38.1038
   -38.1036 -37.9484 -37.9480 -37.7467 -37.7465   3.0406   3.3296   3.4182
     3.6116   3.6382   3.7903   3.7939   4.0720   4.1667   4.2403   4.4902
     4.5315   4.6925   4.9365   5.3091   5.4954   5.7200   5.9172   5.9273
     6.2646   6.3345   6.7201   6.7208   6.8096   7.1592   7.4914   7.7154
     7.8473   8.2693   8.3855   8.4526   8.6273   8.7070   8.9182   8.9233
    13.2392  13.5401  13.8458  14.1466  14.5079  14.9154  15.2437  16.6281

          k = 0.3889-0.3528 0.0000 (  4485 PWs)   bands (ev):

   -38.6519 -38.6403 -38.6064 -38.5784 -38.5430 -38.4039 -38.3855 -38.3112
   -38.3035 -38.2701 -38.2377 -38.2116 -38.2081 -38.1467 -38.1363 -38.1251
   -38.1137 -37.8561 -37.8560 -37.7504 -37.7502   2.6529   2.8416   2.9167
     2.9918   3.1420   3.2559   3.3484   3.6636   3.7890   3.8794   4.4124
     4.7317   5.0331   5.3638   5.4861   5.6968   5.8407   5.9073   6.4194
     6.5736   6.6544   7.1874   7.2930   7.6427   7.7782   7.9125   8.2603
     8.3845   8.3911   8.4737   8.6203   8.8093   8.8991   9.0395   9.2206
    10.7756  11.2595  11.6543  12.0045  12.7523  13.7339  14.5502  16.4216

          k = 0.3889-0.2245 0.0000 (  4444 PWs)   bands (ev):

   -38.6272 -38.6168 -38.5894 -38.5668 -38.5136 -38.4220 -38.3833 -38.2769
   -38.2540 -38.2502 -38.2210 -38.1848 -38.1499 -38.1305 -38.1112 -38.0985
   -38.0952 -37.8102 -37.8101 -37.7538 -37.7534   2.6008   2.6565   2.7988
     2.9212   2.9851   3.1627   3.2240   3.5410   3.6415   3.8495   4.5119
     4.9472   5.3171   5.3942   5.5520   5.8398   5.8630   5.9549   6.4397
     6.6619   6.8234   7.1284   7.5332   7.8005   8.0716   8.1963   8.2775
     8.4372   8.5002   8.5547   8.5754   8.6968   8.7447   8.8587   8.9689
     9.0889   9.1888   9.4394   9.9733  11.3914  12.9740  14.5350  16.0741

          k =-0.5000-0.8660 0.0000 (  4492 PWs)   bands (ev):

   -38.6844 -38.6731 -38.6383 -38.6045 -38.5741 -38.3964 -38.3963 -38.2710
   -38.2661 -38.2579 -38.2535 -38.1997 -38.1687 -38.1633 -38.1537 -38.1204
   -38.1076 -37.8244 -37.8243 -37.7515 -37.7514   2.3753   2.5632   2.6234
     2.7280   2.8690   3.0166   3.0353   3.3915   3.4474   3.6920   4.4007
     4.8903   5.1429   5.2810   5.4450   5.7483   6.1819   6.2331   6.3823
     7.0787   7.1286   7.2228   7.9000   8.1568   8.3596   8.5090   8.7902
     8.9053   8.9164   9.0020   9.0056   9.0717   9.1973   9.3727   9.3798
     9.7394  10.8351  11.7447  11.9402  12.3477  12.4809  12.6234  16.0932

     the Fermi energy is     8.3500 ev

!    total energy              =   -1198.23261019 Ry
     estimated scf accuracy    <       0.00000008 Ry
     smearing contrib. (-TS)   =      -0.03020381 Ry
     internal energy E=F+TS    =   -1198.20240639 Ry

     The total energy is F=E-TS. E is the sum of the following terms:
     one-electron contribution =  -13471.03484107 Ry
     hartree contribution      =    6781.29922681 Ry
     xc contribution           =    -209.36922747 Ry
     ewald contribution        =    5700.90243535 Ry

     total magnetization       =    -0.00 Bohr mag/cell
     absolute magnetization    =     0.00 Bohr mag/cell

     convergence has been achieved in  10 iterations

     negative rho (up, down):  1.999E-01 1.999E-01

     Forces acting on atoms (cartesian axes, Ry/au):

     atom    1 type  1   force =     0.00000000    0.00000000    0.00076156
     atom    2 type  1   force =     0.00000000    0.00000000    0.00214421
     atom    3 type  1   force =     0.00000000    0.00000000   -0.00010013
     atom    4 type  1   force =     0.00000000    0.00000000   -0.00001040
     atom    5 type  1   force =     0.00000000    0.00000000    0.00010750
     atom    6 type  1   force =     0.00000000    0.00000000   -0.00212112
     atom    7 type  1   force =     0.00000000    0.00000000   -0.00078161

     Total force =     0.003211     Total SCF correction =     0.001760
     SCF correction compared to forces is large: reduce conv_thr to get better values
     Energy error            =      3.4E-05
     Gradient error          =      2.1E-03

     number of scf cycles    =   5
     number of bfgs steps    =   4

     energy   old            =   -1198.2325764764 Ry
     energy   new            =   -1198.2326101920 Ry

     CASE: energy  _new < energy  _old

     new trust radius        =       0.0037673583 bohr
     new conv_thr            =       0.0000001000 Ry


ATOMIC_POSITIONS (angstrom)
Rh            0.0000000000        0.0000000000        0.0306773237
Rh            2.7108568000        1.5651139000        2.2030539981
Rh            1.3554284000        0.7825569000        4.4090745169
Rh            0.0000000000        0.0000000000        6.6402288204
Rh            2.7108568000        1.5651139000        8.8713725149
Rh            1.3554284000        0.7825569000       11.0773728886
Rh            0.0000000000        0.0000000000       13.2497310373



     Writing output data file /home/STUDENTI/leonardo.razzai/WORK/relax_surf/7-L.save/
     NEW-OLD atomic charge density approx. for the potential

     negative rho (up, down):  1.996E-01 1.996E-01
     Generating pointlists ...

     total cpu time spent up to now is      871.3 secs

     Self-consistent Calculation

     iteration #  1     ecut=    35.00 Ry     beta= 0.40
     Davidson diagonalization with overlap
     ethr =  1.00E-06,  avg # of iterations =  5.0

     negative rho (up, down):  1.996E-01 1.996E-01

     total cpu time spent up to now is      896.9 secs

     total energy              =   -1198.23253484 Ry
     estimated scf accuracy    <       0.00553573 Ry

     total magnetization       =    -0.00 Bohr mag/cell
     absolute magnetization    =     0.00 Bohr mag/cell

     iteration #  2     ecut=    35.00 Ry     beta= 0.40
     Davidson diagonalization with overlap
     ethr =  5.27E-06,  avg # of iterations =  1.0

     negative rho (up, down):  1.996E-01 1.996E-01

     total cpu time spent up to now is      910.6 secs

     total energy              =   -1198.23259673 Ry
     estimated scf accuracy    <       0.00307077 Ry

     total magnetization       =    -0.00 Bohr mag/cell
     absolute magnetization    =     0.00 Bohr mag/cell

     iteration #  3     ecut=    35.00 Ry     beta= 0.40
     Davidson diagonalization with overlap
     ethr =  2.92E-06,  avg # of iterations =  1.0

     negative rho (up, down):  1.996E-01 1.996E-01

     total cpu time spent up to now is      924.4 secs

     total energy              =   -1198.23262421 Ry
     estimated scf accuracy    <       0.00020065 Ry

     total magnetization       =    -0.00 Bohr mag/cell
     absolute magnetization    =     0.00 Bohr mag/cell

     iteration #  4     ecut=    35.00 Ry     beta= 0.40
     Davidson diagonalization with overlap
     ethr =  1.91E-07,  avg # of iterations =  1.0

     negative rho (up, down):  1.996E-01 1.996E-01

     total cpu time spent up to now is      938.3 secs

     total energy              =   -1198.23262250 Ry
     estimated scf accuracy    <       0.00009896 Ry

     total magnetization       =    -0.00 Bohr mag/cell
     absolute magnetization    =     0.00 Bohr mag/cell

     iteration #  5     ecut=    35.00 Ry     beta= 0.40
     Davidson diagonalization with overlap
     ethr =  9.42E-08,  avg # of iterations =  1.0

     negative rho (up, down):  1.996E-01 1.996E-01

     total cpu time spent up to now is      952.1 secs

     total energy              =   -1198.23262289 Ry
     estimated scf accuracy    <       0.00001110 Ry

     total magnetization       =    -0.00 Bohr mag/cell
     absolute magnetization    =     0.00 Bohr mag/cell

     iteration #  6     ecut=    35.00 Ry     beta= 0.40
     Davidson diagonalization with overlap
     ethr =  1.06E-08,  avg # of iterations =  1.0

     negative rho (up, down):  1.996E-01 1.996E-01

     total cpu time spent up to now is      965.7 secs

     total energy              =   -1198.23262297 Ry
     estimated scf accuracy    <       0.00000066 Ry

     total magnetization       =    -0.00 Bohr mag/cell
     absolute magnetization    =     0.00 Bohr mag/cell

     iteration #  7     ecut=    35.00 Ry     beta= 0.40
     Davidson diagonalization with overlap
     ethr =  6.31E-10,  avg # of iterations =  1.2

     negative rho (up, down):  1.996E-01 1.996E-01

     total cpu time spent up to now is      979.7 secs

     total energy              =   -1198.23262296 Ry
     estimated scf accuracy    <       0.00000049 Ry

     total magnetization       =    -0.00 Bohr mag/cell
     absolute magnetization    =     0.00 Bohr mag/cell

     iteration #  8     ecut=    35.00 Ry     beta= 0.40
     Davidson diagonalization with overlap
     ethr =  4.67E-10,  avg # of iterations =  1.1

     negative rho (up, down):  1.996E-01 1.996E-01

     total cpu time spent up to now is      993.6 secs

     total energy              =   -1198.23262301 Ry
     estimated scf accuracy    <       0.00000032 Ry

     total magnetization       =    -0.00 Bohr mag/cell
     absolute magnetization    =     0.00 Bohr mag/cell

     iteration #  9     ecut=    35.00 Ry     beta= 0.40
     Davidson diagonalization with overlap
     ethr =  3.02E-10,  avg # of iterations =  1.2

     negative rho (up, down):  1.996E-01 1.996E-01

     total cpu time spent up to now is     1007.7 secs

     total energy              =   -1198.23262314 Ry
     estimated scf accuracy    <       0.00000011 Ry

     total magnetization       =    -0.00 Bohr mag/cell
     absolute magnetization    =     0.00 Bohr mag/cell

     iteration # 10     ecut=    35.00 Ry     beta= 0.40
     Davidson diagonalization with overlap
     ethr =  1.06E-10,  avg # of iterations =  1.5

     negative rho (up, down):  1.996E-01 1.996E-01
 
     Magnetic moment per site:
     atom:    1    charge:   13.1069    magn:   -0.0000    constr:    0.0000
     atom:    2    charge:   13.1620    magn:   -0.0000    constr:    0.0000
     atom:    3    charge:   13.1567    magn:    0.0000    constr:    0.0000
     atom:    4    charge:   13.1511    magn:    0.0000    constr:    0.0000
     atom:    5    charge:   13.1567    magn:   -0.0000    constr:    0.0000
     atom:    6    charge:   13.1619    magn:   -0.0000    constr:    0.0000
     atom:    7    charge:   13.1067    magn:    0.0000    constr:    0.0000

     total cpu time spent up to now is     1021.8 secs

     End of self-consistent calculation

 ------ SPIN UP ------------


          k = 0.0556 0.0962 0.0000 (  4451 PWs)   bands (ev):

   -38.6405 -38.5897 -38.4153 -38.2652 -38.1784 -38.1679 -38.1462 -38.1452
   -38.1095 -38.1077 -38.0784 -38.0668 -38.0539 -38.0413 -38.0140 -37.7790
   -37.7780 -37.7467 -37.7466 -37.7151 -37.7150   1.0437   1.5007   2.2104
     2.7181   2.7413   3.0334   3.0815   4.9087   4.9284   5.1249   5.1818
     5.2723   5.3542   5.5595   5.5798   5.6140   5.6501   5.6565   5.6925
     5.7896   5.8446   5.8976   5.9591   6.0908   6.1970   6.2013   6.7507
     7.0561   7.0985   7.2813   7.3292   7.5189   7.5536   7.6738   7.7648
     8.0648   8.1045   8.5976   8.6217   8.8143   9.3722  10.3021  10.8453

          k = 0.0556 0.2245 0.0000 (  4420 PWs)   bands (ev):

   -38.5906 -38.5577 -38.4282 -38.3537 -38.3065 -38.2548 -38.2312 -38.2092
   -38.1792 -38.1778 -38.1397 -38.1133 -38.0923 -38.0669 -38.0418 -37.8729
   -37.8728 -37.7671 -37.7667 -37.7482 -37.7477   1.9575   2.3331   2.9292
     3.2892   3.4118   3.6851   3.7834   4.2246   4.4953   4.5964   4.6462
     4.8347   4.8760   5.3543   5.4671   5.6163   5.7164   5.7998   5.8541
     5.9220   6.0415   6.1829   6.2993   6.4286   6.5177   6.6403   6.7258
     6.7698   6.9217   7.0598   7.1629   7.3341   7.6283   7.7162   7.9672
     8.0967   8.5172   8.6637   8.8200   9.5434  10.7428  11.9696  12.8620

          k = 0.0556 0.3528 0.0000 (  4467 PWs)   bands (ev):

   -38.5564 -38.5367 -38.5212 -38.5041 -38.4368 -38.4039 -38.3529 -38.2663
   -38.2337 -38.2295 -38.1905 -38.1622 -38.1373 -38.0950 -38.0774 -38.0258
   -38.0249 -37.7918 -37.7918 -37.7583 -37.7582   2.7493   2.9947   3.0455
     3.1313   3.3673   3.4187   3.6533   3.8114   4.0803   4.1445   4.6364
     4.9492   5.1322   5.3551   5.5517   5.6637   5.6879   5.7837   6.0381
     6.1629   6.4455   6.5976   6.7399   6.8181   7.0428   7.3059   7.4688
     7.5250   7.7275   7.8389   7.9893   8.1001   8.2835   8.3581   8.4853
     8.4957   8.6703   8.9109   9.3111  10.6591  12.1648  13.6471  14.8550

          k = 0.0556 0.4811 0.0000 (  4463 PWs)   bands (ev):

   -38.6486 -38.6378 -38.6056 -38.5797 -38.5342 -38.4133 -38.3871 -38.2820
   -38.2726 -38.2623 -38.2271 -38.1957 -38.1720 -38.1362 -38.1285 -38.1116
   -38.1026 -37.8247 -37.8247 -37.7521 -37.7518   2.5668   2.6847   2.7893
     2.8882   3.0020   3.1723   3.1816   3.5461   3.6336   3.8112   4.4536
     4.8719   5.2131   5.3786   5.5103   5.7472   5.9299   5.9847   6.4869
     6.6693   6.8341   7.2273   7.5118   7.8559   8.0477   8.0962   8.3880
     8.4767   8.5798   8.6243   8.7210   8.7375   8.8869   8.9874   9.1455
     9.5874  10.1163  10.4457  10.7780  11.8694  13.2715  14.6221  16.3665

          k = 0.0556-0.5453 0.0000 (  4486 PWs)   bands (ev):

   -38.6771 -38.6655 -38.6298 -38.5989 -38.5636 -38.4000 -38.3930 -38.2850
   -38.2807 -38.2592 -38.2435 -38.2030 -38.1826 -38.1533 -38.1491 -38.1180
   -38.1125 -37.8325 -37.8321 -37.7509 -37.7506   2.4497   2.6338   2.6993
     2.7896   2.9392   3.0858   3.1043   3.4690   3.5374   3.7353   4.4089
     4.8430   5.1207   5.3317   5.4469   5.7611   5.9840   6.1355   6.4927
     6.8071   7.0708   7.2814   7.7149   8.0764   8.1966   8.4533   8.4938
     8.6990   8.7884   8.8711   8.9021   8.9659   9.0407   9.1468   9.2625
    10.2153  11.0004  11.7341  11.8977  12.1994  12.9109  13.4806  16.1818

          k = 0.0556-0.4170 0.0000 (  4465 PWs)   bands (ev):

   -38.5972 -38.5886 -38.5668 -38.5477 -38.4809 -38.4325 -38.3782 -38.2766
   -38.2564 -38.2506 -38.2097 -38.1818 -38.1564 -38.1119 -38.0977 -38.0851
   -38.0793 -37.8109 -37.8109 -37.7547 -37.7543   2.7538   2.7802   2.9496
     3.0449   3.1113   3.2925   3.3674   3.6687   3.8230   3.9514   4.5457
     4.9138   5.3296   5.4637   5.5860   5.6410   5.7116   5.9595   6.2665
     6.3861   6.6048   6.9949   7.1778   7.3825   7.5760   7.6931   8.0069
     8.0901   8.1311   8.2568   8.3717   8.5155   8.6223   8.7299   8.8957
     9.0170   9.2031   9.2771   9.9128  11.2791  12.8420  14.4005  15.7749

          k = 0.0556-0.2887 0.0000 (  4439 PWs)   bands (ev):

   -38.5623 -38.5419 -38.4627 -38.4299 -38.3822 -38.3257 -38.3001 -38.2456
   -38.2065 -38.2040 -38.1689 -38.1380 -38.1151 -38.0794 -38.0590 -37.9516
   -37.9510 -37.7699 -37.7699 -37.7623 -37.7619   2.4739   2.7475   3.1238
     3.2946   3.5138   3.7095   3.9027   4.0392   4.2290   4.3817   4.6237
     4.6856   5.0032   5.1307   5.4961   5.6739   5.7574   5.8126   5.9044
     6.0308   6.1074   6.2771   6.3735   6.6839   6.7314   6.8347   6.9871
     7.1614   7.2312   7.3443   7.5824   7.6941   7.8335   7.9657   8.0770
     8.2602   8.5759   8.8566   8.9241  10.0815  11.4549  12.8191  13.8793

          k = 0.0556-0.1604 0.0000 (  4443 PWs)   bands (ev):

   -38.6193 -38.5755 -38.4172 -38.2962 -38.2341 -38.2049 -38.1736 -38.1662
   -38.1521 -38.1447 -38.1016 -38.0913 -38.0686 -38.0587 -38.0265 -37.8040
   -37.8039 -37.7708 -37.7704 -37.7291 -37.7290   1.4375   1.8710   2.5548
     3.0270   3.0579   3.3539   3.4026   4.5920   4.7127   4.8803   4.9550
     5.0560   5.0927   5.4260   5.5601   5.6684   5.7492   5.7971   5.8768
     5.8884   5.9363   5.9896   6.0253   6.2132   6.2672   6.4292   6.5013
     6.8901   6.9814   7.0496   7.1210   7.3078   7.5045   7.6408   7.8673
     8.0114   8.3704   8.5654   8.7981   9.0524  10.0374  11.1155  11.8259

          k = 0.0556-0.0321 0.0000 (  4465 PWs)   bands (ev):

   -38.6518 -38.5979 -38.4162 -38.2550 -38.1480 -38.1451 -38.1367 -38.1355
   -38.0854 -38.0797 -38.0726 -38.0539 -38.0524 -38.0186 -38.0070 -37.7809
   -37.7795 -37.7189 -37.7187 -37.7078 -37.7075   0.8349   1.2999   2.0164
     2.5333   2.5711   2.8502   2.8984   5.0765   5.1107   5.2731   5.3421
     5.3890   5.4128   5.4307   5.5005   5.5215   5.6201   5.6449   5.6621
     5.7045   5.7407   5.9173   5.9738   6.0396   6.0534   6.2994   7.1538
     7.1942   7.2536   7.3676   7.3760   7.5210   7.5582   7.8077   7.9196
     8.1467   8.2638   8.2642   8.6668   8.8335   8.8571   9.6692  10.0978

          k = 0.1667 0.2887 0.0000 (  4425 PWs)   bands (ev):

   -38.5411 -38.5363 -38.4798 -38.4585 -38.4192 -38.3653 -38.3308 -38.2653
   -38.2336 -38.2329 -38.1740 -38.1672 -38.1428 -38.1136 -38.0709 -37.9828
   -37.9827 -37.8028 -37.8027 -37.7588 -37.7584   2.9442   3.0868   3.3669
     3.6971   3.8828   3.9032   4.0072   4.0623   4.0749   4.2612   4.3878
     4.5432   4.9842   5.0252   5.1051   5.3129   5.4827   5.4858   5.5283
     5.6682   6.2018   6.2410   6.4535   6.5532   6.6714   7.1119   7.1661
     7.3065   7.5611   7.7280   7.9587   8.1859   8.3186   8.4413   8.4536
     8.5660   8.6297   8.7209   9.4092  10.6357  12.0186  13.4183  14.5629

          k = 0.1667 0.4170 0.0000 (  4459 PWs)   bands (ev):

   -38.5829 -38.5730 -38.5521 -38.5318 -38.4770 -38.4410 -38.3809 -38.3083
   -38.3054 -38.2783 -38.2234 -38.2158 -38.1966 -38.1592 -38.1018 -38.0773
   -38.0756 -37.8648 -37.8647 -37.7517 -37.7515   3.1191   3.1847   3.3156
     3.4646   3.5239   3.5857   3.8076   3.8951   4.1110   4.2939   4.5530
     4.6688   4.9190   5.1037   5.1946   5.4321   5.5330   5.8868   5.9616
     6.1228   6.2023   6.4420   6.5680   6.8385   7.1371   7.2789   7.4164
     7.6351   7.7729   8.0117   8.4920   8.7819   8.8712   8.9445   9.1159
    10.1830  10.3285  10.5433  11.1647  12.2809  13.6663  15.1122  16.4060

          k = 0.1667 0.5453 0.0000 (  4490 PWs)   bands (ev):

   -38.6397 -38.6289 -38.5916 -38.5667 -38.5300 -38.4049 -38.3872 -38.3552
   -38.3413 -38.2960 -38.2591 -38.2371 -38.2218 -38.1690 -38.1295 -38.1215
   -38.1194 -37.8986 -37.8984 -37.7479 -37.7478   2.8143   3.1006   3.1079
     3.2398   3.3777   3.4678   3.6044   3.8492   4.0387   4.0860   4.4321
     4.5449   4.7971   5.1680   5.4762   5.6548   5.7246   5.9309   6.2011
     6.3270   6.5404   6.8220   7.1938   7.2463   7.3441   7.7288   8.0184
     8.1637   8.2931   8.4100   8.5878   8.7144   8.8020   8.9974   9.1243
    12.0424  12.4633  12.8824  13.2821  13.7873  14.2630  14.5119  16.4915

          k = 0.1667-0.4811 0.0000 (  4476 PWs)   bands (ev):

   -38.6194 -38.6087 -38.5777 -38.5534 -38.5121 -38.4199 -38.3856 -38.3376
   -38.3291 -38.2881 -38.2439 -38.2357 -38.2109 -38.1673 -38.1184 -38.1070
   -38.1041 -37.8869 -37.8866 -37.7492 -37.7490   2.9224   3.1320   3.1761
     3.3413   3.4187   3.5090   3.6755   3.8849   4.0453   4.1770   4.4488
     4.6454   4.9085   5.0438   5.4568   5.5291   5.7536   5.9534   6.0493
     6.1685   6.5273   6.6717   6.9291   7.0669   7.1986   7.6204   7.8146
     7.8329   7.9869   8.1388   8.5468   8.8368   8.8882   9.0464   9.2134
    11.1499  11.4118  11.7264  12.2985  13.2367  14.4105  15.5524  16.7405

          k = 0.1667-0.3528 0.0000 (  4458 PWs)   bands (ev):

   -38.5469 -38.5374 -38.5190 -38.5046 -38.4523 -38.4268 -38.3651 -38.2804
   -38.2706 -38.2650 -38.1989 -38.1846 -38.1786 -38.1415 -38.0855 -38.0349
   -38.0344 -37.8354 -37.8353 -37.7553 -37.7552   3.2080   3.3064   3.3978
     3.5324   3.6514   3.7514   3.8577   4.0045   4.2408   4.3055   4.4682
     4.6726   4.8509   4.9660   5.2278   5.3444   5.3891   5.5958   5.7867
     5.8677   6.1179   6.1684   6.4491   6.7227   6.8867   7.0573   7.3339
     7.4836   7.6979   7.8728   8.3448   8.5372   8.6527   8.6745   8.8898
     9.2896   9.3552   9.4824  10.1427  11.3710  12.7983  14.2498  15.4840

          k = 0.1667-0.2245 0.0000 (  4433 PWs)   bands (ev):

   -38.5662 -38.5450 -38.4481 -38.4043 -38.3624 -38.3026 -38.2846 -38.2432
   -38.2024 -38.2006 -38.1621 -38.1362 -38.1147 -38.0833 -38.0587 -37.9268
   -37.9267 -37.7727 -37.7727 -37.7628 -37.7624   2.4265   2.7241   3.2100
     3.5746   3.6939   3.8478   3.9782   4.1502   4.2822   4.3238   4.4908
     4.6698   4.7916   5.0978   5.2810   5.4361   5.5138   5.6217   5.7499
     5.8387   6.0633   6.2294   6.5190   6.5710   6.6057   6.8360   6.9211
     7.1694   7.1945   7.2737   7.5874   7.6907   7.8859   8.0346   8.0486
     8.1544   8.4703   8.6858   8.9585  10.0472  11.3358  12.6516  13.6765

          k = 0.1667-0.0962 0.0000 (  4427 PWs)   bands (ev):

   -38.6099 -38.5692 -38.4197 -38.3158 -38.2616 -38.2223 -38.1883 -38.1727
   -38.1673 -38.1655 -38.1092 -38.1016 -38.0783 -38.0623 -38.0282 -37.8293
   -37.8292 -37.7699 -37.7694 -37.7338 -37.7336   1.6158   2.0316   2.6869
     3.1016   3.1876   3.4732   3.5447   4.4081   4.6749   4.7807   4.8346
     4.9867   5.0056   5.5027   5.5504   5.6882   5.7908   5.8070   5.9028
     5.9903   6.0239   6.0915   6.1194   6.1365   6.3337   6.4426   6.6033
     6.7103   6.9152   6.9659   7.1496   7.2873   7.5168   7.5963   7.8688
     8.1767   8.2896   8.7015   8.9084   9.1326  10.2772  11.4269  12.2054

          k = 0.2778 0.4811 0.0000 (  4485 PWs)   bands (ev):

   -38.5826 -38.5793 -38.5466 -38.5336 -38.4797 -38.4605 -38.4290 -38.3852
   -38.3614 -38.3345 -38.2931 -38.2817 -38.2033 -38.1973 -38.1298 -38.0859
   -38.0857 -37.9575 -37.9574 -37.7467 -37.7465   3.3409   3.3583   3.5155
     3.5845   3.8268   3.9702   4.1158   4.1709   4.2436   4.3301   4.4004
     4.4891   4.8190   4.9627   5.1354   5.3383   5.5983   5.6972   6.0216
     6.0322   6.2453   6.2457   6.7426   6.8545   7.0066   7.2545   7.4141
     7.4832   7.8186   8.1652   8.5333   8.7990   8.8378   8.9034   9.1069
    12.4984  12.7248  13.1846  13.8680  14.7977  15.8960  16.8260  16.9369

          k = 0.2778 0.6094 0.0000 (  4491 PWs)   bands (ev):

   -38.5749 -38.5669 -38.5324 -38.5269 -38.4937 -38.4689 -38.4427 -38.4121
   -38.3818 -38.3608 -38.3030 -38.2980 -38.2042 -38.1939 -38.1421 -38.0780
   -38.0778 -37.9894 -37.9892 -37.7455 -37.7450   3.3129   3.5415   3.5858
     3.7277   3.8477   3.9909   4.0471   4.0966   4.1763   4.3533   4.4002
     4.5660   4.7147   5.0897   5.1951   5.4168   5.5464   5.6856   5.9375
     5.9937   6.2878   6.3098   6.7125   6.9143   7.0970   7.2504   7.4540
     7.5184   8.1136   8.3241   8.4715   8.6248   8.6949   8.7416   8.8845
    13.7104  14.0034  14.4622  14.9066  15.2940  15.7590  16.2886  16.5139

          k = 0.2778-0.4170 0.0000 (  4462 PWs)   bands (ev):

   -38.5891 -38.5812 -38.5550 -38.5331 -38.4889 -38.4423 -38.3975 -38.3479
   -38.3415 -38.3026 -38.2624 -38.2489 -38.2033 -38.1882 -38.1141 -38.0871
   -38.0865 -37.9122 -37.9121 -37.7486 -37.7484   3.1993   3.3325   3.4102
     3.5519   3.6763   3.7763   3.9328   4.1383   4.2437   4.2992   4.5341
     4.6962   4.7547   4.8584   5.1980   5.2716   5.5912   5.7789   6.0138
     6.0881   6.2390   6.3171   6.5397   6.8323   7.0481   7.2741   7.4389
     7.5645   7.6700   8.0223   8.5372   8.8965   8.9249   9.0241   9.2123
    11.3248  11.4714  11.8251  12.4783  13.4904  14.7514  16.0766  17.2416

          k = 0.2778-0.2887 0.0000 (  4463 PWs)   bands (ev):

   -38.5658 -38.5562 -38.5402 -38.5247 -38.4519 -38.4387 -38.3701 -38.2775
   -38.2663 -38.2578 -38.1981 -38.1855 -38.1735 -38.1195 -38.0915 -38.0566
   -38.0548 -37.8231 -37.8228 -37.7549 -37.7548   2.9646   3.0792   3.2131
     3.2497   3.3736   3.4898   3.6274   3.8541   4.0517   4.1899   4.5432
     4.7854   5.1461   5.1770   5.4100   5.5369   5.6331   5.7972   5.9814
     6.1453   6.3460   6.5646   6.6928   6.8222   7.1275   7.3311   7.4777
     7.5804   7.8293   8.1280   8.3706   8.4608   8.6526   8.6739   8.9217
     9.1402   9.3218   9.3987  10.0514  11.3205  12.8020  14.2991  15.5765

          k = 0.2778-0.1604 0.0000 (  4458 PWs)   bands (ev):

   -38.5575 -38.5363 -38.4900 -38.4678 -38.4106 -38.3622 -38.3270 -38.2553
   -38.2144 -38.2117 -38.1819 -38.1459 -38.1165 -38.0865 -38.0629 -37.9883
   -37.9878 -37.7745 -37.7743 -37.7610 -37.7606   2.5804   2.8306   3.0424
     3.1414   3.4057   3.5228   3.7762   3.8519   4.1080   4.2692   4.6865
     4.9350   5.1463   5.3294   5.5514   5.6812   5.7958   5.8405   6.0357
     6.1543   6.4177   6.5191   6.5500   6.7201   6.8579   7.0791   7.2687
     7.3378   7.4159   7.4824   7.6541   7.8320   7.8717   7.9593   8.1033
     8.3295   8.7405   8.9117   8.9738  10.2560  11.7241  13.1533  14.2794

          k = 0.3889 0.6736 0.0000 (  4511 PWs)   bands (ev):

   -38.6114 -38.6003 -38.5621 -38.5448 -38.5072 -38.4265 -38.4218 -38.3774
   -38.3748 -38.3325 -38.2899 -38.2728 -38.2153 -38.1840 -38.1354 -38.1036
   -38.1034 -37.9480 -37.9476 -37.7464 -37.7462   3.0393   3.3252   3.4174
     3.6103   3.6352   3.7865   3.7944   4.0700   4.1650   4.2408   4.4884
     4.5309   4.6930   4.9358   5.3086   5.4931   5.7203   5.9176   5.9278
     6.2652   6.3345   6.7204   6.7227   6.8101   7.1598   7.4914   7.7166
     7.8485   8.2694   8.3865   8.4544   8.6286   8.7086   8.9194   8.9245
    13.2398  13.5405  13.8461  14.1472  14.5080  14.9174  15.2453  16.6290

          k = 0.3889-0.3528 0.0000 (  4485 PWs)   bands (ev):

   -38.6529 -38.6418 -38.6069 -38.5795 -38.5411 -38.4050 -38.3866 -38.3123
   -38.3045 -38.2695 -38.2366 -38.2115 -38.2081 -38.1456 -38.1357 -38.1246
   -38.1127 -37.8556 -37.8556 -37.7502 -37.7499   2.6518   2.8407   2.9131
     2.9902   3.1387   3.2525   3.3493   3.6640   3.7891   3.8795   4.4123
     4.7298   5.0334   5.3621   5.4860   5.6972   5.8396   5.9061   6.4182
     6.5746   6.6543   7.1877   7.2926   7.6433   7.7783   7.9129   8.2613
     8.3852   8.3915   8.4749   8.6217   8.8102   8.9004   9.0402   9.2218
    10.7760  11.2596  11.6553  12.0055  12.7533  13.7362  14.5516  16.4224

          k = 0.3889-0.2245 0.0000 (  4444 PWs)   bands (ev):

   -38.6282 -38.6181 -38.5902 -38.5680 -38.5120 -38.4227 -38.3842 -38.2763
   -38.2550 -38.2514 -38.2210 -38.1838 -38.1499 -38.1293 -38.1109 -38.0978
   -38.0938 -37.8098 -37.8096 -37.7536 -37.7532   2.5997   2.6557   2.7954
     2.9191   2.9834   3.1632   3.2205   3.5408   3.6417   3.8499   4.5120
     4.9471   5.3181   5.3954   5.5502   5.8344   5.8622   5.9544   6.4405
     6.6602   6.8241   7.1283   7.5341   7.7994   8.0723   8.1971   8.2776
     8.4378   8.4989   8.5550   8.5758   8.6981   8.7456   8.8590   8.9700
     9.0906   9.1898   9.4407   9.9748  11.3931  12.9773  14.5373  16.0761

          k =-0.5000-0.8660 0.0000 (  4492 PWs)   bands (ev):

   -38.6854 -38.6746 -38.6387 -38.6055 -38.5721 -38.3975 -38.3975 -38.2719
   -38.2673 -38.2568 -38.2538 -38.1987 -38.1681 -38.1633 -38.1537 -38.1192
   -38.1062 -37.8240 -37.8238 -37.7513 -37.7512   2.3742   2.5624   2.6196
     2.7268   2.8660   3.0178   3.0317   3.3917   3.4473   3.6923   4.4008
     4.8899   5.1442   5.2824   5.4432   5.7429   6.1818   6.2323   6.3833
     7.0777   7.1286   7.2232   7.8990   8.1581   8.3610   8.5108   8.7910
     8.9049   8.9152   9.0034   9.0066   9.0720   9.1983   9.3731   9.3804
     9.7397  10.8352  11.7454  11.9427  12.3492  12.4828  12.6242  16.0933

 ------ SPIN DOWN ----------


          k = 0.0556 0.0962 0.0000 (  4451 PWs)   bands (ev):

   -38.6405 -38.5897 -38.4153 -38.2652 -38.1784 -38.1679 -38.1462 -38.1452
   -38.1095 -38.1077 -38.0784 -38.0668 -38.0539 -38.0413 -38.0140 -37.7790
   -37.7780 -37.7467 -37.7466 -37.7151 -37.7150   1.0437   1.5007   2.2104
     2.7181   2.7413   3.0334   3.0815   4.9087   4.9284   5.1249   5.1818
     5.2723   5.3542   5.5595   5.5798   5.6140   5.6501   5.6565   5.6925
     5.7896   5.8446   5.8976   5.9591   6.0908   6.1970   6.2013   6.7507
     7.0561   7.0985   7.2813   7.3292   7.5189   7.5536   7.6738   7.7648
     8.0648   8.1045   8.5976   8.6217   8.8143   9.3722  10.3021  10.8453

          k = 0.0556 0.2245 0.0000 (  4420 PWs)   bands (ev):

   -38.5906 -38.5577 -38.4282 -38.3537 -38.3065 -38.2548 -38.2312 -38.2092
   -38.1792 -38.1778 -38.1397 -38.1133 -38.0923 -38.0669 -38.0418 -37.8729
   -37.8728 -37.7671 -37.7667 -37.7482 -37.7477   1.9575   2.3331   2.9292
     3.2892   3.4118   3.6851   3.7834   4.2246   4.4953   4.5964   4.6462
     4.8347   4.8760   5.3543   5.4671   5.6163   5.7164   5.7998   5.8541
     5.9220   6.0415   6.1829   6.2993   6.4286   6.5177   6.6403   6.7258
     6.7698   6.9217   7.0598   7.1629   7.3341   7.6283   7.7162   7.9672
     8.0967   8.5172   8.6637   8.8200   9.5434  10.7428  11.9696  12.8620

          k = 0.0556 0.3528 0.0000 (  4467 PWs)   bands (ev):

   -38.5564 -38.5367 -38.5212 -38.5041 -38.4368 -38.4039 -38.3529 -38.2663
   -38.2337 -38.2295 -38.1905 -38.1622 -38.1373 -38.0950 -38.0774 -38.0258
   -38.0249 -37.7918 -37.7918 -37.7583 -37.7582   2.7493   2.9947   3.0455
     3.1313   3.3673   3.4187   3.6533   3.8114   4.0803   4.1445   4.6364
     4.9492   5.1322   5.3551   5.5517   5.6637   5.6879   5.7837   6.0381
     6.1629   6.4455   6.5976   6.7399   6.8181   7.0428   7.3059   7.4688
     7.5250   7.7275   7.8389   7.9893   8.1001   8.2835   8.3581   8.4853
     8.4957   8.6703   8.9109   9.3111  10.6591  12.1648  13.6471  14.8550

          k = 0.0556 0.4811 0.0000 (  4463 PWs)   bands (ev):

   -38.6486 -38.6378 -38.6056 -38.5797 -38.5342 -38.4133 -38.3871 -38.2820
   -38.2726 -38.2623 -38.2271 -38.1957 -38.1720 -38.1362 -38.1285 -38.1116
   -38.1026 -37.8247 -37.8247 -37.7521 -37.7518   2.5668   2.6847   2.7893
     2.8882   3.0020   3.1723   3.1816   3.5461   3.6336   3.8112   4.4536
     4.8719   5.2131   5.3786   5.5103   5.7472   5.9299   5.9847   6.4869
     6.6693   6.8341   7.2273   7.5118   7.8559   8.0477   8.0962   8.3880
     8.4767   8.5798   8.6243   8.7210   8.7375   8.8869   8.9874   9.1455
     9.5874  10.1163  10.4457  10.7780  11.8694  13.2715  14.6221  16.3665

          k = 0.0556-0.5453 0.0000 (  4486 PWs)   bands (ev):

   -38.6771 -38.6655 -38.6298 -38.5989 -38.5636 -38.4000 -38.3930 -38.2850
   -38.2807 -38.2592 -38.2435 -38.2030 -38.1826 -38.1533 -38.1491 -38.1180
   -38.1125 -37.8325 -37.8321 -37.7509 -37.7506   2.4497   2.6338   2.6993
     2.7896   2.9392   3.0858   3.1043   3.4690   3.5374   3.7353   4.4089
     4.8430   5.1207   5.3317   5.4469   5.7611   5.9840   6.1355   6.4927
     6.8071   7.0708   7.2814   7.7149   8.0764   8.1966   8.4533   8.4938
     8.6990   8.7884   8.8711   8.9021   8.9659   9.0407   9.1468   9.2625
    10.2153  11.0004  11.7341  11.8977  12.1994  12.9109  13.4806  16.1831

          k = 0.0556-0.4170 0.0000 (  4465 PWs)   bands (ev):

   -38.5972 -38.5886 -38.5668 -38.5477 -38.4809 -38.4325 -38.3782 -38.2766
   -38.2564 -38.2506 -38.2097 -38.1818 -38.1564 -38.1119 -38.0977 -38.0851
   -38.0793 -37.8109 -37.8109 -37.7547 -37.7543   2.7538   2.7802   2.9496
     3.0449   3.1113   3.2925   3.3674   3.6687   3.8230   3.9514   4.5457
     4.9138   5.3296   5.4637   5.5860   5.6410   5.7116   5.9595   6.2665
     6.3861   6.6048   6.9949   7.1778   7.3825   7.5760   7.6931   8.0069
     8.0901   8.1311   8.2568   8.3717   8.5155   8.6223   8.7299   8.8957
     9.0170   9.2031   9.2771   9.9128  11.2791  12.8420  14.4005  15.7749

          k = 0.0556-0.2887 0.0000 (  4439 PWs)   bands (ev):

   -38.5623 -38.5419 -38.4627 -38.4299 -38.3822 -38.3257 -38.3001 -38.2456
   -38.2065 -38.2040 -38.1689 -38.1380 -38.1151 -38.0794 -38.0590 -37.9516
   -37.9510 -37.7699 -37.7699 -37.7623 -37.7619   2.4739   2.7475   3.1238
     3.2946   3.5138   3.7095   3.9027   4.0392   4.2290   4.3817   4.6237
     4.6856   5.0032   5.1307   5.4961   5.6739   5.7574   5.8126   5.9044
     6.0308   6.1074   6.2771   6.3735   6.6839   6.7314   6.8347   6.9871
     7.1614   7.2312   7.3443   7.5824   7.6941   7.8335   7.9657   8.0770
     8.2602   8.5759   8.8566   8.9241  10.0815  11.4549  12.8191  13.8793

          k = 0.0556-0.1604 0.0000 (  4443 PWs)   bands (ev):

   -38.6193 -38.5755 -38.4172 -38.2962 -38.2341 -38.2049 -38.1736 -38.1662
   -38.1521 -38.1447 -38.1016 -38.0913 -38.0686 -38.0587 -38.0265 -37.8040
   -37.8039 -37.7708 -37.7704 -37.7291 -37.7290   1.4375   1.8710   2.5548
     3.0270   3.0579   3.3539   3.4026   4.5920   4.7127   4.8803   4.9550
     5.0560   5.0927   5.4260   5.5601   5.6684   5.7492   5.7971   5.8768
     5.8884   5.9363   5.9896   6.0253   6.2132   6.2672   6.4292   6.5013
     6.8901   6.9814   7.0496   7.1210   7.3078   7.5045   7.6408   7.8673
     8.0114   8.3704   8.5654   8.7981   9.0524  10.0374  11.1155  11.8259

          k = 0.0556-0.0321 0.0000 (  4465 PWs)   bands (ev):

   -38.6518 -38.5979 -38.4162 -38.2550 -38.1480 -38.1451 -38.1367 -38.1355
   -38.0854 -38.0797 -38.0726 -38.0539 -38.0524 -38.0186 -38.0070 -37.7809
   -37.7795 -37.7189 -37.7187 -37.7078 -37.7075   0.8349   1.2999   2.0164
     2.5333   2.5711   2.8502   2.8984   5.0765   5.1107   5.2731   5.3421
     5.3890   5.4128   5.4307   5.5005   5.5215   5.6201   5.6449   5.6621
     5.7045   5.7407   5.9173   5.9738   6.0396   6.0534   6.2994   7.1538
     7.1942   7.2536   7.3676   7.3760   7.5210   7.5582   7.8077   7.9196
     8.1467   8.2638   8.2642   8.6668   8.8335   8.8571   9.6692  10.0978

          k = 0.1667 0.2887 0.0000 (  4425 PWs)   bands (ev):

   -38.5411 -38.5363 -38.4798 -38.4585 -38.4192 -38.3653 -38.3308 -38.2653
   -38.2336 -38.2329 -38.1740 -38.1672 -38.1428 -38.1136 -38.0709 -37.9828
   -37.9827 -37.8028 -37.8027 -37.7588 -37.7584   2.9442   3.0868   3.3669
     3.6971   3.8828   3.9032   4.0072   4.0623   4.0749   4.2612   4.3878
     4.5432   4.9842   5.0252   5.1051   5.3129   5.4827   5.4858   5.5283
     5.6682   6.2018   6.2410   6.4535   6.5532   6.6714   7.1119   7.1661
     7.3065   7.5611   7.7280   7.9587   8.1859   8.3186   8.4413   8.4536
     8.5660   8.6297   8.7209   9.4092  10.6357  12.0186  13.4183  14.5629

          k = 0.1667 0.4170 0.0000 (  4459 PWs)   bands (ev):

   -38.5829 -38.5730 -38.5521 -38.5318 -38.4770 -38.4410 -38.3809 -38.3083
   -38.3054 -38.2783 -38.2234 -38.2158 -38.1966 -38.1592 -38.1018 -38.0773
   -38.0756 -37.8648 -37.8647 -37.7517 -37.7515   3.1191   3.1847   3.3156
     3.4646   3.5239   3.5857   3.8076   3.8951   4.1110   4.2939   4.5530
     4.6688   4.9190   5.1037   5.1946   5.4321   5.5330   5.8868   5.9616
     6.1228   6.2023   6.4420   6.5680   6.8385   7.1371   7.2789   7.4164
     7.6351   7.7729   8.0117   8.4920   8.7819   8.8712   8.9445   9.1159
    10.1830  10.3285  10.5433  11.1647  12.2809  13.6663  15.1122  16.4060

          k = 0.1667 0.5453 0.0000 (  4490 PWs)   bands (ev):

   -38.6397 -38.6289 -38.5916 -38.5667 -38.5300 -38.4049 -38.3872 -38.3552
   -38.3413 -38.2960 -38.2591 -38.2371 -38.2218 -38.1690 -38.1295 -38.1215
   -38.1194 -37.8986 -37.8984 -37.7479 -37.7478   2.8143   3.1006   3.1079
     3.2398   3.3777   3.4678   3.6044   3.8492   4.0387   4.0860   4.4321
     4.5449   4.7971   5.1680   5.4762   5.6548   5.7246   5.9309   6.2011
     6.3270   6.5404   6.8220   7.1938   7.2463   7.3441   7.7288   8.0184
     8.1637   8.2931   8.4100   8.5878   8.7144   8.8020   8.9974   9.1243
    12.0424  12.4633  12.8824  13.2821  13.7873  14.2630  14.5119  16.4925

          k = 0.1667-0.4811 0.0000 (  4476 PWs)   bands (ev):

   -38.6194 -38.6087 -38.5777 -38.5534 -38.5121 -38.4199 -38.3856 -38.3376
   -38.3291 -38.2881 -38.2439 -38.2357 -38.2109 -38.1673 -38.1184 -38.1070
   -38.1041 -37.8869 -37.8866 -37.7492 -37.7490   2.9224   3.1320   3.1761
     3.3413   3.4187   3.5090   3.6755   3.8849   4.0453   4.1770   4.4488
     4.6454   4.9085   5.0438   5.4568   5.5291   5.7536   5.9534   6.0493
     6.1685   6.5273   6.6717   6.9291   7.0669   7.1986   7.6204   7.8146
     7.8329   7.9869   8.1388   8.5468   8.8368   8.8882   9.0464   9.2134
    11.1499  11.4118  11.7264  12.2985  13.2367  14.4105  15.5524  16.7405

          k = 0.1667-0.3528 0.0000 (  4458 PWs)   bands (ev):

   -38.5469 -38.5374 -38.5190 -38.5046 -38.4523 -38.4268 -38.3651 -38.2804
   -38.2706 -38.2650 -38.1989 -38.1846 -38.1786 -38.1415 -38.0855 -38.0349
   -38.0344 -37.8354 -37.8353 -37.7553 -37.7552   3.2080   3.3064   3.3978
     3.5324   3.6514   3.7514   3.8577   4.0045   4.2408   4.3055   4.4682
     4.6726   4.8509   4.9660   5.2278   5.3444   5.3891   5.5958   5.7867
     5.8677   6.1179   6.1684   6.4491   6.7227   6.8867   7.0573   7.3339
     7.4836   7.6979   7.8728   8.3448   8.5372   8.6527   8.6745   8.8898
     9.2896   9.3552   9.4824  10.1427  11.3710  12.7983  14.2498  15.4840

          k = 0.1667-0.2245 0.0000 (  4433 PWs)   bands (ev):

   -38.5662 -38.5450 -38.4481 -38.4043 -38.3624 -38.3026 -38.2846 -38.2432
   -38.2024 -38.2006 -38.1621 -38.1362 -38.1147 -38.0833 -38.0587 -37.9268
   -37.9267 -37.7727 -37.7727 -37.7628 -37.7624   2.4265   2.7241   3.2100
     3.5746   3.6939   3.8478   3.9782   4.1502   4.2822   4.3238   4.4908
     4.6698   4.7916   5.0978   5.2810   5.4361   5.5138   5.6217   5.7499
     5.8387   6.0633   6.2294   6.5190   6.5710   6.6057   6.8360   6.9211
     7.1694   7.1945   7.2737   7.5874   7.6907   7.8859   8.0346   8.0486
     8.1544   8.4703   8.6858   8.9585  10.0472  11.3358  12.6516  13.6765

          k = 0.1667-0.0962 0.0000 (  4427 PWs)   bands (ev):

   -38.6099 -38.5692 -38.4197 -38.3158 -38.2616 -38.2223 -38.1883 -38.1727
   -38.1673 -38.1655 -38.1092 -38.1016 -38.0783 -38.0623 -38.0282 -37.8293
   -37.8292 -37.7699 -37.7694 -37.7338 -37.7336   1.6158   2.0316   2.6869
     3.1016   3.1876   3.4732   3.5447   4.4081   4.6749   4.7807   4.8346
     4.9867   5.0056   5.5027   5.5504   5.6882   5.7908   5.8070   5.9028
     5.9903   6.0239   6.0915   6.1194   6.1365   6.3337   6.4426   6.6033
     6.7103   6.9152   6.9659   7.1496   7.2873   7.5168   7.5963   7.8688
     8.1767   8.2896   8.7015   8.9084   9.1326  10.2772  11.4269  12.2054

          k = 0.2778 0.4811 0.0000 (  4485 PWs)   bands (ev):

   -38.5826 -38.5793 -38.5466 -38.5336 -38.4797 -38.4605 -38.4290 -38.3852
   -38.3614 -38.3345 -38.2931 -38.2817 -38.2033 -38.1973 -38.1298 -38.0859
   -38.0857 -37.9575 -37.9574 -37.7467 -37.7465   3.3409   3.3583   3.5155
     3.5845   3.8268   3.9702   4.1158   4.1709   4.2436   4.3301   4.4004
     4.4891   4.8190   4.9627   5.1354   5.3383   5.5983   5.6972   6.0216
     6.0322   6.2453   6.2457   6.7426   6.8545   7.0066   7.2545   7.4141
     7.4832   7.8186   8.1652   8.5333   8.7990   8.8378   8.9034   9.1069
    12.4984  12.7248  13.1846  13.8680  14.7977  15.8960  16.8260  16.9369

          k = 0.2778 0.6094 0.0000 (  4491 PWs)   bands (ev):

   -38.5749 -38.5669 -38.5324 -38.5269 -38.4937 -38.4689 -38.4427 -38.4121
   -38.3818 -38.3608 -38.3030 -38.2980 -38.2042 -38.1939 -38.1421 -38.0780
   -38.0778 -37.9894 -37.9892 -37.7455 -37.7450   3.3129   3.5415   3.5858
     3.7277   3.8477   3.9909   4.0471   4.0966   4.1763   4.3533   4.4002
     4.5660   4.7147   5.0897   5.1951   5.4168   5.5464   5.6856   5.9375
     5.9937   6.2878   6.3098   6.7125   6.9143   7.0970   7.2504   7.4540
     7.5184   8.1136   8.3241   8.4715   8.6248   8.6949   8.7416   8.8845
    13.7104  14.0034  14.4622  14.9066  15.2940  15.7590  16.2886  16.5139

          k = 0.2778-0.4170 0.0000 (  4462 PWs)   bands (ev):

   -38.5891 -38.5812 -38.5550 -38.5331 -38.4889 -38.4423 -38.3975 -38.3479
   -38.3415 -38.3026 -38.2624 -38.2489 -38.2033 -38.1882 -38.1141 -38.0871
   -38.0865 -37.9122 -37.9121 -37.7486 -37.7484   3.1993   3.3325   3.4102
     3.5519   3.6763   3.7763   3.9328   4.1383   4.2437   4.2992   4.5341
     4.6962   4.7547   4.8584   5.1980   5.2716   5.5912   5.7789   6.0138
     6.0881   6.2390   6.3171   6.5397   6.8323   7.0481   7.2741   7.4389
     7.5645   7.6700   8.0223   8.5372   8.8965   8.9249   9.0241   9.2123
    11.3248  11.4714  11.8251  12.4783  13.4904  14.7514  16.0766  17.2416

          k = 0.2778-0.2887 0.0000 (  4463 PWs)   bands (ev):

   -38.5658 -38.5562 -38.5402 -38.5247 -38.4519 -38.4387 -38.3701 -38.2775
   -38.2663 -38.2578 -38.1981 -38.1855 -38.1735 -38.1195 -38.0915 -38.0566
   -38.0548 -37.8231 -37.8228 -37.7549 -37.7548   2.9646   3.0792   3.2131
     3.2497   3.3736   3.4898   3.6274   3.8541   4.0517   4.1899   4.5432
     4.7854   5.1461   5.1770   5.4100   5.5369   5.6331   5.7972   5.9814
     6.1453   6.3460   6.5646   6.6928   6.8222   7.1275   7.3311   7.4777
     7.5804   7.8293   8.1280   8.3706   8.4608   8.6526   8.6739   8.9217
     9.1402   9.3218   9.3987  10.0514  11.3205  12.8020  14.2991  15.5765

          k = 0.2778-0.1604 0.0000 (  4458 PWs)   bands (ev):

   -38.5575 -38.5363 -38.4900 -38.4678 -38.4106 -38.3622 -38.3270 -38.2553
   -38.2144 -38.2117 -38.1819 -38.1459 -38.1165 -38.0865 -38.0629 -37.9883
   -37.9878 -37.7745 -37.7743 -37.7610 -37.7606   2.5804   2.8306   3.0424
     3.1414   3.4057   3.5228   3.7762   3.8519   4.1080   4.2692   4.6865
     4.9350   5.1463   5.3294   5.5514   5.6812   5.7958   5.8405   6.0357
     6.1543   6.4177   6.5191   6.5500   6.7201   6.8579   7.0791   7.2687
     7.3378   7.4159   7.4824   7.6541   7.8320   7.8717   7.9593   8.1033
     8.3295   8.7405   8.9117   8.9738  10.2560  11.7241  13.1533  14.2794

          k = 0.3889 0.6736 0.0000 (  4511 PWs)   bands (ev):

   -38.6114 -38.6003 -38.5621 -38.5448 -38.5072 -38.4265 -38.4219 -38.3774
   -38.3748 -38.3325 -38.2899 -38.2728 -38.2153 -38.1840 -38.1354 -38.1036
   -38.1034 -37.9480 -37.9476 -37.7464 -37.7462   3.0393   3.3252   3.4174
     3.6103   3.6352   3.7865   3.7944   4.0700   4.1650   4.2408   4.4884
     4.5309   4.6930   4.9358   5.3086   5.4931   5.7203   5.9176   5.9278
     6.2652   6.3345   6.7204   6.7227   6.8101   7.1598   7.4914   7.7166
     7.8485   8.2694   8.3865   8.4544   8.6286   8.7086   8.9194   8.9245
    13.2398  13.5405  13.8461  14.1472  14.5080  14.9174  15.2453  16.6292

          k = 0.3889-0.3528 0.0000 (  4485 PWs)   bands (ev):

   -38.6529 -38.6418 -38.6069 -38.5795 -38.5411 -38.4050 -38.3866 -38.3123
   -38.3045 -38.2695 -38.2366 -38.2115 -38.2081 -38.1456 -38.1357 -38.1246
   -38.1127 -37.8556 -37.8556 -37.7502 -37.7499   2.6518   2.8407   2.9131
     2.9902   3.1387   3.2525   3.3493   3.6640   3.7891   3.8795   4.4123
     4.7298   5.0334   5.3621   5.4860   5.6972   5.8396   5.9061   6.4182
     6.5746   6.6543   7.1877   7.2926   7.6433   7.7783   7.9129   8.2613
     8.3852   8.3915   8.4749   8.6217   8.8102   8.9004   9.0402   9.2218
    10.7760  11.2596  11.6553  12.0055  12.7533  13.7362  14.5516  16.4223

          k = 0.3889-0.2245 0.0000 (  4444 PWs)   bands (ev):

   -38.6282 -38.6181 -38.5902 -38.5680 -38.5120 -38.4227 -38.3842 -38.2763
   -38.2550 -38.2514 -38.2210 -38.1838 -38.1499 -38.1293 -38.1109 -38.0978
   -38.0938 -37.8098 -37.8096 -37.7536 -37.7532   2.5997   2.6557   2.7954
     2.9191   2.9834   3.1632   3.2205   3.5408   3.6417   3.8499   4.5120
     4.9471   5.3181   5.3954   5.5502   5.8344   5.8622   5.9544   6.4405
     6.6602   6.8241   7.1283   7.5341   7.7994   8.0723   8.1971   8.2776
     8.4378   8.4989   8.5550   8.5758   8.6981   8.7456   8.8590   8.9700
     9.0906   9.1898   9.4407   9.9748  11.3931  12.9773  14.5373  16.0761

          k =-0.5000-0.8660 0.0000 (  4492 PWs)   bands (ev):

   -38.6854 -38.6746 -38.6387 -38.6055 -38.5721 -38.3975 -38.3975 -38.2719
   -38.2673 -38.2568 -38.2538 -38.1987 -38.1681 -38.1633 -38.1537 -38.1192
   -38.1062 -37.8240 -37.8238 -37.7513 -37.7512   2.3742   2.5624   2.6196
     2.7268   2.8660   3.0178   3.0317   3.3917   3.4473   3.6923   4.4008
     4.8899   5.1442   5.2824   5.4432   5.7429   6.1818   6.2323   6.3833
     7.0777   7.1286   7.2232   7.8990   8.1581   8.3610   8.5108   8.7910
     8.9049   8.9152   9.0034   9.0066   9.0720   9.1983   9.3731   9.3804
     9.7397  10.8352  11.7454  11.9427  12.3492  12.4828  12.6242  16.0934

     the Fermi energy is     8.3509 ev

!    total energy              =   -1198.23262335 Ry
     estimated scf accuracy    <       0.00000005 Ry
     smearing contrib. (-TS)   =      -0.03017516 Ry
     internal energy E=F+TS    =   -1198.20244818 Ry

     The total energy is F=E-TS. E is the sum of the following terms:
     one-electron contribution =  -13477.73321176 Ry
     hartree contribution      =    6784.64838811 Ry
     xc contribution           =    -209.37125045 Ry
     ewald contribution        =    5704.25362591 Ry

     total magnetization       =    -0.00 Bohr mag/cell
     absolute magnetization    =     0.00 Bohr mag/cell

     convergence has been achieved in  10 iterations

     negative rho (up, down):  1.996E-01 1.996E-01

     Forces acting on atoms (cartesian axes, Ry/au):

     atom    1 type  1   force =     0.00000000    0.00000000    0.00050212
     atom    2 type  1   force =     0.00000000    0.00000000    0.00186477
     atom    3 type  1   force =     0.00000000    0.00000000    0.00062384
     atom    4 type  1   force =     0.00000000    0.00000000    0.00000089
     atom    5 type  1   force =     0.00000000    0.00000000   -0.00062807
     atom    6 type  1   force =     0.00000000    0.00000000   -0.00187756
     atom    7 type  1   force =     0.00000000    0.00000000   -0.00048599

     Total force =     0.002877     Total SCF correction =     0.001550
     SCF correction compared to forces is large: reduce conv_thr to get better values
     Energy error            =      1.3E-05
     Gradient error          =      1.9E-03

     number of scf cycles    =   6
     number of bfgs steps    =   5

     energy   old            =   -1198.2326101920 Ry
     energy   new            =   -1198.2326233464 Ry

     CASE: energy  _new < energy  _old

     new trust radius        =       0.0041440942 bohr
     new conv_thr            =       0.0000001000 Ry


ATOMIC_POSITIONS (angstrom)
Rh            0.0000000000        0.0000000000        0.0327883219
Rh            2.7108568000        1.5651139000        2.2052462687
Rh            1.3554284000        0.7825569000        4.4086685090
Rh            0.0000000000        0.0000000000        6.6402244784
Rh            2.7108568000        1.5651139000        8.8717769609
Rh            1.3554284000        0.7825569000       11.0751799284
Rh            0.0000000000        0.0000000000       13.2476266327



     Writing output data file /home/STUDENTI/leonardo.razzai/WORK/relax_surf/7-L.save/
     NEW-OLD atomic charge density approx. for the potential

     negative rho (up, down):  1.990E-01 1.990E-01
     Generating pointlists ...

     total cpu time spent up to now is     1025.8 secs

     Self-consistent Calculation

     iteration #  1     ecut=    35.00 Ry     beta= 0.40
     Davidson diagonalization with overlap
     ethr =  1.00E-06,  avg # of iterations =  5.0

     negative rho (up, down):  1.990E-01 1.990E-01

     total cpu time spent up to now is     1052.1 secs

     total energy              =   -1198.23238406 Ry
     estimated scf accuracy    <       0.01461144 Ry

     total magnetization       =    -0.00 Bohr mag/cell
     absolute magnetization    =     0.00 Bohr mag/cell

     iteration #  2     ecut=    35.00 Ry     beta= 0.40
     Davidson diagonalization with overlap
     ethr =  1.39E-05,  avg # of iterations =  1.0

     negative rho (up, down):  1.990E-01 1.990E-01

     total cpu time spent up to now is     1065.8 secs

     total energy              =   -1198.23255218 Ry
     estimated scf accuracy    <       0.00767731 Ry

     total magnetization       =    -0.00 Bohr mag/cell
     absolute magnetization    =     0.00 Bohr mag/cell

     iteration #  3     ecut=    35.00 Ry     beta= 0.40
     Davidson diagonalization with overlap
     ethr =  7.31E-06,  avg # of iterations =  1.0

     negative rho (up, down):  1.990E-01 1.990E-01

     total cpu time spent up to now is     1079.4 secs

     total energy              =   -1198.23264034 Ry
     estimated scf accuracy    <       0.00047405 Ry

     total magnetization       =    -0.00 Bohr mag/cell
     absolute magnetization    =     0.00 Bohr mag/cell

     iteration #  4     ecut=    35.00 Ry     beta= 0.40
     Davidson diagonalization with overlap
     ethr =  4.51E-07,  avg # of iterations =  1.0

     negative rho (up, down):  1.990E-01 1.990E-01

     total cpu time spent up to now is     1093.1 secs

     total energy              =   -1198.23263637 Ry
     estimated scf accuracy    <       0.00023411 Ry

     total magnetization       =    -0.00 Bohr mag/cell
     absolute magnetization    =     0.00 Bohr mag/cell

     iteration #  5     ecut=    35.00 Ry     beta= 0.40
     Davidson diagonalization with overlap
     ethr =  2.23E-07,  avg # of iterations =  1.0

     negative rho (up, down):  1.990E-01 1.990E-01

     total cpu time spent up to now is     1106.8 secs

     total energy              =   -1198.23263795 Ry
     estimated scf accuracy    <       0.00001636 Ry

     total magnetization       =    -0.00 Bohr mag/cell
     absolute magnetization    =     0.00 Bohr mag/cell

     iteration #  6     ecut=    35.00 Ry     beta= 0.40
     Davidson diagonalization with overlap
     ethr =  1.56E-08,  avg # of iterations =  1.0

     negative rho (up, down):  1.990E-01 1.990E-01

     total cpu time spent up to now is     1120.4 secs

     total energy              =   -1198.23263797 Ry
     estimated scf accuracy    <       0.00000122 Ry

     total magnetization       =    -0.00 Bohr mag/cell
     absolute magnetization    =     0.00 Bohr mag/cell

     iteration #  7     ecut=    35.00 Ry     beta= 0.40
     Davidson diagonalization with overlap
     ethr =  1.16E-09,  avg # of iterations =  1.3

     negative rho (up, down):  1.990E-01 1.990E-01

     total cpu time spent up to now is     1134.4 secs

     total energy              =   -1198.23263795 Ry
     estimated scf accuracy    <       0.00000093 Ry

     total magnetization       =    -0.00 Bohr mag/cell
     absolute magnetization    =     0.00 Bohr mag/cell

     iteration #  8     ecut=    35.00 Ry     beta= 0.40
     Davidson diagonalization with overlap
     ethr =  8.81E-10,  avg # of iterations =  1.2

     negative rho (up, down):  1.990E-01 1.990E-01

     total cpu time spent up to now is     1148.2 secs

     total energy              =   -1198.23263806 Ry
     estimated scf accuracy    <       0.00000043 Ry

     total magnetization       =    -0.00 Bohr mag/cell
     absolute magnetization    =     0.00 Bohr mag/cell

     iteration #  9     ecut=    35.00 Ry     beta= 0.40
     Davidson diagonalization with overlap
     ethr =  4.08E-10,  avg # of iterations =  1.9

     negative rho (up, down):  1.990E-01 1.990E-01

     total cpu time spent up to now is     1162.9 secs

     total energy              =   -1198.23263824 Ry
     estimated scf accuracy    <       0.00000039 Ry

     total magnetization       =    -0.00 Bohr mag/cell
     absolute magnetization    =     0.00 Bohr mag/cell

     iteration # 10     ecut=    35.00 Ry     beta= 0.40
     Davidson diagonalization with overlap
     ethr =  3.68E-10,  avg # of iterations =  1.0

     negative rho (up, down):  1.990E-01 1.990E-01

     total cpu time spent up to now is     1176.6 secs

     total energy              =   -1198.23263835 Ry
     estimated scf accuracy    <       0.00000013 Ry

     total magnetization       =    -0.00 Bohr mag/cell
     absolute magnetization    =     0.00 Bohr mag/cell

     iteration # 11     ecut=    35.00 Ry     beta= 0.40
     Davidson diagonalization with overlap
     ethr =  1.21E-10,  avg # of iterations =  1.1

     negative rho (up, down):  1.990E-01 1.990E-01
 
     Magnetic moment per site:
     atom:    1    charge:   13.1070    magn:    0.0000    constr:    0.0000
     atom:    2    charge:   13.1627    magn:   -0.0000    constr:    0.0000
     atom:    3    charge:   13.1574    magn:    0.0000    constr:    0.0000
     atom:    4    charge:   13.1511    magn:    0.0000    constr:    0.0000
     atom:    5    charge:   13.1573    magn:   -0.0000    constr:    0.0000
     atom:    6    charge:   13.1627    magn:   -0.0000    constr:    0.0000
     atom:    7    charge:   13.1068    magn:    0.0000    constr:    0.0000

     total cpu time spent up to now is     1190.1 secs

     End of self-consistent calculation

 ------ SPIN UP ------------


          k = 0.0556 0.0962 0.0000 (  4451 PWs)   bands (ev):

   -38.6425 -38.5927 -38.4150 -38.2661 -38.1793 -38.1687 -38.1472 -38.1463
   -38.1099 -38.1079 -38.0784 -38.0671 -38.0538 -38.0405 -38.0130 -37.7780
   -37.7770 -37.7456 -37.7455 -37.7139 -37.7138   1.0420   1.4981   2.2107
     2.7155   2.7398   3.0334   3.0819   4.9060   4.9295   5.1233   5.1790
     5.2697   5.3562   5.5606   5.5777   5.6116   5.6486   5.6559   5.6917
     5.7863   5.8455   5.8987   5.9603   6.0917   6.1979   6.2026   6.7512
     7.0550   7.0987   7.2802   7.3291   7.5197   7.5548   7.6742   7.7644
     8.0652   8.1053   8.5985   8.6226   8.8159   9.3728  10.3040  10.8479

          k = 0.0556 0.2245 0.0000 (  4420 PWs)   bands (ev):

   -38.5927 -38.5605 -38.4285 -38.3549 -38.3071 -38.2544 -38.2319 -38.2097
   -38.1802 -38.1788 -38.1393 -38.1132 -38.0928 -38.0665 -38.0409 -37.8718
   -37.8717 -37.7661 -37.7657 -37.7471 -37.7465   1.9558   2.3305   2.9290
     3.2871   3.4094   3.6843   3.7832   4.2233   4.4925   4.5961   4.6451
     4.8333   4.8752   5.3546   5.4680   5.6168   5.7170   5.8002   5.8515
     5.9223   6.0387   6.1834   6.2978   6.4265   6.5178   6.6415   6.7260
     6.7703   6.9223   7.0609   7.1633   7.3335   7.6279   7.7172   7.9679
     8.0967   8.5177   8.6652   8.8216   9.5455  10.7444  11.9722  12.8649

          k = 0.0556 0.3528 0.0000 (  4467 PWs)   bands (ev):

   -38.5584 -38.5389 -38.5227 -38.5056 -38.4367 -38.4032 -38.3533 -38.2664
   -38.2347 -38.2306 -38.1909 -38.1619 -38.1378 -38.0944 -38.0766 -38.0249
   -38.0240 -37.7907 -37.7907 -37.7573 -37.7571   2.7473   2.9914   3.0438
     3.1289   3.3644   3.4174   3.6511   3.8122   4.0808   4.1449   4.6359
     4.9490   5.1298   5.3545   5.5505   5.6619   5.6887   5.7822   6.0361
     6.1621   6.4465   6.5986   6.7405   6.8181   7.0422   7.3054   7.4693
     7.5255   7.7266   7.8398   7.9890   8.1007   8.2844   8.3576   8.4859
     8.4965   8.6718   8.9127   9.3127  10.6612  12.1678  13.6500  14.8575

          k = 0.0556 0.4811 0.0000 (  4463 PWs)   bands (ev):

   -38.6499 -38.6392 -38.6069 -38.5813 -38.5332 -38.4142 -38.3878 -38.2826
   -38.2736 -38.2630 -38.2276 -38.1955 -38.1724 -38.1355 -38.1279 -38.1109
   -38.1020 -37.8236 -37.8235 -37.7509 -37.7506   2.5643   2.6826   2.7857
     2.8854   2.9992   3.1687   3.1823   3.5470   3.6343   3.8121   4.4538
     4.8710   5.2130   5.3794   5.5076   5.7441   5.9287   5.9829   6.4883
     6.6682   6.8336   7.2275   7.5124   7.8555   8.0485   8.0964   8.3886
     8.4765   8.5796   8.6247   8.7222   8.7380   8.8875   8.9884   9.1468
     9.5876  10.1168  10.4468  10.7792  11.8704  13.2744  14.6245  16.3678

          k = 0.0556-0.5453 0.0000 (  4486 PWs)   bands (ev):

   -38.6784 -38.6670 -38.6310 -38.6005 -38.5624 -38.4007 -38.3937 -38.2862
   -38.2818 -38.2597 -38.2438 -38.2029 -38.1827 -38.1529 -38.1487 -38.1173
   -38.1118 -37.8313 -37.8310 -37.7497 -37.7494   2.4472   2.6317   2.6956
     2.7870   2.9361   3.0819   3.1054   3.4699   3.5381   3.7363   4.4092
     4.8418   5.1209   5.3329   5.4440   5.7567   5.9842   6.1338   6.4941
     6.8064   7.0703   7.2812   7.7145   8.0769   8.1977   8.4546   8.4936
     8.6996   8.7876   8.8720   8.9025   8.9668   9.0415   9.1473   9.2636
    10.2152  11.0008  11.7358  11.8986  12.1999  12.9126  13.4819  16.1824

          k = 0.0556-0.4170 0.0000 (  4465 PWs)   bands (ev):

   -38.5986 -38.5900 -38.5684 -38.5495 -38.4801 -38.4330 -38.3788 -38.2767
   -38.2574 -38.2517 -38.2102 -38.1816 -38.1569 -38.1112 -38.0969 -38.0843
   -38.0786 -37.8098 -37.8098 -37.7536 -37.7532   2.7518   2.7777   2.9464
     3.0418   3.1089   3.2919   3.3649   3.6695   3.8236   3.9521   4.5457
     4.9134   5.3291   5.4638   5.5833   5.6389   5.7110   5.9566   6.2647
     6.3867   6.6057   6.9957   7.1779   7.3832   7.5758   7.6922   8.0075
     8.0899   8.1315   8.2565   8.3724   8.5153   8.6231   8.7314   8.8964
     9.0186   9.2036   9.2780   9.9142  11.2807  12.8453  14.4035  15.7771

          k = 0.0556-0.2887 0.0000 (  4439 PWs)   bands (ev):

   -38.5644 -38.5446 -38.4635 -38.4312 -38.3823 -38.3250 -38.3006 -38.2458
   -38.2075 -38.2051 -38.1690 -38.1378 -38.1156 -38.0789 -38.0581 -37.9506
   -37.9500 -37.7688 -37.7687 -37.7612 -37.7609   2.4722   2.7448   3.1226
     3.2927   3.5112   3.7069   3.9030   4.0381   4.2287   4.3810   4.6225
     4.6834   5.0025   5.1307   5.4966   5.6750   5.7579   5.8098   5.9038
     6.0291   6.1073   6.2782   6.3725   6.6843   6.7301   6.8349   6.9863
     7.1625   7.2315   7.3442   7.5831   7.6945   7.8334   7.9664   8.0779
     8.2599   8.5771   8.8583   8.9256  10.0838  11.4573  12.8218  13.8821

          k = 0.0556-0.1604 0.0000 (  4443 PWs)   bands (ev):

   -38.6213 -38.5784 -38.4171 -38.2973 -38.2349 -38.2052 -38.1743 -38.1672
   -38.1527 -38.1453 -38.1011 -38.0912 -38.0688 -38.0584 -38.0255 -37.8029
   -37.8028 -37.7698 -37.7694 -37.7279 -37.7279   1.4359   1.8684   2.5550
     3.0247   3.0557   3.3538   3.4028   4.5909   4.7103   4.8795   4.9526
     5.0555   5.0917   5.4270   5.5607   5.6685   5.7465   5.7978   5.8768
     5.8862   5.9348   5.9875   6.0256   6.2143   6.2674   6.4303   6.5023
     6.8900   6.9814   7.0504   7.1216   7.3070   7.5042   7.6417   7.8674
     8.0119   8.3709   8.5665   8.7996   9.0541  10.0384  11.1178  11.8288

          k = 0.0556-0.0321 0.0000 (  4465 PWs)   bands (ev):

   -38.6539 -38.6008 -38.4158 -38.2557 -38.1490 -38.1461 -38.1378 -38.1366
   -38.0855 -38.0798 -38.0726 -38.0546 -38.0526 -38.0175 -38.0060 -37.7800
   -37.7785 -37.7178 -37.7176 -37.7066 -37.7064   0.8333   1.2973   2.0167
     2.5308   2.5697   2.8502   2.8988   5.0750   5.1123   5.2713   5.3394
     5.3865   5.4149   5.4289   5.4979   5.5189   5.6214   5.6431   5.6590
     5.7044   5.7418   5.9183   5.9749   6.0407   6.0544   6.3012   7.1532
     7.1934   7.2545   7.3663   7.3749   7.5216   7.5590   7.8083   7.9202
     8.1477   8.2636   8.2651   8.6680   8.8337   8.8586   9.6708  10.1001

          k = 0.1667 0.2887 0.0000 (  4425 PWs)   bands (ev):

   -38.5434 -38.5388 -38.4808 -38.4598 -38.4194 -38.3650 -38.3309 -38.2654
   -38.2345 -38.2337 -38.1743 -38.1675 -38.1434 -38.1124 -38.0704 -37.9818
   -37.9817 -37.8016 -37.8016 -37.7578 -37.7573   2.9424   3.0841   3.3648
     3.6951   3.8801   3.9011   4.0032   4.0620   4.0711   4.2614   4.3881
     4.5433   4.9848   5.0253   5.1055   5.3130   5.4836   5.4857   5.5253
     5.6675   6.2031   6.2415   6.4547   6.5526   6.6723   7.1104   7.1650
     7.3073   7.5599   7.7284   7.9588   8.1866   8.3193   8.4418   8.4548
     8.5666   8.6305   8.7220   9.4106  10.6379  12.0214  13.4211  14.5655

          k = 0.1667 0.4170 0.0000 (  4459 PWs)   bands (ev):

   -38.5843 -38.5745 -38.5536 -38.5337 -38.4761 -38.4419 -38.3818 -38.3091
   -38.3062 -38.2782 -38.2240 -38.2159 -38.1971 -38.1582 -38.1011 -38.0766
   -38.0749 -37.8637 -37.8636 -37.7505 -37.7504   3.1167   3.1825   3.3121
     3.4612   3.5209   3.5828   3.8076   3.8947   4.1118   4.2938   4.5528
     4.6678   4.9171   5.1017   5.1927   5.4307   5.5316   5.8875   5.9625
     6.1239   6.2029   6.4428   6.5681   6.8401   7.1373   7.2796   7.4168
     7.6347   7.7723   8.0125   8.4933   8.7826   8.8725   8.9449   9.1169
    10.1831  10.3285  10.5441  11.1658  12.2825  13.6695  15.1150  16.4080

          k = 0.1667 0.5453 0.0000 (  4490 PWs)   bands (ev):

   -38.6410 -38.6303 -38.5928 -38.5684 -38.5289 -38.4060 -38.3882 -38.3564
   -38.3422 -38.2956 -38.2590 -38.2378 -38.2223 -38.1684 -38.1287 -38.1209
   -38.1187 -37.8975 -37.8973 -37.7467 -37.7466   2.8117   3.0982   3.1039
     3.2373   3.3744   3.4641   3.6053   3.8499   4.0391   4.0868   4.4317
     4.5417   4.7953   5.1667   5.4760   5.6527   5.7253   5.9318   6.1997
     6.3259   6.5426   6.8222   7.1946   7.2464   7.3448   7.7284   8.0193
     8.1646   8.2932   8.4107   8.5890   8.7154   8.8034   8.9984   9.1254
    12.0424  12.4634  12.8832  13.2829  13.7877  14.2645  14.5132  16.4919

          k = 0.1667-0.4811 0.0000 (  4476 PWs)   bands (ev):

   -38.6206 -38.6101 -38.5790 -38.5552 -38.5110 -38.4210 -38.3866 -38.3386
   -38.3299 -38.2878 -38.2439 -38.2363 -38.2114 -38.1666 -38.1175 -38.1063
   -38.1036 -37.8858 -37.8855 -37.7480 -37.7479   2.9198   3.1298   3.1723
     3.3385   3.4154   3.5056   3.6759   3.8853   4.0459   4.1775   4.4485
     4.6429   4.9068   5.0423   5.4555   5.5276   5.7539   5.9534   6.0492
     6.1683   6.5277   6.6734   6.9301   7.0675   7.1985   7.6200   7.8149
     7.8338   7.9867   8.1401   8.5483   8.8375   8.8894   9.0471   9.2144
    11.1499  11.4118  11.7272  12.2996  13.2379  14.4129  15.5544  16.7415

          k = 0.1667-0.3528 0.0000 (  4458 PWs)   bands (ev):

   -38.5488 -38.5394 -38.5205 -38.5062 -38.4526 -38.4262 -38.3655 -38.2805
   -38.2714 -38.2655 -38.1994 -38.1852 -38.1790 -38.1402 -38.0849 -38.0340
   -38.0335 -37.8343 -37.8342 -37.7542 -37.7540   3.2059   3.3043   3.3943
     3.5299   3.6490   3.7479   3.8574   4.0031   4.2400   4.3056   4.4666
     4.6726   4.8510   4.9652   5.2264   5.3420   5.3881   5.5964   5.7876
     5.8679   6.1190   6.1693   6.4491   6.7241   6.8874   7.0575   7.3334
     7.4832   7.6972   7.8728   8.3459   8.5380   8.6529   8.6758   8.8908
     9.2899   9.3555   9.4831  10.1440  11.3729  12.8015  14.2527  15.4862

          k = 0.1667-0.2245 0.0000 (  4433 PWs)   bands (ev):

   -38.5684 -38.5477 -38.4487 -38.4055 -38.3628 -38.3022 -38.2850 -38.2435
   -38.2033 -38.2014 -38.1621 -38.1363 -38.1152 -38.0825 -38.0580 -37.9258
   -37.9256 -37.7716 -37.7716 -37.7618 -37.7614   2.4248   2.7214   3.2092
     3.5727   3.6913   3.8448   3.9772   4.1485   4.2811   4.3230   4.4901
     4.6688   4.7915   5.0979   5.2817   5.4362   5.5141   5.6223   5.7478
     5.8372   6.0641   6.2298   6.5182   6.5720   6.6057   6.8354   6.9185
     7.1709   7.1932   7.2745   7.5881   7.6913   7.8855   8.0353   8.0492
     8.1551   8.4715   8.6874   8.9598  10.0494  11.3381  12.6542  13.6793

          k = 0.1667-0.0962 0.0000 (  4427 PWs)   bands (ev):

   -38.6120 -38.5720 -38.4197 -38.3170 -38.2623 -38.2224 -38.1888 -38.1734
   -38.1684 -38.1666 -38.1083 -38.1014 -38.0789 -38.0619 -38.0273 -37.8282
   -37.8281 -37.7689 -37.7684 -37.7327 -37.7325   1.6141   2.0289   2.6869
     3.0994   3.1853   3.4729   3.5448   4.4068   4.6710   4.7817   4.8329
     4.9860   5.0041   5.5038   5.5512   5.6883   5.7876   5.8081   5.9040
     5.9867   6.0213   6.0921   6.1169   6.1376   6.3346   6.4437   6.6042
     6.7107   6.9160   6.9658   7.1503   7.2869   7.5155   7.5977   7.8696
     8.1776   8.2889   8.7028   8.9101   9.1347  10.2783  11.4293  12.2083

          k = 0.2778 0.4811 0.0000 (  4485 PWs)   bands (ev):

   -38.5839 -38.5808 -38.5479 -38.5350 -38.4794 -38.4619 -38.4300 -38.3856
   -38.3620 -38.3339 -38.2936 -38.2821 -38.2028 -38.1982 -38.1288 -38.0851
   -38.0849 -37.9564 -37.9564 -37.7455 -37.7453   3.3374   3.3561   3.5121
     3.5814   3.8243   3.9664   4.1148   4.1703   4.2420   4.3270   4.4001
     4.4885   4.8185   4.9626   5.1341   5.3377   5.5994   5.6962   6.0222
     6.0329   6.2464   6.2468   6.7434   6.8568   7.0083   7.2547   7.4144
     7.4831   7.8186   8.1661   8.5347   8.7999   8.8387   8.9046   9.1080
    12.4985  12.7248  13.1855  13.8690  14.7990  15.8979  16.8267  16.9373

          k = 0.2778 0.6094 0.0000 (  4491 PWs)   bands (ev):

   -38.5762 -38.5684 -38.5338 -38.5284 -38.4944 -38.4704 -38.4425 -38.4124
   -38.3821 -38.3604 -38.3034 -38.2984 -38.2048 -38.1944 -38.1407 -38.0771
   -38.0769 -37.9884 -37.9883 -37.7443 -37.7438   3.3100   3.5374   3.5829
     3.7251   3.8446   3.9872   4.0456   4.0940   4.1747   4.3523   4.4003
     4.5655   4.7136   5.0899   5.1942   5.4161   5.5468   5.6854   5.9383
     5.9942   6.2887   6.3107   6.7136   6.9172   7.0983   7.2502   7.4541
     7.5190   8.1137   8.3249   8.4725   8.6261   8.6961   8.7427   8.8856
    13.7104  14.0035  14.4630  14.9071  15.2941  15.7602  16.2899  16.5142

          k = 0.2778-0.4170 0.0000 (  4462 PWs)   bands (ev):

   -38.5904 -38.5827 -38.5563 -38.5349 -38.4880 -38.4436 -38.3987 -38.3485
   -38.3421 -38.3021 -38.2631 -38.2494 -38.2030 -38.1881 -38.1133 -38.0863
   -38.0857 -37.9111 -37.9110 -37.7474 -37.7473   3.1967   3.3297   3.4069
     3.5486   3.6739   3.7733   3.9321   4.1368   4.2438   4.2993   4.5315
     4.6952   4.7540   4.8577   5.1961   5.2708   5.5904   5.7794   6.0147
     6.0888   6.2403   6.3180   6.5402   6.8345   7.0490   7.2739   7.4400
     7.5642   7.6694   8.0232   8.5387   8.8976   8.9259   9.0249   9.2133
    11.3248  11.4714  11.8259  12.4793  13.4918  14.7541  16.0790  17.2434

          k = 0.2778-0.2887 0.0000 (  4463 PWs)   bands (ev):

   -38.5675 -38.5576 -38.5421 -38.5265 -38.4516 -38.4387 -38.3707 -38.2778
   -38.2672 -38.2586 -38.1983 -38.1857 -38.1740 -38.1187 -38.0908 -38.0557
   -38.0540 -37.8220 -37.8217 -37.7538 -37.7537   2.9625   3.0768   3.2098
     3.2469   3.3707   3.4874   3.6265   3.8546   4.0523   4.1904   4.5430
     4.7848   5.1437   5.1753   5.4086   5.5353   5.6315   5.7981   5.9818
     6.1446   6.3468   6.5654   6.6929   6.8230   7.1273   7.3319   7.4785
     7.5797   7.8287   8.1281   8.3712   8.4620   8.6537   8.6741   8.9231
     9.1405   9.3221   9.3994  10.0528  11.3224  12.8052  14.3020  15.5788

          k = 0.2778-0.1604 0.0000 (  4458 PWs)   bands (ev):

   -38.5596 -38.5390 -38.4911 -38.4691 -38.4105 -38.3615 -38.3274 -38.2554
   -38.2155 -38.2129 -38.1821 -38.1456 -38.1171 -38.0859 -38.0621 -37.9872
   -37.9868 -37.7733 -37.7732 -37.7599 -37.7595   2.5785   2.8278   3.0407
     3.1394   3.4035   3.5205   3.7750   3.8518   4.1083   4.2693   4.6856
     4.9330   5.1463   5.3282   5.5520   5.6825   5.7923   5.8408   6.0305
     6.1546   6.4185   6.5197   6.5507   6.7201   6.8568   7.0776   7.2697
     7.3382   7.4171   7.4823   7.6548   7.8326   7.8715   7.9598   8.1041
     8.3289   8.7422   8.9132   8.9757  10.2583  11.7266  13.1562  14.2821

          k = 0.3889 0.6736 0.0000 (  4511 PWs)   bands (ev):

   -38.6126 -38.6017 -38.5634 -38.5466 -38.5063 -38.4276 -38.4233 -38.3780
   -38.3755 -38.3320 -38.2901 -38.2732 -38.2157 -38.1841 -38.1343 -38.1028
   -38.1026 -37.9469 -37.9465 -37.7452 -37.7451   3.0366   3.3208   3.4151
     3.6078   3.6318   3.7827   3.7949   4.0683   4.1640   4.2416   4.4866
     4.5288   4.6936   4.9352   5.3082   5.4908   5.7210   5.9169   5.9284
     6.2658   6.3350   6.7214   6.7249   6.8110   7.1600   7.4909   7.7174
     7.8495   8.2690   8.3872   8.4560   8.6298   8.7100   8.9205   8.9257
    13.2399  13.5406  13.8463  14.1478  14.5080  14.9190  15.2471  16.6304

          k = 0.3889-0.3528 0.0000 (  4485 PWs)   bands (ev):

   -38.6542 -38.6432 -38.6082 -38.5812 -38.5399 -38.4059 -38.3875 -38.3136
   -38.3055 -38.2695 -38.2364 -38.2120 -38.2086 -38.1448 -38.1351 -38.1240
   -38.1121 -37.8545 -37.8545 -37.7490 -37.7487   2.6492   2.8386   2.9094
     2.9875   3.1355   3.2487   3.3504   3.6648   3.7897   3.8805   4.4123
     4.7275   5.0322   5.3604   5.4860   5.6970   5.8376   5.9055   6.4170
     6.5763   6.6533   7.1880   7.2923   7.6443   7.7786   7.9127   8.2618
     8.3856   8.3918   8.4759   8.6230   8.8108   8.9017   9.0409   9.2229
    10.7760  11.2598  11.6563  12.0066  12.7541  13.7383  14.5532  16.4231

          k = 0.3889-0.2245 0.0000 (  4444 PWs)   bands (ev):

   -38.6295 -38.6195 -38.5916 -38.5696 -38.5111 -38.4234 -38.3848 -38.2763
   -38.2561 -38.2526 -38.2217 -38.1834 -38.1505 -38.1284 -38.1103 -38.0973
   -38.0930 -37.8087 -37.8085 -37.7524 -37.7520   2.5973   2.6536   2.7920
     2.9160   2.9810   3.1638   3.2170   3.5417   3.6424   3.8507   4.5122
     4.9470   5.3188   5.3965   5.5467   5.8293   5.8612   5.9532   6.4420
     6.6584   6.8243   7.1285   7.5354   7.7980   8.0728   8.1979   8.2775
     8.4377   8.4971   8.5548   8.5762   8.6990   8.7461   8.8598   8.9712
     9.0924   9.1909   9.4419   9.9762  11.3944  12.9805  14.5402  16.0780

          k =-0.5000-0.8660 0.0000 (  4492 PWs)   bands (ev):

   -38.6866 -38.6760 -38.6399 -38.6072 -38.5708 -38.3983 -38.3981 -38.2731
   -38.2685 -38.2566 -38.2549 -38.1983 -38.1674 -38.1638 -38.1533 -38.1186
   -38.1054 -37.8228 -37.8227 -37.7501 -37.7500   2.3717   2.5603   2.6159
     2.7242   2.8629   3.0189   3.0278   3.3927   3.4480   3.6933   4.4011
     4.8892   5.1451   5.2837   5.4398   5.7377   6.1813   6.2305   6.3850
     7.0767   7.1290   7.2231   7.8977   8.1593   8.3627   8.5120   8.7918
     8.9038   8.9138   9.0044   9.0075   9.0719   9.1991   9.3742   9.3815
     9.7396  10.8355  11.7458  11.9452  12.3497  12.4849  12.6247  16.0939

 ------ SPIN DOWN ----------


          k = 0.0556 0.0962 0.0000 (  4451 PWs)   bands (ev):

   -38.6425 -38.5927 -38.4150 -38.2661 -38.1793 -38.1687 -38.1472 -38.1463
   -38.1099 -38.1079 -38.0784 -38.0671 -38.0538 -38.0405 -38.0130 -37.7780
   -37.7770 -37.7456 -37.7455 -37.7139 -37.7138   1.0420   1.4981   2.2107
     2.7155   2.7398   3.0334   3.0819   4.9060   4.9295   5.1233   5.1790
     5.2697   5.3562   5.5606   5.5777   5.6116   5.6486   5.6559   5.6917
     5.7863   5.8455   5.8987   5.9603   6.0917   6.1979   6.2026   6.7512
     7.0550   7.0987   7.2802   7.3291   7.5197   7.5548   7.6742   7.7644
     8.0652   8.1053   8.5985   8.6226   8.8159   9.3728  10.3040  10.8479

          k = 0.0556 0.2245 0.0000 (  4420 PWs)   bands (ev):

   -38.5927 -38.5605 -38.4285 -38.3549 -38.3071 -38.2544 -38.2319 -38.2097
   -38.1802 -38.1788 -38.1393 -38.1132 -38.0928 -38.0665 -38.0409 -37.8718
   -37.8717 -37.7661 -37.7657 -37.7471 -37.7465   1.9558   2.3305   2.9290
     3.2871   3.4094   3.6843   3.7832   4.2233   4.4925   4.5961   4.6451
     4.8333   4.8752   5.3546   5.4680   5.6168   5.7170   5.8002   5.8515
     5.9223   6.0387   6.1834   6.2978   6.4265   6.5178   6.6415   6.7260
     6.7703   6.9223   7.0609   7.1633   7.3335   7.6279   7.7172   7.9679
     8.0967   8.5177   8.6652   8.8216   9.5455  10.7444  11.9722  12.8649

          k = 0.0556 0.3528 0.0000 (  4467 PWs)   bands (ev):

   -38.5584 -38.5389 -38.5227 -38.5056 -38.4367 -38.4032 -38.3533 -38.2664
   -38.2347 -38.2306 -38.1909 -38.1619 -38.1378 -38.0944 -38.0766 -38.0249
   -38.0240 -37.7907 -37.7907 -37.7573 -37.7571   2.7473   2.9914   3.0438
     3.1289   3.3644   3.4174   3.6511   3.8122   4.0808   4.1449   4.6359
     4.9490   5.1298   5.3545   5.5505   5.6619   5.6887   5.7822   6.0361
     6.1621   6.4465   6.5986   6.7405   6.8181   7.0422   7.3054   7.4693
     7.5255   7.7266   7.8398   7.9890   8.1007   8.2844   8.3576   8.4859
     8.4965   8.6718   8.9127   9.3127  10.6612  12.1678  13.6500  14.8575

          k = 0.0556 0.4811 0.0000 (  4463 PWs)   bands (ev):

   -38.6499 -38.6392 -38.6069 -38.5813 -38.5332 -38.4142 -38.3878 -38.2826
   -38.2736 -38.2630 -38.2276 -38.1955 -38.1724 -38.1355 -38.1279 -38.1109
   -38.1020 -37.8236 -37.8235 -37.7509 -37.7506   2.5643   2.6826   2.7857
     2.8854   2.9992   3.1687   3.1823   3.5470   3.6343   3.8121   4.4538
     4.8710   5.2130   5.3794   5.5076   5.7441   5.9287   5.9829   6.4883
     6.6682   6.8336   7.2275   7.5124   7.8555   8.0485   8.0964   8.3886
     8.4765   8.5796   8.6247   8.7222   8.7380   8.8875   8.9884   9.1468
     9.5876  10.1168  10.4468  10.7792  11.8704  13.2744  14.6245  16.3678

          k = 0.0556-0.5453 0.0000 (  4486 PWs)   bands (ev):

   -38.6784 -38.6670 -38.6310 -38.6005 -38.5624 -38.4007 -38.3937 -38.2862
   -38.2818 -38.2597 -38.2438 -38.2029 -38.1827 -38.1529 -38.1487 -38.1173
   -38.1118 -37.8313 -37.8310 -37.7497 -37.7494   2.4472   2.6317   2.6956
     2.7870   2.9361   3.0819   3.1054   3.4699   3.5381   3.7363   4.4092
     4.8418   5.1209   5.3329   5.4440   5.7567   5.9842   6.1338   6.4941
     6.8064   7.0703   7.2812   7.7145   8.0769   8.1977   8.4546   8.4936
     8.6996   8.7876   8.8720   8.9025   8.9668   9.0415   9.1473   9.2636
    10.2152  11.0008  11.7358  11.8986  12.1999  12.9126  13.4819  16.1837

          k = 0.0556-0.4170 0.0000 (  4465 PWs)   bands (ev):

   -38.5986 -38.5900 -38.5684 -38.5495 -38.4801 -38.4330 -38.3788 -38.2767
   -38.2574 -38.2517 -38.2102 -38.1816 -38.1569 -38.1112 -38.0969 -38.0843
   -38.0786 -37.8098 -37.8098 -37.7536 -37.7532   2.7518   2.7777   2.9464
     3.0418   3.1089   3.2919   3.3649   3.6695   3.8236   3.9521   4.5457
     4.9134   5.3291   5.4638   5.5833   5.6389   5.7110   5.9566   6.2647
     6.3867   6.6057   6.9957   7.1779   7.3832   7.5758   7.6922   8.0075
     8.0899   8.1315   8.2565   8.3724   8.5153   8.6231   8.7314   8.8964
     9.0186   9.2036   9.2780   9.9142  11.2807  12.8453  14.4035  15.7771

          k = 0.0556-0.2887 0.0000 (  4439 PWs)   bands (ev):

   -38.5644 -38.5446 -38.4635 -38.4312 -38.3823 -38.3250 -38.3006 -38.2458
   -38.2075 -38.2051 -38.1690 -38.1378 -38.1156 -38.0789 -38.0581 -37.9506
   -37.9500 -37.7688 -37.7687 -37.7612 -37.7609   2.4722   2.7448   3.1226
     3.2927   3.5112   3.7069   3.9030   4.0381   4.2287   4.3810   4.6225
     4.6834   5.0025   5.1307   5.4966   5.6750   5.7579   5.8098   5.9038
     6.0291   6.1073   6.2782   6.3725   6.6843   6.7301   6.8349   6.9863
     7.1625   7.2315   7.3442   7.5831   7.6945   7.8334   7.9664   8.0779
     8.2599   8.5771   8.8583   8.9256  10.0838  11.4573  12.8218  13.8821

          k = 0.0556-0.1604 0.0000 (  4443 PWs)   bands (ev):

   -38.6213 -38.5784 -38.4171 -38.2973 -38.2349 -38.2052 -38.1743 -38.1672
   -38.1527 -38.1453 -38.1011 -38.0912 -38.0688 -38.0584 -38.0255 -37.8029
   -37.8028 -37.7698 -37.7694 -37.7279 -37.7279   1.4359   1.8684   2.5550
     3.0247   3.0557   3.3538   3.4028   4.5909   4.7103   4.8795   4.9526
     5.0555   5.0917   5.4270   5.5607   5.6685   5.7465   5.7978   5.8768
     5.8862   5.9348   5.9875   6.0256   6.2143   6.2674   6.4303   6.5023
     6.8900   6.9814   7.0504   7.1216   7.3070   7.5042   7.6417   7.8674
     8.0119   8.3709   8.5665   8.7996   9.0541  10.0384  11.1178  11.8288

          k = 0.0556-0.0321 0.0000 (  4465 PWs)   bands (ev):

   -38.6539 -38.6008 -38.4158 -38.2557 -38.1490 -38.1461 -38.1378 -38.1366
   -38.0855 -38.0798 -38.0726 -38.0546 -38.0526 -38.0175 -38.0060 -37.7800
   -37.7785 -37.7178 -37.7176 -37.7066 -37.7064   0.8333   1.2973   2.0167
     2.5308   2.5697   2.8502   2.8988   5.0750   5.1123   5.2713   5.3394
     5.3865   5.4149   5.4289   5.4979   5.5189   5.6214   5.6431   5.6590
     5.7044   5.7418   5.9183   5.9749   6.0407   6.0544   6.3012   7.1532
     7.1934   7.2545   7.3663   7.3749   7.5216   7.5590   7.8083   7.9202
     8.1477   8.2636   8.2651   8.6680   8.8337   8.8586   9.6708  10.1001

          k = 0.1667 0.2887 0.0000 (  4425 PWs)   bands (ev):

   -38.5434 -38.5388 -38.4808 -38.4598 -38.4194 -38.3650 -38.3309 -38.2654
   -38.2345 -38.2337 -38.1743 -38.1675 -38.1434 -38.1124 -38.0704 -37.9818
   -37.9817 -37.8016 -37.8016 -37.7578 -37.7573   2.9424   3.0841   3.3648
     3.6951   3.8801   3.9011   4.0032   4.0620   4.0711   4.2614   4.3881
     4.5433   4.9848   5.0253   5.1055   5.3130   5.4836   5.4857   5.5253
     5.6675   6.2031   6.2415   6.4547   6.5526   6.6723   7.1104   7.1650
     7.3073   7.5599   7.7284   7.9588   8.1866   8.3193   8.4418   8.4548
     8.5666   8.6305   8.7220   9.4106  10.6379  12.0214  13.4211  14.5655

          k = 0.1667 0.4170 0.0000 (  4459 PWs)   bands (ev):

   -38.5843 -38.5745 -38.5536 -38.5337 -38.4761 -38.4419 -38.3818 -38.3091
   -38.3062 -38.2782 -38.2240 -38.2159 -38.1971 -38.1582 -38.1011 -38.0766
   -38.0749 -37.8637 -37.8636 -37.7505 -37.7504   3.1167   3.1825   3.3121
     3.4612   3.5209   3.5828   3.8076   3.8947   4.1118   4.2938   4.5528
     4.6678   4.9171   5.1017   5.1927   5.4307   5.5316   5.8875   5.9625
     6.1239   6.2029   6.4428   6.5681   6.8401   7.1373   7.2796   7.4168
     7.6347   7.7723   8.0125   8.4933   8.7826   8.8725   8.9449   9.1169
    10.1831  10.3285  10.5441  11.1658  12.2825  13.6695  15.1150  16.4080

          k = 0.1667 0.5453 0.0000 (  4490 PWs)   bands (ev):

   -38.6410 -38.6303 -38.5928 -38.5684 -38.5289 -38.4060 -38.3882 -38.3564
   -38.3422 -38.2956 -38.2590 -38.2378 -38.2223 -38.1684 -38.1287 -38.1209
   -38.1187 -37.8975 -37.8973 -37.7467 -37.7466   2.8117   3.0982   3.1039
     3.2373   3.3744   3.4641   3.6053   3.8499   4.0391   4.0868   4.4317
     4.5417   4.7953   5.1667   5.4760   5.6527   5.7253   5.9318   6.1997
     6.3259   6.5426   6.8222   7.1946   7.2464   7.3448   7.7284   8.0193
     8.1646   8.2932   8.4107   8.5890   8.7154   8.8034   8.9984   9.1254
    12.0424  12.4634  12.8832  13.2829  13.7877  14.2645  14.5132  16.4930

          k = 0.1667-0.4811 0.0000 (  4476 PWs)   bands (ev):

   -38.6206 -38.6101 -38.5790 -38.5552 -38.5110 -38.4210 -38.3866 -38.3386
   -38.3299 -38.2878 -38.2439 -38.2363 -38.2114 -38.1666 -38.1175 -38.1063
   -38.1036 -37.8858 -37.8855 -37.7480 -37.7479   2.9198   3.1298   3.1723
     3.3385   3.4154   3.5056   3.6759   3.8853   4.0459   4.1775   4.4485
     4.6429   4.9068   5.0423   5.4555   5.5276   5.7539   5.9534   6.0492
     6.1683   6.5277   6.6734   6.9301   7.0675   7.1985   7.6200   7.8149
     7.8338   7.9867   8.1401   8.5483   8.8375   8.8894   9.0471   9.2144
    11.1499  11.4118  11.7272  12.2996  13.2379  14.4129  15.5544  16.7415

          k = 0.1667-0.3528 0.0000 (  4458 PWs)   bands (ev):

   -38.5488 -38.5394 -38.5205 -38.5062 -38.4526 -38.4262 -38.3655 -38.2805
   -38.2714 -38.2655 -38.1994 -38.1852 -38.1790 -38.1402 -38.0849 -38.0340
   -38.0335 -37.8343 -37.8342 -37.7542 -37.7540   3.2059   3.3043   3.3943
     3.5299   3.6490   3.7479   3.8574   4.0031   4.2400   4.3056   4.4666
     4.6726   4.8510   4.9652   5.2264   5.3420   5.3881   5.5964   5.7876
     5.8679   6.1190   6.1693   6.4491   6.7241   6.8874   7.0575   7.3334
     7.4832   7.6972   7.8728   8.3459   8.5380   8.6529   8.6758   8.8908
     9.2899   9.3555   9.4831  10.1440  11.3729  12.8015  14.2527  15.4862

          k = 0.1667-0.2245 0.0000 (  4433 PWs)   bands (ev):

   -38.5684 -38.5477 -38.4487 -38.4055 -38.3628 -38.3022 -38.2850 -38.2435
   -38.2033 -38.2014 -38.1621 -38.1363 -38.1152 -38.0825 -38.0580 -37.9258
   -37.9256 -37.7716 -37.7716 -37.7618 -37.7614   2.4248   2.7214   3.2092
     3.5727   3.6913   3.8448   3.9772   4.1485   4.2811   4.3230   4.4901
     4.6688   4.7915   5.0979   5.2817   5.4362   5.5141   5.6223   5.7478
     5.8372   6.0641   6.2298   6.5182   6.5720   6.6057   6.8354   6.9185
     7.1709   7.1932   7.2745   7.5881   7.6913   7.8855   8.0353   8.0492
     8.1551   8.4715   8.6874   8.9598  10.0494  11.3381  12.6542  13.6793

          k = 0.1667-0.0962 0.0000 (  4427 PWs)   bands (ev):

   -38.6120 -38.5720 -38.4197 -38.3170 -38.2623 -38.2224 -38.1888 -38.1734
   -38.1684 -38.1666 -38.1083 -38.1014 -38.0789 -38.0619 -38.0273 -37.8282
   -37.8281 -37.7689 -37.7684 -37.7327 -37.7325   1.6141   2.0289   2.6869
     3.0994   3.1853   3.4729   3.5448   4.4068   4.6710   4.7817   4.8329
     4.9860   5.0041   5.5038   5.5512   5.6883   5.7876   5.8081   5.9040
     5.9867   6.0213   6.0921   6.1169   6.1376   6.3346   6.4437   6.6042
     6.7107   6.9160   6.9658   7.1503   7.2869   7.5155   7.5977   7.8696
     8.1776   8.2889   8.7028   8.9101   9.1347  10.2783  11.4293  12.2083

          k = 0.2778 0.4811 0.0000 (  4485 PWs)   bands (ev):

   -38.5839 -38.5808 -38.5479 -38.5350 -38.4794 -38.4619 -38.4300 -38.3856
   -38.3620 -38.3339 -38.2936 -38.2821 -38.2028 -38.1982 -38.1288 -38.0851
   -38.0849 -37.9564 -37.9564 -37.7455 -37.7453   3.3374   3.3561   3.5121
     3.5814   3.8243   3.9664   4.1148   4.1703   4.2420   4.3270   4.4001
     4.4885   4.8185   4.9626   5.1341   5.3377   5.5994   5.6962   6.0222
     6.0329   6.2464   6.2468   6.7434   6.8568   7.0083   7.2547   7.4144
     7.4831   7.8186   8.1661   8.5347   8.7999   8.8387   8.9046   9.1080
    12.4985  12.7248  13.1855  13.8690  14.7990  15.8979  16.8267  16.9373

          k = 0.2778 0.6094 0.0000 (  4491 PWs)   bands (ev):

   -38.5762 -38.5684 -38.5338 -38.5284 -38.4944 -38.4704 -38.4425 -38.4124
   -38.3821 -38.3604 -38.3034 -38.2984 -38.2048 -38.1944 -38.1407 -38.0771
   -38.0769 -37.9884 -37.9883 -37.7443 -37.7438   3.3100   3.5374   3.5829
     3.7251   3.8446   3.9872   4.0456   4.0940   4.1747   4.3523   4.4003
     4.5655   4.7136   5.0899   5.1942   5.4161   5.5468   5.6854   5.9383
     5.9942   6.2887   6.3107   6.7136   6.9172   7.0983   7.2502   7.4541
     7.5190   8.1137   8.3249   8.4725   8.6261   8.6961   8.7427   8.8856
    13.7104  14.0035  14.4630  14.9071  15.2941  15.7602  16.2899  16.5142

          k = 0.2778-0.4170 0.0000 (  4462 PWs)   bands (ev):

   -38.5904 -38.5827 -38.5563 -38.5349 -38.4880 -38.4436 -38.3987 -38.3485
   -38.3421 -38.3021 -38.2631 -38.2494 -38.2030 -38.1881 -38.1133 -38.0863
   -38.0857 -37.9111 -37.9110 -37.7474 -37.7473   3.1967   3.3297   3.4069
     3.5486   3.6739   3.7733   3.9321   4.1368   4.2438   4.2993   4.5315
     4.6952   4.7540   4.8577   5.1961   5.2708   5.5904   5.7794   6.0147
     6.0888   6.2403   6.3180   6.5402   6.8345   7.0490   7.2739   7.4400
     7.5642   7.6694   8.0232   8.5387   8.8976   8.9259   9.0249   9.2133
    11.3248  11.4714  11.8259  12.4793  13.4918  14.7541  16.0790  17.2434

          k = 0.2778-0.2887 0.0000 (  4463 PWs)   bands (ev):

   -38.5675 -38.5576 -38.5421 -38.5265 -38.4516 -38.4387 -38.3707 -38.2778
   -38.2672 -38.2586 -38.1983 -38.1857 -38.1740 -38.1187 -38.0908 -38.0557
   -38.0540 -37.8220 -37.8217 -37.7538 -37.7537   2.9625   3.0768   3.2098
     3.2469   3.3707   3.4874   3.6265   3.8546   4.0523   4.1904   4.5430
     4.7848   5.1437   5.1753   5.4086   5.5353   5.6315   5.7981   5.9818
     6.1446   6.3468   6.5654   6.6929   6.8230   7.1273   7.3319   7.4785
     7.5797   7.8287   8.1281   8.3712   8.4620   8.6537   8.6741   8.9231
     9.1405   9.3221   9.3994  10.0528  11.3224  12.8052  14.3020  15.5788

          k = 0.2778-0.1604 0.0000 (  4458 PWs)   bands (ev):

   -38.5596 -38.5390 -38.4911 -38.4691 -38.4105 -38.3615 -38.3274 -38.2554
   -38.2155 -38.2129 -38.1821 -38.1456 -38.1171 -38.0859 -38.0621 -37.9872
   -37.9868 -37.7733 -37.7732 -37.7599 -37.7595   2.5785   2.8278   3.0407
     3.1394   3.4035   3.5205   3.7750   3.8518   4.1083   4.2693   4.6856
     4.9330   5.1463   5.3282   5.5520   5.6825   5.7923   5.8408   6.0305
     6.1546   6.4185   6.5197   6.5507   6.7201   6.8568   7.0776   7.2697
     7.3382   7.4171   7.4823   7.6548   7.8326   7.8715   7.9598   8.1041
     8.3289   8.7422   8.9132   8.9757  10.2583  11.7266  13.1562  14.2821

          k = 0.3889 0.6736 0.0000 (  4511 PWs)   bands (ev):

   -38.6126 -38.6017 -38.5634 -38.5466 -38.5063 -38.4276 -38.4233 -38.3780
   -38.3755 -38.3320 -38.2901 -38.2732 -38.2157 -38.1841 -38.1343 -38.1028
   -38.1026 -37.9469 -37.9465 -37.7452 -37.7451   3.0366   3.3208   3.4151
     3.6078   3.6318   3.7827   3.7949   4.0683   4.1640   4.2416   4.4866
     4.5288   4.6936   4.9352   5.3082   5.4908   5.7210   5.9169   5.9284
     6.2658   6.3350   6.7214   6.7249   6.8110   7.1600   7.4909   7.7174
     7.8495   8.2690   8.3872   8.4560   8.6298   8.7100   8.9205   8.9257
    13.2399  13.5406  13.8463  14.1478  14.5080  14.9190  15.2471  16.6305

          k = 0.3889-0.3528 0.0000 (  4485 PWs)   bands (ev):

   -38.6542 -38.6432 -38.6082 -38.5812 -38.5399 -38.4059 -38.3875 -38.3136
   -38.3055 -38.2695 -38.2364 -38.2120 -38.2086 -38.1448 -38.1351 -38.1240
   -38.1121 -37.8545 -37.8545 -37.7490 -37.7487   2.6492   2.8386   2.9094
     2.9875   3.1355   3.2487   3.3504   3.6648   3.7897   3.8805   4.4123
     4.7275   5.0322   5.3604   5.4860   5.6970   5.8376   5.9055   6.4170
     6.5763   6.6533   7.1880   7.2923   7.6443   7.7786   7.9127   8.2618
     8.3856   8.3918   8.4759   8.6230   8.8108   8.9017   9.0409   9.2229
    10.7760  11.2598  11.6563  12.0066  12.7541  13.7383  14.5532  16.4230

          k = 0.3889-0.2245 0.0000 (  4444 PWs)   bands (ev):

   -38.6295 -38.6195 -38.5916 -38.5696 -38.5111 -38.4234 -38.3848 -38.2763
   -38.2561 -38.2526 -38.2217 -38.1834 -38.1505 -38.1284 -38.1103 -38.0973
   -38.0930 -37.8087 -37.8085 -37.7524 -37.7520   2.5973   2.6536   2.7920
     2.9160   2.9810   3.1638   3.2170   3.5417   3.6424   3.8507   4.5122
     4.9470   5.3188   5.3965   5.5467   5.8293   5.8612   5.9532   6.4420
     6.6584   6.8243   7.1285   7.5354   7.7980   8.0728   8.1979   8.2775
     8.4377   8.4971   8.5548   8.5762   8.6990   8.7461   8.8598   8.9712
     9.0924   9.1909   9.4419   9.9762  11.3944  12.9805  14.5402  16.0780

          k =-0.5000-0.8660 0.0000 (  4492 PWs)   bands (ev):

   -38.6866 -38.6760 -38.6399 -38.6072 -38.5708 -38.3983 -38.3981 -38.2731
   -38.2685 -38.2566 -38.2549 -38.1983 -38.1674 -38.1638 -38.1533 -38.1186
   -38.1054 -37.8228 -37.8227 -37.7501 -37.7500   2.3717   2.5603   2.6159
     2.7242   2.8629   3.0189   3.0278   3.3927   3.4480   3.6933   4.4011
     4.8892   5.1451   5.2837   5.4398   5.7377   6.1813   6.2305   6.3850
     7.0767   7.1290   7.2231   7.8977   8.1593   8.3627   8.5120   8.7918
     8.9038   8.9138   9.0044   9.0075   9.0719   9.1991   9.3742   9.3815
     9.7396  10.8355  11.7458  11.9452  12.3497  12.4849  12.6247  16.0940

     the Fermi energy is     8.3515 ev

!    total energy              =   -1198.23263859 Ry
     estimated scf accuracy    <       0.00000003 Ry
     smearing contrib. (-TS)   =      -0.03014903 Ry
     internal energy E=F+TS    =   -1198.20248956 Ry

     The total energy is F=E-TS. E is the sum of the following terms:
     one-electron contribution =  -13487.00370131 Ry
     hartree contribution      =    6789.28058263 Ry
     xc contribution           =    -209.37319015 Ry
     ewald contribution        =    5708.89381927 Ry

     total magnetization       =    -0.00 Bohr mag/cell
     absolute magnetization    =     0.00 Bohr mag/cell

     convergence has been achieved in  11 iterations

     negative rho (up, down):  1.990E-01 1.990E-01

     Forces acting on atoms (cartesian axes, Ry/au):

     atom    1 type  1   force =     0.00000000    0.00000000    0.00045953
     atom    2 type  1   force =     0.00000000    0.00000000    0.00125646
     atom    3 type  1   force =     0.00000000    0.00000000    0.00128552
     atom    4 type  1   force =     0.00000000    0.00000000    0.00000069
     atom    5 type  1   force =     0.00000000    0.00000000   -0.00129110
     atom    6 type  1   force =     0.00000000    0.00000000   -0.00125756
     atom    7 type  1   force =     0.00000000    0.00000000   -0.00045355

     Total force =     0.002626     Total SCF correction =     0.001092
     SCF correction compared to forces is large: reduce conv_thr to get better values
     Energy error            =      1.5E-05
     Gradient error          =      1.3E-03

     number of scf cycles    =   7
     number of bfgs steps    =   6

     energy   old            =   -1198.2326233464 Ry
     energy   new            =   -1198.2326385883 Ry

     CASE: energy  _new < energy  _old

     new trust radius        =       0.0062161413 bohr
     new conv_thr            =       0.0000001000 Ry


ATOMIC_POSITIONS (angstrom)
Rh            0.0000000000        0.0000000000        0.0355429053
Rh            2.7108568000        1.5651139000        2.2085357090
Rh            1.3554284000        0.7825569000        4.4089902821
Rh            0.0000000000        0.0000000000        6.6402161457
Rh            2.7108568000        1.5651139000        8.8714519004
Rh            1.3554284000        0.7825569000       11.0719023318
Rh            0.0000000000        0.0000000000       13.2448718257



     Writing output data file /home/STUDENTI/leonardo.razzai/WORK/relax_surf/7-L.save/
     NEW-OLD atomic charge density approx. for the potential

     negative rho (up, down):  1.981E-01 1.981E-01
     Generating pointlists ...

     total cpu time spent up to now is     1194.1 secs

     Self-consistent Calculation

     iteration #  1     ecut=    35.00 Ry     beta= 0.40
     Davidson diagonalization with overlap
     ethr =  1.00E-06,  avg # of iterations =  5.0

     negative rho (up, down):  1.981E-01 1.981E-01

     total cpu time spent up to now is     1221.7 secs

     total energy              =   -1198.23187640 Ry
     estimated scf accuracy    <       0.04442776 Ry

     total magnetization       =    -0.00 Bohr mag/cell
     absolute magnetization    =     0.00 Bohr mag/cell

     iteration #  2     ecut=    35.00 Ry     beta= 0.40
     Davidson diagonalization with overlap
     ethr =  4.23E-05,  avg # of iterations =  1.0

     negative rho (up, down):  1.981E-01 1.981E-01

     total cpu time spent up to now is     1235.3 secs

     total energy              =   -1198.23238427 Ry
     estimated scf accuracy    <       0.02373748 Ry

     total magnetization       =    -0.00 Bohr mag/cell
     absolute magnetization    =     0.00 Bohr mag/cell

     iteration #  3     ecut=    35.00 Ry     beta= 0.40
     Davidson diagonalization with overlap
     ethr =  2.26E-05,  avg # of iterations =  1.0

     negative rho (up, down):  1.980E-01 1.980E-01

     total cpu time spent up to now is     1249.3 secs

     total energy              =   -1198.23265708 Ry
     estimated scf accuracy    <       0.00126570 Ry

     total magnetization       =    -0.00 Bohr mag/cell
     absolute magnetization    =     0.00 Bohr mag/cell

     iteration #  4     ecut=    35.00 Ry     beta= 0.40
     Davidson diagonalization with overlap
     ethr =  1.21E-06,  avg # of iterations =  1.0

     negative rho (up, down):  1.980E-01 1.980E-01

     total cpu time spent up to now is     1264.1 secs

     total energy              =   -1198.23264912 Ry
     estimated scf accuracy    <       0.00051676 Ry

     total magnetization       =    -0.00 Bohr mag/cell
     absolute magnetization    =     0.00 Bohr mag/cell

     iteration #  5     ecut=    35.00 Ry     beta= 0.40
     Davidson diagonalization with overlap
     ethr =  4.92E-07,  avg # of iterations =  1.0

     negative rho (up, down):  1.980E-01 1.980E-01

     total cpu time spent up to now is     1279.9 secs

     total energy              =   -1198.23265464 Ry
     estimated scf accuracy    <       0.00000728 Ry

     total magnetization       =    -0.00 Bohr mag/cell
     absolute magnetization    =     0.00 Bohr mag/cell

     iteration #  6     ecut=    35.00 Ry     beta= 0.40
     Davidson diagonalization with overlap
     ethr =  6.94E-09,  avg # of iterations =  1.1

     negative rho (up, down):  1.980E-01 1.980E-01

     total cpu time spent up to now is     1296.2 secs

     total energy              =   -1198.23265448 Ry
     estimated scf accuracy    <       0.00000205 Ry

     total magnetization       =    -0.00 Bohr mag/cell
     absolute magnetization    =     0.00 Bohr mag/cell

     iteration #  7     ecut=    35.00 Ry     beta= 0.40
     Davidson diagonalization with overlap
     ethr =  1.96E-09,  avg # of iterations =  1.1

     negative rho (up, down):  1.980E-01 1.980E-01

     total cpu time spent up to now is     1312.6 secs

     total energy              =   -1198.23265444 Ry
     estimated scf accuracy    <       0.00000241 Ry

     total magnetization       =     0.00 Bohr mag/cell
     absolute magnetization    =     0.00 Bohr mag/cell

     iteration #  8     ecut=    35.00 Ry     beta= 0.40
     Davidson diagonalization with overlap
     ethr =  1.96E-09,  avg # of iterations =  1.6

     negative rho (up, down):  1.980E-01 1.980E-01

     total cpu time spent up to now is     1329.5 secs

     total energy              =   -1198.23265478 Ry
     estimated scf accuracy    <       0.00000167 Ry

     total magnetization       =     0.00 Bohr mag/cell
     absolute magnetization    =     0.00 Bohr mag/cell

     iteration #  9     ecut=    35.00 Ry     beta= 0.40
     Davidson diagonalization with overlap
     ethr =  1.59E-09,  avg # of iterations =  1.0

     negative rho (up, down):  1.980E-01 1.980E-01

     total cpu time spent up to now is     1345.5 secs

     total energy              =   -1198.23265515 Ry
     estimated scf accuracy    <       0.00000160 Ry

     total magnetization       =     0.00 Bohr mag/cell
     absolute magnetization    =     0.00 Bohr mag/cell

     iteration # 10     ecut=    35.00 Ry     beta= 0.40
     Davidson diagonalization with overlap
     ethr =  1.53E-09,  avg # of iterations =  1.0

     negative rho (up, down):  1.980E-01 1.980E-01

     total cpu time spent up to now is     1361.4 secs

     total energy              =   -1198.23265536 Ry
     estimated scf accuracy    <       0.00000029 Ry

     total magnetization       =     0.00 Bohr mag/cell
     absolute magnetization    =     0.00 Bohr mag/cell

     iteration # 11     ecut=    35.00 Ry     beta= 0.40
     Davidson diagonalization with overlap
     ethr =  2.74E-10,  avg # of iterations =  1.1

     negative rho (up, down):  1.981E-01 1.981E-01
 
     Magnetic moment per site:
     atom:    1    charge:   13.1070    magn:    0.0000    constr:    0.0000
     atom:    2    charge:   13.1635    magn:    0.0000    constr:    0.0000
     atom:    3    charge:   13.1584    magn:    0.0000    constr:    0.0000
     atom:    4    charge:   13.1514    magn:    0.0000    constr:    0.0000
     atom:    5    charge:   13.1583    magn:    0.0000    constr:    0.0000
     atom:    6    charge:   13.1634    magn:    0.0000    constr:    0.0000
     atom:    7    charge:   13.1069    magn:    0.0000    constr:    0.0000

     total cpu time spent up to now is     1377.3 secs

     End of self-consistent calculation

 ------ SPIN UP ------------


          k = 0.0556 0.0962 0.0000 (  4451 PWs)   bands (ev):

   -38.6458 -38.5962 -38.4155 -38.2677 -38.1806 -38.1699 -38.1486 -38.1477
   -38.1112 -38.1090 -38.0795 -38.0685 -38.0546 -38.0407 -38.0130 -37.7768
   -37.7757 -37.7443 -37.7442 -37.7127 -37.7125   1.0387   1.4950   2.2106
     2.7118   2.7363   3.0337   3.0823   4.9024   4.9299   5.1206   5.1747
     5.2666   5.3583   5.5612   5.5745   5.6073   5.6464   5.6555   5.6904
     5.7820   5.8459   5.8990   5.9616   6.0922   6.1990   6.2041   6.7520
     7.0529   7.0977   7.2786   7.3290   7.5200   7.5560   7.6743   7.7633
     8.0656   8.1057   8.5990   8.6234   8.8174   9.3736  10.3057  10.8509

          k = 0.0556 0.2245 0.0000 (  4420 PWs)   bands (ev):

   -38.5960 -38.5640 -38.4297 -38.3567 -38.3080 -38.2548 -38.2334 -38.2111
   -38.1816 -38.1801 -38.1397 -38.1141 -38.0943 -38.0671 -38.0410 -37.8706
   -37.8705 -37.7648 -37.7644 -37.7458 -37.7452   1.9525   2.3273   2.9282
     3.2834   3.4060   3.6835   3.7826   4.2207   4.4885   4.5953   4.6429
     4.8316   4.8732   5.3545   5.4687   5.6171   5.7172   5.8001   5.8474
     5.9217   6.0356   6.1837   6.2952   6.4240   6.5175   6.6423   6.7255
     6.7706   6.9226   7.0615   7.1635   7.3326   7.6272   7.7180   7.9685
     8.0963   8.5179   8.6665   8.8233   9.5478  10.7464  11.9747  12.8685

          k = 0.0556 0.3528 0.0000 (  4467 PWs)   bands (ev):

   -38.5615 -38.5420 -38.5249 -38.5075 -38.4374 -38.4036 -38.3543 -38.2671
   -38.2362 -38.2321 -38.1921 -38.1627 -38.1392 -38.0948 -38.0768 -38.0239
   -38.0230 -37.7895 -37.7894 -37.7559 -37.7557   2.7436   2.9875   3.0402
     3.1258   3.3601   3.4153   3.6483   3.8128   4.0810   4.1447   4.6348
     4.9482   5.1265   5.3535   5.5484   5.6584   5.6888   5.7800   6.0336
     6.1609   6.4470   6.5994   6.7408   6.8177   7.0411   7.3045   7.4692
     7.5260   7.7251   7.8402   7.9881   8.1010   8.2850   8.3568   8.4862
     8.4971   8.6728   8.9147   9.3142  10.6636  12.1712  13.6535  14.8605

          k = 0.0556 0.4811 0.0000 (  4463 PWs)   bands (ev):

   -38.6518 -38.6410 -38.6093 -38.5838 -38.5333 -38.4155 -38.3887 -38.2840
   -38.2751 -38.2644 -38.2292 -38.1963 -38.1736 -38.1353 -38.1274 -38.1111
   -38.1022 -37.8224 -37.8222 -37.7494 -37.7491   2.5599   2.6788   2.7815
     2.8809   2.9956   3.1642   3.1824   3.5479   3.6349   3.8127   4.4536
     4.8696   5.2119   5.3802   5.5035   5.7404   5.9270   5.9798   6.4893
     6.6667   6.8322   7.2273   7.5127   7.8546   8.0491   8.0961   8.3886
     8.4759   8.5793   8.6246   8.7226   8.7385   8.8877   8.9893   9.1481
     9.5872  10.1173  10.4477  10.7802  11.8714  13.2774  14.6276  16.3690

          k = 0.0556-0.5453 0.0000 (  4486 PWs)   bands (ev):

   -38.6802 -38.6687 -38.6333 -38.6030 -38.5624 -38.4017 -38.3946 -38.2880
   -38.2833 -38.2611 -38.2452 -38.2037 -38.1837 -38.1529 -38.1482 -38.1176
   -38.1120 -37.8301 -37.8297 -37.7481 -37.7479   2.4427   2.6278   2.6913
     2.7825   2.9324   3.0773   3.1057   3.4708   3.5389   3.7370   4.4091
     4.8400   5.1200   5.3341   5.4395   5.7520   5.9833   6.1310   6.4951
     6.8055   7.0689   7.2807   7.7137   8.0771   8.1987   8.4555   8.4928
     8.6999   8.7865   8.8724   8.9022   8.9675   9.0422   9.1477   9.2646
    10.2146  11.0011  11.7373  11.8996  12.2001  12.9139  13.4834  16.1830

          k = 0.0556-0.4170 0.0000 (  4465 PWs)   bands (ev):

   -38.6006 -38.5919 -38.5711 -38.5520 -38.4804 -38.4344 -38.3797 -38.2775
   -38.2589 -38.2531 -38.2117 -38.1823 -38.1583 -38.1115 -38.0968 -38.0836
   -38.0783 -37.8085 -37.8084 -37.7522 -37.7517   2.7481   2.7734   2.9424
     3.0376   3.1050   3.2906   3.3618   3.6705   3.8241   3.9524   4.5453
     4.9126   5.3280   5.4634   5.5792   5.6357   5.7096   5.9533   6.2621
     6.3865   6.6062   6.9962   7.1778   7.3839   7.5753   7.6909   8.0077
     8.0892   8.1318   8.2559   8.3723   8.5149   8.6236   8.7325   8.8968
     9.0201   9.2040   9.2786   9.9156  11.2826  12.8489  14.4073  15.7795

          k = 0.0556-0.2887 0.0000 (  4439 PWs)   bands (ev):

   -38.5677 -38.5480 -38.4653 -38.4329 -38.3831 -38.3252 -38.3019 -38.2468
   -38.2090 -38.2065 -38.1699 -38.1386 -38.1171 -38.0795 -38.0583 -37.9494
   -37.9488 -37.7675 -37.7674 -37.7599 -37.7595   2.4687   2.7414   3.1204
     3.2893   3.5081   3.7033   3.9026   4.0364   4.2279   4.3797   4.6207
     4.6807   5.0004   5.1303   5.4966   5.6760   5.7581   5.8052   5.9026
     6.0272   6.1068   6.2786   6.3712   6.6846   6.7277   6.8347   6.9853
     7.1632   7.2310   7.3433   7.5839   7.6946   7.8331   7.9669   8.0785
     8.2592   8.5779   8.8601   8.9271  10.0864  11.4600  12.8248  13.8855

          k = 0.0556-0.1604 0.0000 (  4443 PWs)   bands (ev):

   -38.6246 -38.5819 -38.4179 -38.2990 -38.2360 -38.2061 -38.1759 -38.1687
   -38.1540 -38.1466 -38.1016 -38.0921 -38.0699 -38.0590 -38.0255 -37.8016
   -37.8014 -37.7686 -37.7682 -37.7267 -37.7266   1.4325   1.8653   2.5547
     3.0209   3.0521   3.3540   3.4030   4.5887   4.7070   4.8773   4.9488
     5.0546   5.0905   5.4277   5.5611   5.6685   5.7421   5.7978   5.8760
     5.8833   5.9329   5.9849   6.0258   6.2145   6.2675   6.4316   6.5035
     6.8892   6.9804   7.0512   7.1219   7.3056   7.5034   7.6422   7.8670
     8.0123   8.3711   8.5672   8.8011   9.0558  10.0397  11.1199  11.8322

          k = 0.0556-0.0321 0.0000 (  4465 PWs)   bands (ev):

   -38.6572 -38.6044 -38.4163 -38.2572 -38.1503 -38.1474 -38.1392 -38.1380
   -38.0866 -38.0810 -38.0736 -38.0562 -38.0537 -38.0175 -38.0060 -37.7787
   -37.7773 -37.7165 -37.7163 -37.7054 -37.7051   0.8299   1.2942   2.0166
     2.5273   2.5663   2.8505   2.8993   5.0729   5.1134   5.2684   5.3352
     5.3835   5.4169   5.4259   5.4939   5.5156   5.6214   5.6410   5.6548
     5.7037   5.7419   5.9194   5.9762   6.0420   6.0557   6.3027   7.1521
     7.1913   7.2553   7.3645   7.3734   7.5215   7.5593   7.8087   7.9206
     8.1485   8.2628   8.2661   8.6688   8.8341   8.8602   9.6721  10.1027

          k = 0.1667 0.2887 0.0000 (  4425 PWs)   bands (ev):

   -38.5467 -38.5422 -38.4827 -38.4614 -38.4203 -38.3658 -38.3318 -38.2661
   -38.2356 -38.2348 -38.1754 -38.1688 -38.1448 -38.1122 -38.0709 -37.9807
   -37.9806 -37.8004 -37.8003 -37.7564 -37.7559   2.9388   3.0804   3.3618
     3.6926   3.8763   3.8972   3.9984   4.0593   4.0676   4.2616   4.3880
     4.5420   4.9852   5.0252   5.1056   5.3127   5.4845   5.4858   5.5214
     5.6646   6.2043   6.2416   6.4561   6.5523   6.6726   7.1082   7.1625
     7.3082   7.5581   7.7286   7.9583   8.1869   8.3198   8.4420   8.4556
     8.5669   8.6313   8.7230   9.4120  10.6402  12.0247  13.4243  14.5685

          k = 0.1667 0.4170 0.0000 (  4459 PWs)   bands (ev):

   -38.5864 -38.5764 -38.5561 -38.5363 -38.4763 -38.4437 -38.3831 -38.3102
   -38.3072 -38.2789 -38.2255 -38.2171 -38.1985 -38.1583 -38.1014 -38.0757
   -38.0742 -37.8624 -37.8623 -37.7491 -37.7489   3.1122   3.1784   3.3076
     3.4570   3.5168   3.5792   3.8070   3.8935   4.1120   4.2933   4.5523
     4.6665   4.9145   5.0979   5.1899   5.4287   5.5292   5.8879   5.9630
     6.1249   6.2035   6.4436   6.5680   6.8415   7.1370   7.2802   7.4165
     7.6340   7.7713   8.0129   8.4945   8.7829   8.8737   8.9450   9.1178
    10.1826  10.3282  10.5448  11.1669  12.2842  13.6729  15.1186  16.4102

          k = 0.1667 0.5453 0.0000 (  4490 PWs)   bands (ev):

   -38.6428 -38.6321 -38.5951 -38.5710 -38.5289 -38.4075 -38.3895 -38.3581
   -38.3435 -38.2963 -38.2597 -38.2394 -38.2238 -38.1688 -38.1287 -38.1203
   -38.1184 -37.8962 -37.8961 -37.7452 -37.7451   2.8069   3.0941   3.0992
     3.2331   3.3705   3.4597   3.6056   3.8497   4.0393   4.0875   4.4310
     4.5379   4.7913   5.1648   5.4756   5.6497   5.7256   5.9329   6.1979
     6.3234   6.5446   6.8222   7.1952   7.2463   7.3455   7.7273   8.0198
     8.1652   8.2930   8.4110   8.5899   8.7163   8.8046   8.9993   9.1265
    12.0418  12.4632  12.8837  13.2836  13.7880  14.2658  14.5145  16.4923

          k = 0.1667-0.4811 0.0000 (  4476 PWs)   bands (ev):

   -38.6225 -38.6119 -38.5814 -38.5579 -38.5111 -38.4227 -38.3880 -38.3400
   -38.3310 -38.2885 -38.2449 -38.2379 -38.2128 -38.1668 -38.1176 -38.1056
   -38.1032 -37.8845 -37.8843 -37.7465 -37.7464   2.9152   3.1257   3.1676
     3.3342   3.4116   3.5014   3.6758   3.8850   4.0460   4.1779   4.4478
     4.6399   4.9030   5.0401   5.4530   5.5260   5.7539   5.9528   6.0489
     6.1675   6.5277   6.6749   6.9311   7.0680   7.1979   7.6191   7.8151
     7.8345   7.9861   8.1410   8.5495   8.8380   8.8906   9.0476   9.2154
    11.1493  11.4116  11.7279  12.3005  13.2392  14.4156  15.5568  16.7425

          k = 0.1667-0.3528 0.0000 (  4458 PWs)   bands (ev):

   -38.5516 -38.5421 -38.5227 -38.5082 -38.4538 -38.4268 -38.3667 -38.2813
   -38.2725 -38.2665 -38.2008 -38.1865 -38.1804 -38.1401 -38.0854 -38.0330
   -38.0325 -37.8330 -37.8329 -37.7528 -37.7526   3.2019   3.3000   3.3900
     3.5265   3.6456   3.7434   3.8563   4.0010   4.2388   4.3045   4.4647
     4.6718   4.8508   4.9640   5.2247   5.3388   5.3858   5.5964   5.7884
     5.8680   6.1201   6.1699   6.4491   6.7255   6.8878   7.0572   7.3320
     7.4826   7.6961   7.8725   8.3467   8.5384   8.6525   8.6770   8.8918
     9.2897   9.3552   9.4837  10.1453  11.3750  12.8052  14.2562  15.4888

          k = 0.1667-0.2245 0.0000 (  4433 PWs)   bands (ev):

   -38.5717 -38.5512 -38.4503 -38.4072 -38.3637 -38.3028 -38.2862 -38.2446
   -38.2045 -38.2026 -38.1629 -38.1374 -38.1167 -38.0827 -38.0583 -37.9246
   -37.9244 -37.7703 -37.7703 -37.7605 -37.7601   2.4214   2.7180   3.2077
     3.5693   3.6878   3.8411   3.9753   4.1459   4.2787   4.3218   4.4890
     4.6667   4.7908   5.0978   5.2821   5.4361   5.5142   5.6227   5.7451
     5.8335   6.0649   6.2297   6.5174   6.5731   6.6051   6.8335   6.9155
     7.1721   7.1911   7.2749   7.5887   7.6917   7.8846   8.0359   8.0494
     8.1554   8.4723   8.6891   8.9609  10.0518  11.3408  12.6571  13.6828

          k = 0.1667-0.0962 0.0000 (  4427 PWs)   bands (ev):

   -38.6152 -38.5756 -38.4206 -38.3187 -38.2633 -38.2231 -38.1902 -38.1748
   -38.1699 -38.1680 -38.1084 -38.1023 -38.0805 -38.0626 -38.0274 -37.8269
   -37.8268 -37.7677 -37.7672 -37.7314 -37.7312   1.6108   2.0258   2.6865
     3.0956   3.1819   3.4729   3.5447   4.4043   4.6663   4.7814   4.8302
     4.9848   5.0019   5.5046   5.5517   5.6883   5.7824   5.8086   5.9052
     5.9824   6.0173   6.0926   6.1139   6.1385   6.3345   6.4446   6.6051
     6.7107   6.9169   6.9650   7.1505   7.2862   7.5136   7.5988   7.8701
     8.1783   8.2878   8.7036   8.9118   9.1369  10.2797  11.4316  12.2118

          k = 0.2778 0.4811 0.0000 (  4485 PWs)   bands (ev):

   -38.5858 -38.5827 -38.5501 -38.5374 -38.4801 -38.4641 -38.4316 -38.3865
   -38.3629 -38.3341 -38.2949 -38.2831 -38.2033 -38.2000 -38.1290 -38.0842
   -38.0840 -37.9553 -37.9552 -37.7440 -37.7437   3.3319   3.3521   3.5070
     3.5779   3.8213   3.9614   4.1124   4.1677   4.2402   4.3234   4.3995
     4.4867   4.8170   4.9620   5.1325   5.3364   5.5998   5.6945   6.0228
     6.0336   6.2477   6.2480   6.7445   6.8590   7.0098   7.2544   7.4142
     7.4824   7.8181   8.1667   8.5358   8.8009   8.8394   8.9054   9.1092
    12.4977  12.7246  13.1863  13.8700  14.8002  15.8998  16.8271  16.9375

          k = 0.2778 0.6094 0.0000 (  4491 PWs)   bands (ev):

   -38.5781 -38.5702 -38.5361 -38.5309 -38.4961 -38.4724 -38.4432 -38.4133
   -38.3832 -38.3608 -38.3044 -38.2993 -38.2064 -38.1958 -38.1406 -38.0762
   -38.0759 -37.9873 -37.9872 -37.7427 -37.7423   3.3050   3.5323   3.5781
     3.7215   3.8399   3.9827   4.0420   4.0914   4.1734   4.3494   4.3995
     4.5644   4.7121   5.0897   5.1929   5.4148   5.5461   5.6847   5.9391
     5.9946   6.2899   6.3118   6.7149   6.9199   7.0995   7.2498   7.4537
     7.5190   8.1134   8.3254   8.4732   8.6273   8.6969   8.7437   8.8867
    13.7097  14.0034  14.4636  14.9073  15.2938  15.7610  16.2913  16.5141

          k = 0.2778-0.4170 0.0000 (  4462 PWs)   bands (ev):

   -38.5923 -38.5847 -38.5586 -38.5375 -38.4883 -38.4456 -38.4004 -38.3493
   -38.3429 -38.3026 -38.2649 -38.2506 -38.2038 -38.1888 -38.1136 -38.0855
   -38.0849 -37.9099 -37.9097 -37.7459 -37.7457   3.1920   3.3251   3.4025
     3.5442   3.6710   3.7690   3.9306   4.1348   4.2431   4.2986   4.5284
     4.6934   4.7525   4.8559   5.1938   5.2690   5.5886   5.7795   6.0154
     6.0893   6.2418   6.3190   6.5409   6.8365   7.0497   7.2732   7.4408
     7.5635   7.6682   8.0238   8.5399   8.8986   8.9266   9.0254   9.2142
    11.3242  11.4710  11.8266  12.4804  13.4934  14.7571  16.0821  17.2454

          k = 0.2778-0.2887 0.0000 (  4463 PWs)   bands (ev):

   -38.5699 -38.5597 -38.5447 -38.5289 -38.4523 -38.4396 -38.3717 -38.2787
   -38.2685 -38.2598 -38.1994 -38.1868 -38.1754 -38.1188 -38.0911 -38.0548
   -38.0532 -37.8207 -37.8204 -37.7524 -37.7522   2.9586   3.0726   3.2053
     3.2435   3.3665   3.4842   3.6251   3.8549   4.0523   4.1906   4.5422
     4.7837   5.1400   5.1734   5.4054   5.5328   5.6292   5.7989   5.9817
     6.1439   6.3471   6.5661   6.6927   6.8237   7.1266   7.3325   7.4787
     7.5787   7.8275   8.1278   8.3711   8.4629   8.6546   8.6738   8.9246
     9.1404   9.3220   9.4001  10.0541  11.3244  12.8089  14.3056  15.5813

          k = 0.2778-0.1604 0.0000 (  4458 PWs)   bands (ev):

   -38.5628 -38.5424 -38.4931 -38.4709 -38.4112 -38.3618 -38.3285 -38.2563
   -38.2170 -38.2144 -38.1831 -38.1463 -38.1186 -38.0865 -38.0622 -37.9861
   -37.9857 -37.7721 -37.7719 -37.7586 -37.7582   2.5750   2.8243   3.0376
     3.1363   3.4008   3.5167   3.7733   3.8515   4.1083   4.2688   4.6842
     4.9299   5.1458   5.3262   5.5521   5.6835   5.7865   5.8406   6.0246
     6.1545   6.4192   6.5196   6.5515   6.7197   6.8550   7.0756   7.2706
     7.3378   7.4180   7.4814   7.6553   7.8331   7.8710   7.9601   8.1047
     8.3281   8.7433   8.9146   8.9777  10.2608  11.7296  13.1594  14.2854

          k = 0.3889 0.6736 0.0000 (  4511 PWs)   bands (ev):

   -38.6145 -38.6035 -38.5656 -38.5492 -38.5066 -38.4293 -38.4251 -38.3789
   -38.3768 -38.3324 -38.2909 -38.2745 -38.2172 -38.1852 -38.1344 -38.1020
   -38.1018 -37.9457 -37.9454 -37.7437 -37.7435   3.0318   3.3158   3.4109
     3.6035   3.6273   3.7783   3.7945   4.0661   4.1627   4.2418   4.4843
     4.5247   4.6938   4.9339   5.3072   5.4879   5.7216   5.9148   5.9289
     6.2659   6.3358   6.7226   6.7270   6.8118   7.1598   7.4900   7.7177
     7.8503   8.2683   8.3875   8.4571   8.6311   8.7111   8.9215   8.9268
    13.2394  13.5402  13.8461  14.1483  14.5079  14.9203  15.2492  16.6319

          k = 0.3889-0.3528 0.0000 (  4485 PWs)   bands (ev):

   -38.6560 -38.6450 -38.6105 -38.5837 -38.5399 -38.4072 -38.3884 -38.3153
   -38.3070 -38.2706 -38.2373 -38.2133 -38.2099 -38.1446 -38.1348 -38.1238
   -38.1123 -37.8533 -37.8532 -37.7475 -37.7472   2.6446   2.8348   2.9049
     2.9831   3.1319   3.2440   3.3507   3.6653   3.7902   3.8813   4.4119
     4.7246   5.0291   5.3583   5.4859   5.6960   5.8343   5.9046   6.4154
     6.5777   6.6511   7.1881   7.2916   7.6453   7.7789   7.9117   8.2619
     8.3856   8.3919   8.4765   8.6241   8.8108   8.9029   9.0414   9.2238
    10.7754  11.2598  11.6571  12.0074  12.7548  13.7404  14.5549  16.4237

          k = 0.3889-0.2245 0.0000 (  4444 PWs)   bands (ev):

   -38.6314 -38.6214 -38.5942 -38.5721 -38.5114 -38.4248 -38.3858 -38.2771
   -38.2577 -38.2542 -38.2233 -38.1840 -38.1519 -38.1281 -38.1096 -38.0973
   -38.0932 -37.8074 -37.8072 -37.7510 -37.7505   2.5931   2.6496   2.7880
     2.9114   2.9774   3.1637   3.2128   3.5427   3.6429   3.8512   4.5120
     4.9464   5.3191   5.3975   5.5410   5.8235   5.8595   5.9507   6.4429
     6.6562   6.8238   7.1283   7.5366   7.7962   8.0730   8.1986   8.2769
     8.4367   8.4948   8.5542   8.5761   8.6993   8.7461   8.8608   8.9724
     9.0943   9.1922   9.4430   9.9776  11.3959  12.9840  14.5441  16.0800

          k =-0.5000-0.8660 0.0000 (  4492 PWs)   bands (ev):

   -38.6885 -38.6778 -38.6422 -38.6097 -38.5708 -38.3992 -38.3989 -38.2747
   -38.2701 -38.2578 -38.2571 -38.1989 -38.1670 -38.1652 -38.1529 -38.1189
   -38.1056 -37.8216 -37.8214 -37.7486 -37.7485   2.3672   2.5565   2.6117
     2.7197   2.8592   3.0193   3.0231   3.3935   3.4488   3.6940   4.4011
     4.8882   5.1456   5.2849   5.4340   5.7320   6.1799   6.2277   6.3862
     7.0755   7.1292   7.2223   7.8960   8.1602   8.3646   8.5128   8.7924
     8.9019   8.9118   9.0045   9.0083   9.0712   9.1996   9.3753   9.3826
     9.7389  10.8360  11.7460  11.9478  12.3497  12.4873  12.6249  16.0947

 ------ SPIN DOWN ----------


          k = 0.0556 0.0962 0.0000 (  4451 PWs)   bands (ev):

   -38.6458 -38.5962 -38.4155 -38.2677 -38.1806 -38.1699 -38.1486 -38.1477
   -38.1112 -38.1090 -38.0795 -38.0685 -38.0546 -38.0407 -38.0130 -37.7768
   -37.7757 -37.7443 -37.7442 -37.7127 -37.7125   1.0387   1.4950   2.2106
     2.7118   2.7363   3.0337   3.0823   4.9024   4.9299   5.1206   5.1747
     5.2666   5.3583   5.5612   5.5745   5.6073   5.6464   5.6555   5.6904
     5.7820   5.8459   5.8990   5.9616   6.0922   6.1990   6.2041   6.7520
     7.0529   7.0977   7.2786   7.3290   7.5200   7.5560   7.6743   7.7633
     8.0656   8.1057   8.5990   8.6234   8.8174   9.3736  10.3057  10.8509

          k = 0.0556 0.2245 0.0000 (  4420 PWs)   bands (ev):

   -38.5960 -38.5640 -38.4297 -38.3567 -38.3080 -38.2548 -38.2334 -38.2111
   -38.1816 -38.1801 -38.1397 -38.1141 -38.0943 -38.0671 -38.0410 -37.8706
   -37.8705 -37.7648 -37.7644 -37.7458 -37.7452   1.9525   2.3273   2.9282
     3.2834   3.4060   3.6835   3.7826   4.2207   4.4885   4.5953   4.6429
     4.8316   4.8732   5.3545   5.4687   5.6171   5.7172   5.8001   5.8474
     5.9217   6.0356   6.1837   6.2952   6.4240   6.5175   6.6423   6.7255
     6.7706   6.9226   7.0615   7.1635   7.3326   7.6272   7.7180   7.9685
     8.0963   8.5179   8.6665   8.8233   9.5478  10.7464  11.9747  12.8685

          k = 0.0556 0.3528 0.0000 (  4467 PWs)   bands (ev):

   -38.5615 -38.5420 -38.5249 -38.5075 -38.4374 -38.4036 -38.3543 -38.2671
   -38.2362 -38.2321 -38.1921 -38.1627 -38.1392 -38.0948 -38.0768 -38.0239
   -38.0230 -37.7895 -37.7894 -37.7559 -37.7557   2.7436   2.9875   3.0402
     3.1258   3.3601   3.4153   3.6483   3.8128   4.0810   4.1447   4.6348
     4.9482   5.1265   5.3535   5.5484   5.6584   5.6888   5.7800   6.0336
     6.1609   6.4470   6.5994   6.7408   6.8177   7.0411   7.3045   7.4692
     7.5260   7.7251   7.8402   7.9881   8.1010   8.2850   8.3568   8.4862
     8.4971   8.6728   8.9147   9.3142  10.6636  12.1712  13.6535  14.8605

          k = 0.0556 0.4811 0.0000 (  4463 PWs)   bands (ev):

   -38.6518 -38.6410 -38.6093 -38.5838 -38.5333 -38.4155 -38.3887 -38.2840
   -38.2751 -38.2644 -38.2292 -38.1963 -38.1736 -38.1353 -38.1274 -38.1111
   -38.1022 -37.8224 -37.8222 -37.7494 -37.7491   2.5599   2.6788   2.7815
     2.8809   2.9956   3.1642   3.1824   3.5479   3.6349   3.8127   4.4536
     4.8696   5.2119   5.3802   5.5035   5.7404   5.9270   5.9798   6.4893
     6.6667   6.8322   7.2273   7.5127   7.8546   8.0491   8.0961   8.3886
     8.4759   8.5793   8.6246   8.7226   8.7385   8.8877   8.9893   9.1481
     9.5872  10.1173  10.4477  10.7802  11.8714  13.2774  14.6276  16.3690

          k = 0.0556-0.5453 0.0000 (  4486 PWs)   bands (ev):

   -38.6802 -38.6687 -38.6333 -38.6030 -38.5624 -38.4017 -38.3946 -38.2880
   -38.2833 -38.2611 -38.2452 -38.2037 -38.1837 -38.1529 -38.1482 -38.1176
   -38.1120 -37.8301 -37.8297 -37.7481 -37.7479   2.4427   2.6278   2.6913
     2.7825   2.9324   3.0773   3.1057   3.4708   3.5389   3.7370   4.4091
     4.8400   5.1200   5.3341   5.4395   5.7520   5.9833   6.1310   6.4951
     6.8055   7.0689   7.2807   7.7137   8.0771   8.1987   8.4555   8.4928
     8.6999   8.7865   8.8724   8.9022   8.9675   9.0422   9.1477   9.2646
    10.2146  11.0011  11.7373  11.8996  12.2001  12.9139  13.4834  16.1843

          k = 0.0556-0.4170 0.0000 (  4465 PWs)   bands (ev):

   -38.6006 -38.5919 -38.5711 -38.5520 -38.4804 -38.4344 -38.3797 -38.2775
   -38.2589 -38.2531 -38.2117 -38.1823 -38.1583 -38.1115 -38.0968 -38.0836
   -38.0783 -37.8085 -37.8084 -37.7522 -37.7517   2.7481   2.7734   2.9424
     3.0376   3.1050   3.2906   3.3618   3.6705   3.8241   3.9524   4.5453
     4.9126   5.3280   5.4634   5.5792   5.6357   5.7096   5.9533   6.2621
     6.3865   6.6062   6.9962   7.1778   7.3839   7.5753   7.6909   8.0077
     8.0892   8.1318   8.2559   8.3723   8.5149   8.6236   8.7325   8.8968
     9.0201   9.2040   9.2786   9.9156  11.2826  12.8489  14.4073  15.7795

          k = 0.0556-0.2887 0.0000 (  4439 PWs)   bands (ev):

   -38.5677 -38.5480 -38.4653 -38.4329 -38.3831 -38.3252 -38.3019 -38.2468
   -38.2090 -38.2065 -38.1699 -38.1386 -38.1171 -38.0795 -38.0583 -37.9494
   -37.9488 -37.7675 -37.7674 -37.7599 -37.7595   2.4687   2.7414   3.1204
     3.2893   3.5081   3.7033   3.9026   4.0364   4.2279   4.3797   4.6207
     4.6807   5.0004   5.1303   5.4966   5.6760   5.7581   5.8052   5.9026
     6.0272   6.1068   6.2786   6.3712   6.6846   6.7277   6.8347   6.9853
     7.1632   7.2310   7.3433   7.5839   7.6946   7.8331   7.9669   8.0785
     8.2592   8.5779   8.8601   8.9271  10.0864  11.4600  12.8248  13.8855

          k = 0.0556-0.1604 0.0000 (  4443 PWs)   bands (ev):

   -38.6246 -38.5819 -38.4179 -38.2990 -38.2360 -38.2061 -38.1759 -38.1687
   -38.1540 -38.1466 -38.1016 -38.0921 -38.0699 -38.0590 -38.0255 -37.8016
   -37.8014 -37.7686 -37.7682 -37.7267 -37.7266   1.4325   1.8653   2.5547
     3.0209   3.0521   3.3540   3.4030   4.5887   4.7070   4.8773   4.9488
     5.0546   5.0905   5.4277   5.5611   5.6685   5.7421   5.7978   5.8760
     5.8833   5.9329   5.9849   6.0258   6.2145   6.2675   6.4316   6.5035
     6.8892   6.9804   7.0512   7.1219   7.3056   7.5034   7.6422   7.8670
     8.0123   8.3711   8.5672   8.8011   9.0558  10.0397  11.1199  11.8322

          k = 0.0556-0.0321 0.0000 (  4465 PWs)   bands (ev):

   -38.6572 -38.6044 -38.4163 -38.2572 -38.1503 -38.1474 -38.1392 -38.1380
   -38.0866 -38.0810 -38.0736 -38.0562 -38.0537 -38.0175 -38.0060 -37.7787
   -37.7773 -37.7165 -37.7163 -37.7054 -37.7051   0.8299   1.2942   2.0166
     2.5273   2.5663   2.8505   2.8993   5.0729   5.1134   5.2684   5.3352
     5.3835   5.4169   5.4259   5.4939   5.5156   5.6214   5.6410   5.6548
     5.7037   5.7419   5.9194   5.9762   6.0420   6.0557   6.3027   7.1521
     7.1913   7.2553   7.3645   7.3734   7.5215   7.5593   7.8087   7.9206
     8.1485   8.2628   8.2661   8.6688   8.8341   8.8602   9.6721  10.1027

          k = 0.1667 0.2887 0.0000 (  4425 PWs)   bands (ev):

   -38.5467 -38.5422 -38.4827 -38.4614 -38.4203 -38.3658 -38.3318 -38.2661
   -38.2356 -38.2348 -38.1754 -38.1688 -38.1448 -38.1122 -38.0709 -37.9807
   -37.9806 -37.8004 -37.8003 -37.7564 -37.7559   2.9388   3.0804   3.3618
     3.6926   3.8763   3.8972   3.9984   4.0593   4.0676   4.2616   4.3880
     4.5420   4.9852   5.0252   5.1056   5.3127   5.4845   5.4858   5.5214
     5.6646   6.2043   6.2416   6.4561   6.5523   6.6726   7.1082   7.1625
     7.3082   7.5581   7.7286   7.9583   8.1869   8.3198   8.4420   8.4556
     8.5669   8.6313   8.7230   9.4120  10.6402  12.0247  13.4243  14.5685

          k = 0.1667 0.4170 0.0000 (  4459 PWs)   bands (ev):

   -38.5864 -38.5764 -38.5561 -38.5363 -38.4763 -38.4437 -38.3831 -38.3102
   -38.3072 -38.2789 -38.2255 -38.2171 -38.1985 -38.1583 -38.1014 -38.0757
   -38.0742 -37.8624 -37.8623 -37.7491 -37.7489   3.1122   3.1784   3.3076
     3.4570   3.5168   3.5792   3.8070   3.8935   4.1120   4.2933   4.5523
     4.6665   4.9145   5.0979   5.1899   5.4287   5.5292   5.8879   5.9630
     6.1249   6.2035   6.4436   6.5680   6.8415   7.1370   7.2802   7.4165
     7.6340   7.7713   8.0129   8.4945   8.7829   8.8737   8.9450   9.1178
    10.1826  10.3282  10.5448  11.1669  12.2842  13.6729  15.1186  16.4102

          k = 0.1667 0.5453 0.0000 (  4490 PWs)   bands (ev):

   -38.6428 -38.6321 -38.5951 -38.5710 -38.5289 -38.4075 -38.3895 -38.3581
   -38.3435 -38.2963 -38.2597 -38.2394 -38.2238 -38.1688 -38.1287 -38.1203
   -38.1184 -37.8962 -37.8961 -37.7452 -37.7451   2.8069   3.0941   3.0992
     3.2331   3.3705   3.4597   3.6056   3.8497   4.0393   4.0875   4.4310
     4.5379   4.7913   5.1648   5.4756   5.6497   5.7256   5.9329   6.1979
     6.3234   6.5446   6.8222   7.1952   7.2463   7.3455   7.7273   8.0198
     8.1652   8.2930   8.4110   8.5899   8.7163   8.8046   8.9993   9.1265
    12.0418  12.4632  12.8837  13.2836  13.7880  14.2658  14.5145  16.4934

          k = 0.1667-0.4811 0.0000 (  4476 PWs)   bands (ev):

   -38.6225 -38.6119 -38.5814 -38.5579 -38.5111 -38.4227 -38.3880 -38.3400
   -38.3310 -38.2885 -38.2449 -38.2379 -38.2128 -38.1668 -38.1176 -38.1056
   -38.1032 -37.8845 -37.8843 -37.7465 -37.7464   2.9152   3.1257   3.1676
     3.3342   3.4116   3.5014   3.6758   3.8850   4.0460   4.1779   4.4478
     4.6399   4.9030   5.0401   5.4530   5.5260   5.7539   5.9528   6.0489
     6.1675   6.5277   6.6749   6.9311   7.0680   7.1979   7.6191   7.8151
     7.8345   7.9861   8.1410   8.5495   8.8380   8.8906   9.0476   9.2154
    11.1493  11.4116  11.7279  12.3005  13.2392  14.4156  15.5568  16.7425

          k = 0.1667-0.3528 0.0000 (  4458 PWs)   bands (ev):

   -38.5516 -38.5421 -38.5227 -38.5082 -38.4538 -38.4268 -38.3667 -38.2813
   -38.2725 -38.2665 -38.2008 -38.1865 -38.1804 -38.1401 -38.0854 -38.0330
   -38.0325 -37.8330 -37.8329 -37.7528 -37.7526   3.2019   3.3000   3.3900
     3.5265   3.6456   3.7434   3.8563   4.0010   4.2388   4.3045   4.4647
     4.6718   4.8508   4.9640   5.2247   5.3388   5.3858   5.5964   5.7884
     5.8680   6.1201   6.1699   6.4491   6.7255   6.8878   7.0572   7.3320
     7.4826   7.6961   7.8725   8.3467   8.5384   8.6525   8.6770   8.8918
     9.2897   9.3552   9.4837  10.1453  11.3750  12.8052  14.2562  15.4888

          k = 0.1667-0.2245 0.0000 (  4433 PWs)   bands (ev):

   -38.5717 -38.5512 -38.4503 -38.4072 -38.3637 -38.3028 -38.2862 -38.2446
   -38.2045 -38.2026 -38.1629 -38.1374 -38.1167 -38.0827 -38.0583 -37.9246
   -37.9244 -37.7703 -37.7703 -37.7605 -37.7601   2.4214   2.7180   3.2077
     3.5693   3.6878   3.8411   3.9753   4.1459   4.2787   4.3218   4.4890
     4.6667   4.7908   5.0978   5.2821   5.4361   5.5142   5.6227   5.7451
     5.8335   6.0649   6.2297   6.5174   6.5731   6.6051   6.8335   6.9155
     7.1721   7.1911   7.2749   7.5887   7.6917   7.8846   8.0359   8.0494
     8.1554   8.4723   8.6891   8.9609  10.0518  11.3408  12.6571  13.6828

          k = 0.1667-0.0962 0.0000 (  4427 PWs)   bands (ev):

   -38.6152 -38.5756 -38.4206 -38.3187 -38.2633 -38.2231 -38.1902 -38.1748
   -38.1699 -38.1680 -38.1084 -38.1023 -38.0805 -38.0626 -38.0274 -37.8269
   -37.8268 -37.7677 -37.7672 -37.7314 -37.7312   1.6108   2.0258   2.6865
     3.0956   3.1819   3.4729   3.5447   4.4043   4.6663   4.7814   4.8302
     4.9848   5.0019   5.5046   5.5517   5.6883   5.7824   5.8086   5.9052
     5.9824   6.0173   6.0926   6.1139   6.1385   6.3345   6.4446   6.6051
     6.7107   6.9169   6.9650   7.1505   7.2862   7.5136   7.5988   7.8701
     8.1783   8.2878   8.7036   8.9118   9.1369  10.2797  11.4316  12.2118

          k = 0.2778 0.4811 0.0000 (  4485 PWs)   bands (ev):

   -38.5858 -38.5827 -38.5501 -38.5374 -38.4801 -38.4641 -38.4316 -38.3865
   -38.3629 -38.3341 -38.2949 -38.2831 -38.2033 -38.2000 -38.1290 -38.0842
   -38.0840 -37.9553 -37.9552 -37.7440 -37.7437   3.3319   3.3521   3.5070
     3.5779   3.8213   3.9614   4.1124   4.1677   4.2402   4.3234   4.3995
     4.4867   4.8170   4.9620   5.1325   5.3364   5.5998   5.6945   6.0228
     6.0336   6.2477   6.2480   6.7445   6.8590   7.0098   7.2544   7.4142
     7.4824   7.8181   8.1667   8.5358   8.8009   8.8394   8.9054   9.1092
    12.4977  12.7246  13.1863  13.8700  14.8002  15.8998  16.8271  16.9375

          k = 0.2778 0.6094 0.0000 (  4491 PWs)   bands (ev):

   -38.5781 -38.5702 -38.5361 -38.5309 -38.4961 -38.4724 -38.4432 -38.4133
   -38.3832 -38.3608 -38.3044 -38.2993 -38.2064 -38.1958 -38.1406 -38.0762
   -38.0759 -37.9873 -37.9872 -37.7427 -37.7423   3.3050   3.5323   3.5781
     3.7215   3.8399   3.9827   4.0420   4.0914   4.1734   4.3494   4.3995
     4.5644   4.7121   5.0897   5.1929   5.4148   5.5461   5.6847   5.9391
     5.9946   6.2899   6.3118   6.7149   6.9199   7.0995   7.2498   7.4537
     7.5190   8.1134   8.3254   8.4732   8.6273   8.6969   8.7437   8.8867
    13.7097  14.0034  14.4636  14.9073  15.2938  15.7610  16.2913  16.5141

          k = 0.2778-0.4170 0.0000 (  4462 PWs)   bands (ev):

   -38.5923 -38.5847 -38.5586 -38.5375 -38.4883 -38.4456 -38.4004 -38.3493
   -38.3429 -38.3026 -38.2649 -38.2506 -38.2038 -38.1888 -38.1136 -38.0855
   -38.0849 -37.9099 -37.9097 -37.7459 -37.7457   3.1920   3.3251   3.4025
     3.5442   3.6710   3.7690   3.9306   4.1348   4.2431   4.2986   4.5284
     4.6934   4.7525   4.8559   5.1938   5.2690   5.5886   5.7795   6.0154
     6.0893   6.2418   6.3190   6.5409   6.8365   7.0497   7.2732   7.4408
     7.5635   7.6682   8.0238   8.5399   8.8986   8.9266   9.0254   9.2142
    11.3242  11.4710  11.8266  12.4804  13.4934  14.7571  16.0821  17.2454

          k = 0.2778-0.2887 0.0000 (  4463 PWs)   bands (ev):

   -38.5699 -38.5597 -38.5447 -38.5289 -38.4523 -38.4396 -38.3717 -38.2787
   -38.2685 -38.2598 -38.1994 -38.1868 -38.1754 -38.1188 -38.0911 -38.0548
   -38.0532 -37.8207 -37.8204 -37.7524 -37.7522   2.9586   3.0726   3.2053
     3.2435   3.3665   3.4842   3.6251   3.8549   4.0523   4.1906   4.5422
     4.7837   5.1400   5.1734   5.4054   5.5328   5.6292   5.7989   5.9817
     6.1439   6.3471   6.5661   6.6927   6.8237   7.1266   7.3325   7.4787
     7.5787   7.8275   8.1278   8.3711   8.4629   8.6546   8.6738   8.9246
     9.1404   9.3220   9.4001  10.0541  11.3244  12.8089  14.3056  15.5813

          k = 0.2778-0.1604 0.0000 (  4458 PWs)   bands (ev):

   -38.5628 -38.5424 -38.4931 -38.4709 -38.4112 -38.3618 -38.3285 -38.2563
   -38.2170 -38.2144 -38.1831 -38.1463 -38.1186 -38.0865 -38.0622 -37.9861
   -37.9857 -37.7721 -37.7719 -37.7586 -37.7582   2.5750   2.8243   3.0376
     3.1363   3.4008   3.5167   3.7733   3.8515   4.1083   4.2688   4.6842
     4.9299   5.1458   5.3262   5.5521   5.6835   5.7865   5.8406   6.0246
     6.1545   6.4192   6.5196   6.5515   6.7197   6.8550   7.0756   7.2706
     7.3378   7.4180   7.4814   7.6553   7.8331   7.8710   7.9601   8.1047
     8.3281   8.7433   8.9146   8.9777  10.2608  11.7296  13.1594  14.2854

          k = 0.3889 0.6736 0.0000 (  4511 PWs)   bands (ev):

   -38.6145 -38.6035 -38.5656 -38.5492 -38.5066 -38.4293 -38.4251 -38.3789
   -38.3768 -38.3324 -38.2909 -38.2745 -38.2172 -38.1852 -38.1344 -38.1020
   -38.1018 -37.9457 -37.9454 -37.7437 -37.7435   3.0318   3.3158   3.4109
     3.6035   3.6273   3.7783   3.7945   4.0661   4.1627   4.2418   4.4843
     4.5247   4.6938   4.9339   5.3072   5.4879   5.7216   5.9148   5.9289
     6.2659   6.3358   6.7226   6.7270   6.8118   7.1598   7.4900   7.7177
     7.8503   8.2683   8.3875   8.4571   8.6311   8.7111   8.9215   8.9268
    13.2394  13.5402  13.8461  14.1483  14.5079  14.9203  15.2492  16.6320

          k = 0.3889-0.3528 0.0000 (  4485 PWs)   bands (ev):

   -38.6560 -38.6450 -38.6105 -38.5837 -38.5399 -38.4072 -38.3884 -38.3153
   -38.3070 -38.2706 -38.2373 -38.2133 -38.2099 -38.1446 -38.1348 -38.1238
   -38.1123 -37.8533 -37.8532 -37.7475 -37.7472   2.6446   2.8348   2.9049
     2.9831   3.1319   3.2440   3.3507   3.6653   3.7902   3.8813   4.4119
     4.7246   5.0291   5.3583   5.4859   5.6960   5.8343   5.9046   6.4154
     6.5777   6.6511   7.1881   7.2916   7.6453   7.7789   7.9117   8.2619
     8.3856   8.3919   8.4765   8.6241   8.8108   8.9029   9.0414   9.2238
    10.7754  11.2598  11.6571  12.0074  12.7548  13.7404  14.5549  16.4236

          k = 0.3889-0.2245 0.0000 (  4444 PWs)   bands (ev):

   -38.6314 -38.6214 -38.5942 -38.5721 -38.5114 -38.4248 -38.3858 -38.2771
   -38.2577 -38.2542 -38.2233 -38.1840 -38.1519 -38.1281 -38.1096 -38.0973
   -38.0932 -37.8074 -37.8072 -37.7510 -37.7505   2.5931   2.6496   2.7880
     2.9114   2.9774   3.1637   3.2128   3.5427   3.6429   3.8512   4.5120
     4.9464   5.3191   5.3975   5.5410   5.8235   5.8595   5.9507   6.4429
     6.6562   6.8238   7.1283   7.5366   7.7962   8.0730   8.1986   8.2769
     8.4367   8.4948   8.5542   8.5761   8.6993   8.7461   8.8608   8.9724
     9.0943   9.1922   9.4430   9.9776  11.3959  12.9840  14.5441  16.0800

          k =-0.5000-0.8660 0.0000 (  4492 PWs)   bands (ev):

   -38.6885 -38.6778 -38.6422 -38.6097 -38.5708 -38.3992 -38.3989 -38.2747
   -38.2701 -38.2578 -38.2571 -38.1989 -38.1670 -38.1652 -38.1529 -38.1189
   -38.1056 -37.8216 -37.8214 -37.7486 -37.7485   2.3672   2.5565   2.6117
     2.7197   2.8592   3.0193   3.0231   3.3935   3.4488   3.6940   4.4011
     4.8882   5.1456   5.2849   5.4340   5.7320   6.1799   6.2277   6.3862
     7.0755   7.1292   7.2223   7.8960   8.1602   8.3646   8.5128   8.7924
     8.9019   8.9118   9.0045   9.0083   9.0712   9.1996   9.3753   9.3826
     9.7389  10.8360  11.7460  11.9478  12.3497  12.4873  12.6249  16.0947

     the Fermi energy is     8.3518 ev

!    total energy              =   -1198.23265565 Ry
     estimated scf accuracy    <       0.00000006 Ry
     smearing contrib. (-TS)   =      -0.03012172 Ry
     internal energy E=F+TS    =   -1198.20253393 Ry

     The total energy is F=E-TS. E is the sum of the following terms:
     one-electron contribution =  -13500.64227922 Ry
     hartree contribution      =    6796.09772017 Ry
     xc contribution           =    -209.37577966 Ry
     ewald contribution        =    5715.71780478 Ry

     total magnetization       =     0.00 Bohr mag/cell
     absolute magnetization    =     0.00 Bohr mag/cell

     convergence has been achieved in  11 iterations

     negative rho (up, down):  1.981E-01 1.981E-01

     Forces acting on atoms (cartesian axes, Ry/au):

     atom    1 type  1   force =     0.00000000    0.00000000    0.00054141
     atom    2 type  1   force =     0.00000000    0.00000000    0.00041867
     atom    3 type  1   force =     0.00000000    0.00000000    0.00185100
     atom    4 type  1   force =     0.00000000    0.00000000   -0.00000846
     atom    5 type  1   force =     0.00000000    0.00000000   -0.00185643
     atom    6 type  1   force =     0.00000000    0.00000000   -0.00040598
     atom    7 type  1   force =     0.00000000    0.00000000   -0.00054022

     Total force =     0.002792     Total SCF correction =     0.001386
     SCF correction compared to forces is large: reduce conv_thr to get better values
     Energy error            =      1.7E-05
     Gradient error          =      1.9E-03

     number of scf cycles    =   8
     number of bfgs steps    =   7

     energy   old            =   -1198.2326385883 Ry
     energy   new            =   -1198.2326556458 Ry

     CASE: energy  _new < energy  _old

     new trust radius        =       0.0093242119 bohr
     new conv_thr            =       0.0000001000 Ry


ATOMIC_POSITIONS (angstrom)
Rh            0.0000000000        0.0000000000        0.0397731142
Rh            2.7108568000        1.5651139000        2.2134698694
Rh            1.3554284000        0.7825569000        4.4106057658
Rh            0.0000000000        0.0000000000        6.6401916188
Rh            2.7108568000        1.5651139000        8.8698311890
Rh            1.3554284000        0.7825569000       11.0670051351
Rh            0.0000000000        0.0000000000       13.2406344077



     Writing output data file /home/STUDENTI/leonardo.razzai/WORK/relax_surf/7-L.save/
     NEW-OLD atomic charge density approx. for the potential

     negative rho (up, down):  1.964E-01 1.964E-01
     Generating pointlists ...

     total cpu time spent up to now is     1381.8 secs

     Self-consistent Calculation

     iteration #  1     ecut=    35.00 Ry     beta= 0.40
     Davidson diagonalization with overlap
     ethr =  1.00E-06,  avg # of iterations =  6.2

     negative rho (up, down):  1.964E-01 1.964E-01

     total cpu time spent up to now is     1417.1 secs

     total energy              =   -1198.23031736 Ry
     estimated scf accuracy    <       0.13509285 Ry

     total magnetization       =     0.00 Bohr mag/cell
     absolute magnetization    =     0.00 Bohr mag/cell

     iteration #  2     ecut=    35.00 Ry     beta= 0.40
     Davidson diagonalization with overlap
     ethr =  1.29E-04,  avg # of iterations =  1.0

     negative rho (up, down):  1.964E-01 1.964E-01

     total cpu time spent up to now is     1433.0 secs

     total energy              =   -1198.23185184 Ry
     estimated scf accuracy    <       0.07346004 Ry

     total magnetization       =     0.00 Bohr mag/cell
     absolute magnetization    =     0.00 Bohr mag/cell

     iteration #  3     ecut=    35.00 Ry     beta= 0.40
     Davidson diagonalization with overlap
     ethr =  7.00E-05,  avg # of iterations =  1.0

     negative rho (up, down):  1.964E-01 1.964E-01

     total cpu time spent up to now is     1449.4 secs

     total energy              =   -1198.23267587 Ry
     estimated scf accuracy    <       0.00348164 Ry

     total magnetization       =     0.00 Bohr mag/cell
     absolute magnetization    =     0.00 Bohr mag/cell

     iteration #  4     ecut=    35.00 Ry     beta= 0.40
     Davidson diagonalization with overlap
     ethr =  3.32E-06,  avg # of iterations =  1.1

     negative rho (up, down):  1.963E-01 1.963E-01

     total cpu time spent up to now is     1465.5 secs

     total energy              =   -1198.23266158 Ry
     estimated scf accuracy    <       0.00142000 Ry

     total magnetization       =    -0.00 Bohr mag/cell
     absolute magnetization    =     0.00 Bohr mag/cell

     iteration #  5     ecut=    35.00 Ry     beta= 0.40
     Davidson diagonalization with overlap
     ethr =  1.35E-06,  avg # of iterations =  1.9

     negative rho (up, down):  1.963E-01 1.963E-01

     total cpu time spent up to now is     1482.6 secs

     total energy              =   -1198.23267271 Ry
     estimated scf accuracy    <       0.00007107 Ry

     total magnetization       =    -0.00 Bohr mag/cell
     absolute magnetization    =     0.00 Bohr mag/cell

     iteration #  6     ecut=    35.00 Ry     beta= 0.40
     Davidson diagonalization with overlap
     ethr =  6.77E-08,  avg # of iterations =  1.0

     negative rho (up, down):  1.964E-01 1.964E-01

     total cpu time spent up to now is     1498.7 secs

     total energy              =   -1198.23267226 Ry
     estimated scf accuracy    <       0.00001103 Ry

     total magnetization       =    -0.00 Bohr mag/cell
     absolute magnetization    =     0.00 Bohr mag/cell

     iteration #  7     ecut=    35.00 Ry     beta= 0.40
     Davidson diagonalization with overlap
     ethr =  1.05E-08,  avg # of iterations =  1.0

     negative rho (up, down):  1.964E-01 1.964E-01

     total cpu time spent up to now is     1514.6 secs

     total energy              =   -1198.23267190 Ry
     estimated scf accuracy    <       0.00000833 Ry

     total magnetization       =    -0.00 Bohr mag/cell
     absolute magnetization    =     0.00 Bohr mag/cell

     iteration #  8     ecut=    35.00 Ry     beta= 0.40
     Davidson diagonalization with overlap
     ethr =  7.93E-09,  avg # of iterations =  1.1

     negative rho (up, down):  1.964E-01 1.964E-01

     total cpu time spent up to now is     1531.0 secs

     total energy              =   -1198.23267202 Ry
     estimated scf accuracy    <       0.00000353 Ry

     total magnetization       =    -0.00 Bohr mag/cell
     absolute magnetization    =     0.00 Bohr mag/cell

     iteration #  9     ecut=    35.00 Ry     beta= 0.40
     Davidson diagonalization with overlap
     ethr =  3.36E-09,  avg # of iterations =  1.9

     negative rho (up, down):  1.964E-01 1.964E-01

     total cpu time spent up to now is     1548.5 secs

     total energy              =   -1198.23267326 Ry
     estimated scf accuracy    <       0.00000800 Ry

     total magnetization       =    -0.00 Bohr mag/cell
     absolute magnetization    =     0.00 Bohr mag/cell

     iteration # 10     ecut=    35.00 Ry     beta= 0.40
     Davidson diagonalization with overlap
     ethr =  3.36E-09,  avg # of iterations =  1.0

     negative rho (up, down):  1.964E-01 1.964E-01

     total cpu time spent up to now is     1564.4 secs

     total energy              =   -1198.23267389 Ry
     estimated scf accuracy    <       0.00000054 Ry

     total magnetization       =    -0.00 Bohr mag/cell
     absolute magnetization    =     0.00 Bohr mag/cell

     iteration # 11     ecut=    35.00 Ry     beta= 0.40
     Davidson diagonalization with overlap
     ethr =  5.13E-10,  avg # of iterations =  1.1

     negative rho (up, down):  1.964E-01 1.964E-01

     total cpu time spent up to now is     1580.6 secs

     total energy              =   -1198.23267414 Ry
     estimated scf accuracy    <       0.00000016 Ry

     total magnetization       =     0.00 Bohr mag/cell
     absolute magnetization    =     0.00 Bohr mag/cell

     iteration # 12     ecut=    35.00 Ry     beta= 0.40
     Davidson diagonalization with overlap
     ethr =  1.49E-10,  avg # of iterations =  1.1

     negative rho (up, down):  1.964E-01 1.964E-01

     total cpu time spent up to now is     1597.1 secs

     total energy              =   -1198.23267447 Ry
     estimated scf accuracy    <       0.00000012 Ry

     total magnetization       =     0.00 Bohr mag/cell
     absolute magnetization    =     0.00 Bohr mag/cell

     iteration # 13     ecut=    35.00 Ry     beta= 0.40
     Davidson diagonalization with overlap
     ethr =  1.17E-10,  avg # of iterations =  1.2

     negative rho (up, down):  1.964E-01 1.964E-01
 
     Magnetic moment per site:
     atom:    1    charge:   13.1071    magn:   -0.0000    constr:    0.0000
     atom:    2    charge:   13.1645    magn:    0.0000    constr:    0.0000
     atom:    3    charge:   13.1599    magn:    0.0000    constr:    0.0000
     atom:    4    charge:   13.1525    magn:    0.0000    constr:    0.0000
     atom:    5    charge:   13.1598    magn:   -0.0000    constr:    0.0000
     atom:    6    charge:   13.1643    magn:    0.0000    constr:    0.0000
     atom:    7    charge:   13.1068    magn:    0.0000    constr:    0.0000

     total cpu time spent up to now is     1612.8 secs

     End of self-consistent calculation

 ------ SPIN UP ------------


          k = 0.0556 0.0962 0.0000 (  4451 PWs)   bands (ev):

   -38.6494 -38.5993 -38.4164 -38.2690 -38.1809 -38.1703 -38.1492 -38.1482
   -38.1125 -38.1100 -38.0805 -38.0696 -38.0553 -38.0410 -38.0131 -37.7742
   -37.7732 -37.7418 -37.7417 -37.7101 -37.7100   1.0342   1.4926   2.2107
     2.7081   2.7312   3.0354   3.0836   4.8991   4.9303   5.1172   5.1695
     5.2639   5.3617   5.5619   5.5705   5.6016   5.6448   5.6567   5.6899
     5.7777   5.8471   5.8990   5.9640   6.0934   6.2013   6.2068   6.7547
     7.0505   7.0964   7.2778   7.3300   7.5210   7.5582   7.6754   7.7629
     8.0670   8.1067   8.6006   8.6256   8.8206   9.3764  10.3088  10.8565

          k = 0.0556 0.2245 0.0000 (  4420 PWs)   bands (ev):

   -38.5995 -38.5671 -38.4312 -38.3578 -38.3082 -38.2551 -38.2348 -38.2122
   -38.1821 -38.1807 -38.1399 -38.1149 -38.0955 -38.0677 -38.0412 -37.8681
   -37.8680 -37.7623 -37.7619 -37.7432 -37.7427   1.9479   2.3244   2.9276
     3.2785   3.4023   3.6835   3.7823   4.2173   4.4843   4.5945   4.6403
     4.8306   4.8703   5.3552   5.4702   5.6185   5.7185   5.8008   5.8423
     5.9215   6.0331   6.1850   6.2921   6.4223   6.5173   6.6433   6.7252
     6.7720   6.9239   7.0626   7.1646   7.3326   7.6275   7.7198   7.9701
     8.0970   8.5192   8.6691   8.8266   9.5520  10.7508  11.9794  12.8752

          k = 0.0556 0.3528 0.0000 (  4467 PWs)   bands (ev):

   -38.5645 -38.5447 -38.5269 -38.5085 -38.4381 -38.4043 -38.3548 -38.2676
   -38.2370 -38.2327 -38.1931 -38.1634 -38.1404 -38.0954 -38.0770 -38.0216
   -38.0208 -37.7869 -37.7869 -37.7532 -37.7530   2.7386   2.9838   3.0348
     3.1226   3.3550   3.4131   3.6458   3.8139   4.0821   4.1445   4.6340
     4.9477   5.1232   5.3534   5.5463   5.6534   5.6896   5.7781   6.0315
     6.1602   6.4477   6.6009   6.7418   6.8180   7.0403   7.3042   7.4698
     7.5280   7.7243   7.8408   7.9880   8.1022   8.2865   8.3573   8.4876
     8.4990   8.6748   8.9186   9.3176  10.6683  12.1772  13.6599  14.8664

          k = 0.0556 0.4811 0.0000 (  4463 PWs)   bands (ev):

   -38.6532 -38.6419 -38.6118 -38.5861 -38.5339 -38.4164 -38.3887 -38.2850
   -38.2760 -38.2652 -38.2308 -38.1970 -38.1745 -38.1344 -38.1258 -38.1109
   -38.1023 -37.8198 -37.8198 -37.7466 -37.7463   2.5540   2.6735   2.7775
     2.8751   2.9922   3.1599   3.1822   3.5496   3.6362   3.8134   4.4538
     4.8689   5.2105   5.3824   5.4985   5.7368   5.9254   5.9761   6.4902
     6.6660   6.8308   7.2276   7.5139   7.8547   8.0507   8.0967   8.3894
     8.4763   8.5802   8.6254   8.7230   8.7408   8.8889   8.9915   9.1509
     9.5874  10.1192  10.4498  10.7827  11.8743  13.2824  14.6337  16.3720

          k = 0.0556-0.5453 0.0000 (  4486 PWs)   bands (ev):

   -38.6816 -38.6697 -38.6356 -38.6053 -38.5629 -38.4019 -38.3945 -38.2892
   -38.2843 -38.2626 -38.2468 -38.2044 -38.1844 -38.1521 -38.1467 -38.1179
   -38.1122 -37.8276 -37.8272 -37.7453 -37.7451   2.4365   2.6226   2.6874
     2.7765   2.9292   3.0727   3.1056   3.4721   3.5406   3.7378   4.4093
     4.8389   5.1190   5.3369   5.4340   5.7477   5.9819   6.1280   6.4960
     6.8053   7.0678   7.2810   7.7140   8.0780   8.2008   8.4573   8.4927
     8.7015   8.7866   8.8735   8.9026   8.9693   9.0440   9.1492   9.2669
    10.2144  11.0031  11.7401  11.9020  12.2017  12.9165  13.4867  16.1849

          k = 0.0556-0.4170 0.0000 (  4465 PWs)   bands (ev):

   -38.6023 -38.5932 -38.5737 -38.5541 -38.4810 -38.4356 -38.3800 -38.2782
   -38.2597 -38.2538 -38.2130 -38.1830 -38.1594 -38.1118 -38.0965 -38.0817
   -38.0770 -37.8060 -37.8059 -37.7494 -37.7490   2.7430   2.7675   2.9384
     3.0334   3.1001   3.2891   3.3591   3.6722   3.8252   3.9527   4.5453
     4.9122   5.3272   5.4637   5.5744   5.6324   5.7081   5.9505   6.2596
     6.3860   6.6068   6.9971   7.1783   7.3856   7.5756   7.6902   8.0088
     8.0896   8.1334   8.2563   8.3721   8.5159   8.6251   8.7347   8.8981
     9.0234   9.2057   9.2802   9.9187  11.2867  12.8551  14.4144  15.7845

          k = 0.0556-0.2887 0.0000 (  4439 PWs)   bands (ev):

   -38.5711 -38.5511 -38.4671 -38.4339 -38.3834 -38.3256 -38.3030 -38.2474
   -38.2096 -38.2070 -38.1704 -38.1394 -38.1183 -38.0801 -38.0585 -37.9470
   -37.9464 -37.7650 -37.7649 -37.7573 -37.7569   2.4641   2.7381   3.1180
     3.2849   3.5052   3.6993   3.9020   4.0349   4.2272   4.3783   4.6189
     4.6781   4.9976   5.1306   5.4977   5.6782   5.7590   5.7990   5.9018
     6.0261   6.1071   6.2791   6.3706   6.6855   6.7248   6.8354   6.9851
     7.1648   7.2306   7.3427   7.5857   7.6958   7.8338   7.9686   8.0802
     8.2598   8.5797   8.8637   8.9303  10.0911  11.4654  12.8304  13.8921

          k = 0.0556-0.1604 0.0000 (  4443 PWs)   bands (ev):

   -38.6282 -38.5850 -38.4190 -38.3003 -38.2362 -38.2065 -38.1770 -38.1697
   -38.1548 -38.1473 -38.1022 -38.0930 -38.0708 -38.0596 -38.0257 -37.7990
   -37.7989 -37.7661 -37.7658 -37.7241 -37.7241   1.4281   1.8627   2.5547
     3.0162   3.0476   3.3554   3.4038   4.5861   4.7038   4.8740   4.9441
     5.0540   5.0904   5.4288   5.5624   5.6700   5.7362   5.7981   5.8751
     5.8807   5.9318   5.9828   6.0272   6.2142   6.2688   6.4337   6.5058
     6.8888   6.9794   7.0532   7.1232   7.3050   7.5036   7.6436   7.8673
     8.0137   8.3724   8.5689   8.8044   9.0591  10.0432  11.1237  11.8385

          k = 0.0556-0.0321 0.0000 (  4465 PWs)   bands (ev):

   -38.6609 -38.6075 -38.4170 -38.2585 -38.1507 -38.1479 -38.1397 -38.1385
   -38.0876 -38.0820 -38.0746 -38.0575 -38.0545 -38.0176 -38.0062 -37.7762
   -37.7749 -37.7140 -37.7138 -37.7028 -37.7025   0.8254   1.2918   2.0169
     2.5236   2.5613   2.8522   2.9007   5.0716   5.1151   5.2650   5.3304
     5.3810   5.4203   5.4223   5.4886   5.5127   5.6211   5.6397   5.6506
     5.7036   5.7414   5.9216   5.9787   6.0445   6.0582   6.3055   7.1518
     7.1889   7.2572   7.3635   7.3728   7.5217   7.5599   7.8097   7.9222
     8.1505   8.2632   8.2681   8.6706   8.8363   8.8635   9.6748  10.1077

          k = 0.1667 0.2887 0.0000 (  4425 PWs)   bands (ev):

   -38.5500 -38.5453 -38.4845 -38.4623 -38.4210 -38.3667 -38.3326 -38.2667
   -38.2359 -38.2351 -38.1762 -38.1701 -38.1461 -38.1124 -38.0713 -37.9784
   -37.9783 -37.7978 -37.7977 -37.7537 -37.7533   2.9338   3.0763   3.3583
     3.6902   3.8723   3.8917   3.9936   4.0542   4.0658   4.2620   4.3878
     4.5397   4.9865   5.0259   5.1066   5.3132   5.4866   5.4871   5.5177
     5.6594   6.2070   6.2427   6.4590   6.5532   6.6730   7.1065   7.1593
     7.3103   7.5568   7.7295   7.9583   8.1879   8.3214   8.4429   8.4573
     8.5683   8.6333   8.7257   9.4153  10.6449  12.0307  13.4303  14.5747

          k = 0.1667 0.4170 0.0000 (  4459 PWs)   bands (ev):

   -38.5880 -38.5776 -38.5586 -38.5384 -38.4770 -38.4453 -38.3839 -38.3105
   -38.3074 -38.2795 -38.2269 -38.2181 -38.1997 -38.1584 -38.1018 -38.0737
   -38.0724 -37.8599 -37.8599 -37.7463 -37.7461   3.1060   3.1726   3.3026
     3.4530   3.5122   3.5754   3.8063   3.8922   4.1121   4.2929   4.5525
     4.6655   4.9120   5.0926   5.1870   5.4268   5.5267   5.8888   5.9646
     6.1269   6.2051   6.4453   6.5690   6.8436   7.1374   7.2823   7.4170
     7.6344   7.7714   8.0145   8.4969   8.7839   8.8764   8.9461   9.1201
    10.1826  10.3287  10.5466  11.1696  12.2881  13.6789  15.1252  16.4150

          k = 0.1667 0.5453 0.0000 (  4490 PWs)   bands (ev):

   -38.6442 -38.6331 -38.5973 -38.5733 -38.5295 -38.4084 -38.3900 -38.3591
   -38.3438 -38.2973 -38.2604 -38.2407 -38.2253 -38.1690 -38.1286 -38.1186
   -38.1173 -37.8938 -37.8936 -37.7423 -37.7422   2.8003   3.0887   3.0945
     3.2275   3.3671   3.4553   3.6055   3.8492   4.0398   4.0888   4.4308
     4.5343   4.7852   5.1628   5.4758   5.6468   5.7264   5.9355   6.1971
     6.3205   6.5469   6.8229   7.1968   7.2471   7.3473   7.7272   8.0213
     8.1670   8.2940   8.4124   8.5919   8.7187   8.8072   9.0016   9.1292
    12.0418  12.4640  12.8852  13.2856  13.7897  14.2683  14.5176  16.4939

          k = 0.1667-0.4811 0.0000 (  4476 PWs)   bands (ev):

   -38.6239 -38.6129 -38.5838 -38.5602 -38.5117 -38.4241 -38.3886 -38.3406
   -38.3312 -38.2893 -38.2458 -38.2392 -38.2141 -38.1670 -38.1177 -38.1037
   -38.1018 -37.8821 -37.8818 -37.7437 -37.7435   2.9087   3.1200   3.1627
     3.3289   3.4080   3.4974   3.6753   3.8845   4.0461   4.1787   4.4478
     4.6371   4.8972   5.0378   5.4501   5.5253   5.7550   5.9522   6.0496
     6.1670   6.5284   6.6771   6.9333   7.0695   7.1980   7.6192   7.8165
     7.8362   7.9867   8.1430   8.5520   8.8395   8.8932   9.0494   9.2178
    11.1491  11.4122  11.7297  12.3029  13.2422  14.4202  15.5616  16.7455

          k = 0.1667-0.3528 0.0000 (  4458 PWs)   bands (ev):

   -38.5543 -38.5445 -38.5248 -38.5094 -38.4550 -38.4276 -38.3674 -38.2817
   -38.2727 -38.2668 -38.2022 -38.1874 -38.1816 -38.1402 -38.0859 -38.0308
   -38.0304 -37.8305 -37.8304 -37.7500 -37.7499   3.1964   3.2939   3.3856
     3.5230   3.6418   3.7386   3.8548   3.9989   4.2375   4.3027   4.4634
     4.6707   4.8512   4.9631   5.2235   5.3353   5.3822   5.5967   5.7900
     5.8690   6.1226   6.1713   6.4505   6.7283   6.8891   7.0575   7.3305
     7.4832   7.6960   7.8731   8.3483   8.5396   8.6529   8.6796   8.8944
     9.2900   9.3558   9.4856  10.1484  11.3795  12.8114  14.2628  15.4943

          k = 0.1667-0.2245 0.0000 (  4433 PWs)   bands (ev):

   -38.5751 -38.5543 -38.4521 -38.4082 -38.3640 -38.3034 -38.2873 -38.2454
   -38.2049 -38.2030 -38.1634 -38.1385 -38.1178 -38.0831 -38.0586 -37.9222
   -37.9220 -37.7678 -37.7677 -37.7579 -37.7575   2.4167   2.7148   3.2061
     3.5648   3.6843   3.8375   3.9728   4.1431   4.2755   4.3210   4.4879
     4.6640   4.7905   5.0985   5.2833   5.4369   5.5152   5.6242   5.7426
     5.8278   6.0674   6.2305   6.5173   6.5754   6.6047   6.8311   6.9133
     7.1736   7.1892   7.2754   7.5902   7.6932   7.8848   8.0375   8.0508
     8.1570   8.4740   8.6927   8.9636  10.0564  11.3460  12.6624  13.6894

          k = 0.1667-0.0962 0.0000 (  4427 PWs)   bands (ev):

   -38.6188 -38.5786 -38.4219 -38.3199 -38.2635 -38.2234 -38.1914 -38.1760
   -38.1705 -38.1686 -38.1085 -38.1032 -38.0817 -38.0632 -38.0276 -37.8244
   -37.8243 -37.7652 -37.7647 -37.7289 -37.7286   1.6063   2.0231   2.6863
     3.0907   3.1779   3.4739   3.5453   4.4010   4.6619   4.7802   4.8273
     4.9839   4.9998   5.5060   5.5534   5.6899   5.7752   5.8100   5.9074
     5.9783   6.0127   6.0946   6.1113   6.1407   6.3339   6.4459   6.6069
     6.7112   6.9192   6.9643   7.1514   7.2865   7.5126   7.6009   7.8714
     8.1800   8.2880   8.7054   8.9155   9.1408  10.2834  11.4357  12.2183

          k = 0.2778 0.4811 0.0000 (  4485 PWs)   bands (ev):

   -38.5870 -38.5840 -38.5521 -38.5397 -38.4810 -38.4661 -38.4326 -38.3867
   -38.3631 -38.3345 -38.2961 -38.2837 -38.2039 -38.2017 -38.1295 -38.0821
   -38.0819 -37.9529 -37.9528 -37.7412 -37.7409   3.3247   3.3463   3.5009
     3.5745   3.8185   3.9559   4.1088   4.1631   4.2390   4.3199   4.3992
     4.4838   4.8153   4.9617   5.1315   5.3355   5.5999   5.6931   6.0244
     6.0353   6.2503   6.2504   6.7474   6.8628   7.0126   7.2553   7.4151
     7.4827   7.8187   8.1685   8.5380   8.8033   8.8416   8.9073   9.1119
    12.4974  12.7254  13.1883  13.8724  14.8032  15.9035  16.8284  16.9391

          k = 0.2778 0.6094 0.0000 (  4491 PWs)   bands (ev):

   -38.5796 -38.5713 -38.5383 -38.5332 -38.4977 -38.4737 -38.4437 -38.4139
   -38.3840 -38.3611 -38.3048 -38.2995 -38.2080 -38.1971 -38.1411 -38.0740
   -38.0738 -37.9850 -37.9849 -37.7399 -37.7394   3.2982   3.5269   3.5714
     3.7174   3.8341   3.9781   4.0364   4.0894   4.1730   4.3448   4.3981
     4.5632   4.7107   5.0899   5.1922   5.4140   5.5449   5.6845   5.9411
     5.9961   6.2924   6.3141   6.7181   6.9238   7.1021   7.2508   7.4542
     7.5202   8.1143   8.3271   8.4749   8.6300   8.6989   8.7464   8.8894
    13.7094  14.0043  14.4653  14.9083  15.2947  15.7630  16.2944  16.5148

          k = 0.2778-0.4170 0.0000 (  4462 PWs)   bands (ev):

   -38.5938 -38.5858 -38.5608 -38.5398 -38.4889 -38.4476 -38.4015 -38.3493
   -38.3428 -38.3030 -38.2665 -38.2516 -38.2048 -38.1895 -38.1142 -38.0834
   -38.0829 -37.9074 -37.9073 -37.7431 -37.7429   3.1856   3.3190   3.3975
     3.5393   3.6684   3.7640   3.9289   4.1326   4.2418   4.2977   4.5254
     4.6913   4.7510   4.8537   5.1919   5.2673   5.5866   5.7798   6.0171
     6.0908   6.2447   6.3210   6.5433   6.8396   7.0517   7.2733   7.4427
     7.5638   7.6681   8.0255   8.5424   8.9011   8.9285   9.0269   9.2166
    11.3240  11.4716  11.8285  12.4829  13.4969  14.7624  16.0881  17.2498

          k = 0.2778-0.2887 0.0000 (  4463 PWs)   bands (ev):

   -38.5722 -38.5613 -38.5472 -38.5306 -38.4531 -38.4407 -38.3723 -38.2792
   -38.2690 -38.2603 -38.2006 -38.1877 -38.1766 -38.1191 -38.0915 -38.0527
   -38.0513 -37.8182 -37.8179 -37.7496 -37.7495   2.9533   3.0669   3.2000
     3.2404   3.3617   3.4811   3.6237   3.8555   4.0522   4.1914   4.5418
     4.7830   5.1355   5.1724   5.4005   5.5305   5.6269   5.8008   5.9820
     6.1438   6.3480   6.5677   6.6930   6.8250   7.1264   7.3345   7.4796
     7.5788   7.8273   8.1285   8.3715   8.4650   8.6565   8.6744   8.9278
     9.1409   9.3228   9.4020  10.0572  11.3287  12.8151  14.3124  15.5866

          k = 0.2778-0.1604 0.0000 (  4458 PWs)   bands (ev):

   -38.5661 -38.5455 -38.4949 -38.4719 -38.4116 -38.3622 -38.3293 -38.2568
   -38.2178 -38.2150 -38.1839 -38.1470 -38.1198 -38.0871 -38.0624 -37.9838
   -37.9834 -37.7695 -37.7694 -37.7559 -37.7555   2.5701   2.8210   3.0335
     3.1327   3.3983   3.5121   3.7717   3.8515   4.1090   4.2683   4.6828
     4.9265   5.1461   5.3246   5.5527   5.6858   5.7784   5.8410   6.0188
     6.1551   6.4208   6.5188   6.5534   6.7201   6.8529   7.0741   7.2729
     7.3374   7.4201   7.4805   7.6568   7.8347   7.8719   7.9614   8.1064
     8.3285   8.7454   8.9178   8.9818  10.2656  11.7353  13.1654  14.2917

          k = 0.3889 0.6736 0.0000 (  4511 PWs)   bands (ev):

   -38.6159 -38.6045 -38.5678 -38.5516 -38.5075 -38.4304 -38.4262 -38.3792
   -38.3776 -38.3328 -38.2912 -38.2755 -38.2188 -38.1861 -38.1349 -38.1000
   -38.0998 -37.9433 -37.9430 -37.7408 -37.7406   3.0250   3.3110   3.4051
     3.5979   3.6225   3.7742   3.7932   4.0638   4.1619   4.2417   4.4823
     4.5188   4.6943   4.9323   5.3066   5.4857   5.7232   5.9118   5.9304
     6.2667   6.3385   6.7250   6.7300   6.8137   7.1605   7.4903   7.7191
     7.8523   8.2688   8.3889   8.4594   8.6340   8.7134   8.9240   8.9295
    13.2396  13.5406  13.8466  14.1497  14.5091  14.9228  15.2535  16.6350

          k = 0.3889-0.3528 0.0000 (  4485 PWs)   bands (ev):

   -38.6574 -38.6459 -38.6128 -38.5860 -38.5405 -38.4079 -38.3885 -38.3164
   -38.3076 -38.2718 -38.2385 -38.2144 -38.2111 -38.1440 -38.1337 -38.1227
   -38.1124 -37.8508 -37.8507 -37.7446 -37.7444   2.6383   2.8294   2.9004
     2.9775   3.1287   3.2395   3.3506   3.6659   3.7914   3.8827   4.4118
     4.7221   5.0244   5.3566   5.4870   5.6951   5.8306   5.9045   6.4145
     6.5794   6.6487   7.1888   7.2917   7.6473   7.7804   7.9113   8.2629
     8.3868   8.3931   8.4782   8.6269   8.8116   8.9055   9.0432   9.2262
    10.7752  11.2611  11.6590  12.0097  12.7572  13.7440  14.5587  16.4256

          k = 0.3889-0.2245 0.0000 (  4444 PWs)   bands (ev):

   -38.6329 -38.6225 -38.5968 -38.5742 -38.5119 -38.4258 -38.3858 -38.2779
   -38.2586 -38.2549 -38.2249 -38.1847 -38.1530 -38.1276 -38.1078 -38.0966
   -38.0934 -37.8049 -37.8047 -37.7482 -37.7478   2.5874   2.6443   2.7842
     2.9060   2.9734   3.1631   3.2089   3.5446   3.6443   3.8516   4.5123
     4.9465   5.3203   5.4002   5.5329   5.8179   5.8581   5.9477   6.4433
     6.6544   6.8235   7.1285   7.5386   7.7952   8.0744   8.2004   8.2769
     8.4354   8.4932   8.5547   8.5767   8.7001   8.7468   8.8631   8.9747
     9.0982   9.1951   9.4453   9.9806  11.3995  12.9899  14.5512  16.0844

          k =-0.5000-0.8660 0.0000 (  4492 PWs)   bands (ev):

   -38.6898 -38.6787 -38.6446 -38.6120 -38.5713 -38.3993 -38.3987 -38.2756
   -38.2709 -38.2594 -38.2593 -38.1995 -38.1662 -38.1658 -38.1514 -38.1192
   -38.1058 -37.8190 -37.8189 -37.7457 -37.7456   2.3611   2.5513   2.6079
     2.7136   2.8560   3.0185   3.0190   3.3951   3.4506   3.6948   4.4014
     4.8881   5.1470   5.2879   5.4259   5.7265   6.1783   6.2247   6.3869
     7.0754   7.1297   7.2219   7.8954   8.1617   8.3681   8.5145   8.7945
     8.9001   8.9105   9.0047   9.0105   9.0709   9.2012   9.3776   9.3850
     9.7387  10.8383  11.7478  11.9518  12.3507  12.4914  12.6266  16.0967

 ------ SPIN DOWN ----------


          k = 0.0556 0.0962 0.0000 (  4451 PWs)   bands (ev):

   -38.6494 -38.5993 -38.4164 -38.2690 -38.1809 -38.1703 -38.1492 -38.1482
   -38.1125 -38.1100 -38.0805 -38.0696 -38.0553 -38.0410 -38.0131 -37.7742
   -37.7732 -37.7418 -37.7417 -37.7101 -37.7100   1.0342   1.4926   2.2107
     2.7081   2.7312   3.0354   3.0836   4.8991   4.9303   5.1172   5.1695
     5.2639   5.3617   5.5619   5.5705   5.6016   5.6448   5.6567   5.6899
     5.7777   5.8471   5.8990   5.9640   6.0934   6.2013   6.2068   6.7547
     7.0505   7.0964   7.2778   7.3300   7.5210   7.5582   7.6754   7.7629
     8.0670   8.1067   8.6006   8.6256   8.8206   9.3764  10.3088  10.8565

          k = 0.0556 0.2245 0.0000 (  4420 PWs)   bands (ev):

   -38.5995 -38.5671 -38.4312 -38.3578 -38.3082 -38.2551 -38.2348 -38.2122
   -38.1821 -38.1807 -38.1399 -38.1149 -38.0955 -38.0677 -38.0412 -37.8681
   -37.8680 -37.7623 -37.7619 -37.7432 -37.7427   1.9479   2.3244   2.9276
     3.2785   3.4023   3.6835   3.7823   4.2173   4.4843   4.5945   4.6403
     4.8306   4.8703   5.3552   5.4702   5.6185   5.7185   5.8008   5.8423
     5.9215   6.0331   6.1850   6.2921   6.4223   6.5173   6.6433   6.7252
     6.7720   6.9239   7.0626   7.1646   7.3326   7.6275   7.7198   7.9701
     8.0970   8.5192   8.6691   8.8266   9.5520  10.7508  11.9794  12.8752

          k = 0.0556 0.3528 0.0000 (  4467 PWs)   bands (ev):

   -38.5645 -38.5447 -38.5269 -38.5085 -38.4381 -38.4043 -38.3548 -38.2676
   -38.2370 -38.2327 -38.1931 -38.1634 -38.1404 -38.0954 -38.0770 -38.0216
   -38.0208 -37.7869 -37.7869 -37.7532 -37.7530   2.7386   2.9838   3.0348
     3.1226   3.3550   3.4131   3.6458   3.8139   4.0821   4.1445   4.6340
     4.9477   5.1232   5.3534   5.5463   5.6534   5.6896   5.7781   6.0315
     6.1602   6.4477   6.6009   6.7418   6.8180   7.0403   7.3042   7.4698
     7.5280   7.7243   7.8408   7.9880   8.1022   8.2865   8.3573   8.4876
     8.4990   8.6748   8.9186   9.3176  10.6683  12.1772  13.6599  14.8664

          k = 0.0556 0.4811 0.0000 (  4463 PWs)   bands (ev):

   -38.6532 -38.6419 -38.6118 -38.5861 -38.5339 -38.4164 -38.3887 -38.2850
   -38.2760 -38.2652 -38.2308 -38.1970 -38.1745 -38.1344 -38.1258 -38.1109
   -38.1023 -37.8198 -37.8198 -37.7466 -37.7463   2.5540   2.6735   2.7775
     2.8751   2.9922   3.1599   3.1822   3.5496   3.6362   3.8134   4.4538
     4.8689   5.2105   5.3824   5.4985   5.7368   5.9254   5.9761   6.4902
     6.6660   6.8308   7.2276   7.5139   7.8547   8.0507   8.0967   8.3894
     8.4763   8.5802   8.6254   8.7230   8.7408   8.8889   8.9915   9.1509
     9.5874  10.1192  10.4498  10.7827  11.8743  13.2824  14.6337  16.3720

          k = 0.0556-0.5453 0.0000 (  4486 PWs)   bands (ev):

   -38.6816 -38.6697 -38.6356 -38.6053 -38.5629 -38.4019 -38.3945 -38.2892
   -38.2843 -38.2626 -38.2468 -38.2044 -38.1844 -38.1521 -38.1467 -38.1179
   -38.1122 -37.8276 -37.8272 -37.7453 -37.7451   2.4365   2.6226   2.6874
     2.7765   2.9292   3.0727   3.1056   3.4721   3.5406   3.7378   4.4093
     4.8389   5.1190   5.3369   5.4340   5.7477   5.9819   6.1280   6.4960
     6.8053   7.0678   7.2810   7.7140   8.0780   8.2008   8.4573   8.4927
     8.7015   8.7866   8.8735   8.9026   8.9693   9.0440   9.1492   9.2669
    10.2144  11.0031  11.7401  11.9020  12.2017  12.9165  13.4867  16.1862

          k = 0.0556-0.4170 0.0000 (  4465 PWs)   bands (ev):

   -38.6023 -38.5932 -38.5737 -38.5541 -38.4810 -38.4356 -38.3800 -38.2782
   -38.2597 -38.2538 -38.2130 -38.1830 -38.1594 -38.1118 -38.0965 -38.0817
   -38.0770 -37.8060 -37.8059 -37.7494 -37.7490   2.7430   2.7675   2.9384
     3.0334   3.1001   3.2891   3.3591   3.6722   3.8252   3.9527   4.5453
     4.9122   5.3272   5.4637   5.5744   5.6324   5.7081   5.9505   6.2596
     6.3860   6.6068   6.9971   7.1783   7.3856   7.5756   7.6902   8.0088
     8.0896   8.1334   8.2563   8.3721   8.5159   8.6251   8.7347   8.8981
     9.0234   9.2057   9.2802   9.9187  11.2867  12.8551  14.4144  15.7845

          k = 0.0556-0.2887 0.0000 (  4439 PWs)   bands (ev):

   -38.5711 -38.5511 -38.4671 -38.4339 -38.3834 -38.3256 -38.3030 -38.2474
   -38.2096 -38.2070 -38.1704 -38.1394 -38.1183 -38.0801 -38.0585 -37.9470
   -37.9464 -37.7650 -37.7649 -37.7573 -37.7569   2.4641   2.7381   3.1180
     3.2849   3.5052   3.6993   3.9020   4.0349   4.2272   4.3783   4.6189
     4.6781   4.9976   5.1306   5.4977   5.6782   5.7590   5.7990   5.9018
     6.0261   6.1071   6.2791   6.3706   6.6855   6.7248   6.8354   6.9851
     7.1648   7.2306   7.3427   7.5857   7.6958   7.8338   7.9686   8.0802
     8.2598   8.5797   8.8637   8.9303  10.0911  11.4654  12.8304  13.8921

          k = 0.0556-0.1604 0.0000 (  4443 PWs)   bands (ev):

   -38.6282 -38.5850 -38.4190 -38.3003 -38.2362 -38.2065 -38.1770 -38.1697
   -38.1548 -38.1473 -38.1022 -38.0930 -38.0708 -38.0596 -38.0257 -37.7990
   -37.7989 -37.7661 -37.7658 -37.7241 -37.7241   1.4281   1.8627   2.5547
     3.0162   3.0476   3.3554   3.4038   4.5861   4.7038   4.8741   4.9441
     5.0540   5.0904   5.4288   5.5624   5.6700   5.7362   5.7981   5.8751
     5.8807   5.9318   5.9828   6.0272   6.2142   6.2688   6.4337   6.5058
     6.8888   6.9794   7.0532   7.1232   7.3050   7.5036   7.6436   7.8673
     8.0137   8.3724   8.5689   8.8044   9.0591  10.0432  11.1237  11.8385

          k = 0.0556-0.0321 0.0000 (  4465 PWs)   bands (ev):

   -38.6609 -38.6075 -38.4170 -38.2585 -38.1507 -38.1479 -38.1397 -38.1385
   -38.0876 -38.0820 -38.0746 -38.0575 -38.0545 -38.0176 -38.0062 -37.7762
   -37.7749 -37.7140 -37.7138 -37.7028 -37.7025   0.8254   1.2918   2.0169
     2.5236   2.5613   2.8522   2.9007   5.0716   5.1151   5.2650   5.3304
     5.3810   5.4203   5.4223   5.4886   5.5127   5.6211   5.6397   5.6506
     5.7036   5.7414   5.9216   5.9787   6.0445   6.0582   6.3055   7.1518
     7.1889   7.2572   7.3635   7.3728   7.5217   7.5599   7.8097   7.9222
     8.1505   8.2632   8.2681   8.6706   8.8363   8.8635   9.6748  10.1077

          k = 0.1667 0.2887 0.0000 (  4425 PWs)   bands (ev):

   -38.5500 -38.5453 -38.4845 -38.4623 -38.4210 -38.3667 -38.3326 -38.2667
   -38.2359 -38.2351 -38.1762 -38.1701 -38.1461 -38.1124 -38.0713 -37.9784
   -37.9783 -37.7978 -37.7977 -37.7537 -37.7533   2.9338   3.0763   3.3583
     3.6902   3.8723   3.8917   3.9936   4.0542   4.0658   4.2620   4.3878
     4.5397   4.9865   5.0259   5.1066   5.3132   5.4866   5.4871   5.5177
     5.6594   6.2070   6.2427   6.4590   6.5532   6.6730   7.1065   7.1593
     7.3103   7.5568   7.7295   7.9583   8.1879   8.3214   8.4429   8.4573
     8.5683   8.6333   8.7257   9.4153  10.6449  12.0307  13.4303  14.5747

          k = 0.1667 0.4170 0.0000 (  4459 PWs)   bands (ev):

   -38.5880 -38.5776 -38.5586 -38.5384 -38.4770 -38.4453 -38.3839 -38.3105
   -38.3074 -38.2795 -38.2269 -38.2181 -38.1997 -38.1584 -38.1018 -38.0737
   -38.0724 -37.8599 -37.8599 -37.7463 -37.7461   3.1060   3.1726   3.3026
     3.4530   3.5122   3.5754   3.8063   3.8922   4.1121   4.2929   4.5525
     4.6655   4.9120   5.0926   5.1870   5.4268   5.5267   5.8888   5.9646
     6.1269   6.2051   6.4453   6.5690   6.8436   7.1374   7.2823   7.4170
     7.6344   7.7714   8.0145   8.4969   8.7839   8.8764   8.9461   9.1201
    10.1826  10.3287  10.5466  11.1696  12.2881  13.6789  15.1252  16.4150

          k = 0.1667 0.5453 0.0000 (  4490 PWs)   bands (ev):

   -38.6442 -38.6331 -38.5973 -38.5733 -38.5295 -38.4084 -38.3900 -38.3591
   -38.3438 -38.2973 -38.2604 -38.2407 -38.2253 -38.1690 -38.1286 -38.1186
   -38.1173 -37.8938 -37.8936 -37.7423 -37.7422   2.8003   3.0887   3.0945
     3.2275   3.3671   3.4553   3.6055   3.8492   4.0398   4.0888   4.4308
     4.5343   4.7852   5.1628   5.4758   5.6468   5.7264   5.9355   6.1971
     6.3205   6.5469   6.8229   7.1968   7.2471   7.3473   7.7272   8.0213
     8.1670   8.2940   8.4124   8.5919   8.7187   8.8072   9.0016   9.1292
    12.0418  12.4640  12.8852  13.2856  13.7897  14.2683  14.5176  16.4951

          k = 0.1667-0.4811 0.0000 (  4476 PWs)   bands (ev):

   -38.6239 -38.6129 -38.5838 -38.5602 -38.5117 -38.4241 -38.3886 -38.3406
   -38.3312 -38.2893 -38.2458 -38.2392 -38.2141 -38.1670 -38.1177 -38.1037
   -38.1018 -37.8821 -37.8818 -37.7437 -37.7435   2.9087   3.1200   3.1627
     3.3289   3.4080   3.4974   3.6753   3.8845   4.0461   4.1787   4.4478
     4.6371   4.8972   5.0378   5.4501   5.5253   5.7550   5.9522   6.0496
     6.1670   6.5284   6.6771   6.9333   7.0695   7.1980   7.6192   7.8165
     7.8362   7.9867   8.1430   8.5520   8.8395   8.8932   9.0494   9.2178
    11.1491  11.4122  11.7297  12.3029  13.2422  14.4202  15.5616  16.7455

          k = 0.1667-0.3528 0.0000 (  4458 PWs)   bands (ev):

   -38.5543 -38.5445 -38.5248 -38.5094 -38.4550 -38.4276 -38.3674 -38.2817
   -38.2727 -38.2668 -38.2022 -38.1874 -38.1816 -38.1402 -38.0859 -38.0308
   -38.0304 -37.8305 -37.8304 -37.7500 -37.7499   3.1964   3.2939   3.3856
     3.5230   3.6418   3.7386   3.8548   3.9989   4.2375   4.3027   4.4634
     4.6707   4.8512   4.9631   5.2235   5.3353   5.3822   5.5967   5.7900
     5.8690   6.1226   6.1713   6.4505   6.7283   6.8891   7.0575   7.3305
     7.4832   7.6960   7.8731   8.3483   8.5396   8.6529   8.6796   8.8944
     9.2900   9.3558   9.4856  10.1484  11.3795  12.8114  14.2628  15.4943

          k = 0.1667-0.2245 0.0000 (  4433 PWs)   bands (ev):

   -38.5751 -38.5543 -38.4521 -38.4082 -38.3640 -38.3034 -38.2873 -38.2454
   -38.2049 -38.2030 -38.1634 -38.1385 -38.1178 -38.0831 -38.0586 -37.9222
   -37.9220 -37.7678 -37.7677 -37.7579 -37.7575   2.4167   2.7148   3.2061
     3.5648   3.6843   3.8375   3.9728   4.1431   4.2755   4.3210   4.4879
     4.6640   4.7905   5.0985   5.2833   5.4369   5.5152   5.6242   5.7426
     5.8278   6.0674   6.2305   6.5173   6.5754   6.6047   6.8311   6.9133
     7.1736   7.1892   7.2754   7.5902   7.6932   7.8848   8.0375   8.0508
     8.1570   8.4740   8.6927   8.9636  10.0564  11.3460  12.6624  13.6894

          k = 0.1667-0.0962 0.0000 (  4427 PWs)   bands (ev):

   -38.6188 -38.5786 -38.4219 -38.3199 -38.2635 -38.2234 -38.1914 -38.1760
   -38.1705 -38.1686 -38.1085 -38.1032 -38.0817 -38.0632 -38.0276 -37.8244
   -37.8243 -37.7652 -37.7647 -37.7289 -37.7286   1.6063   2.0231   2.6863
     3.0907   3.1779   3.4739   3.5453   4.4010   4.6619   4.7802   4.8273
     4.9839   4.9998   5.5060   5.5534   5.6899   5.7752   5.8100   5.9074
     5.9783   6.0127   6.0946   6.1113   6.1407   6.3339   6.4459   6.6069
     6.7112   6.9192   6.9643   7.1514   7.2865   7.5126   7.6009   7.8714
     8.1800   8.2880   8.7054   8.9155   9.1408  10.2834  11.4357  12.2183

          k = 0.2778 0.4811 0.0000 (  4485 PWs)   bands (ev):

   -38.5870 -38.5840 -38.5521 -38.5397 -38.4810 -38.4661 -38.4326 -38.3867
   -38.3631 -38.3345 -38.2961 -38.2837 -38.2039 -38.2017 -38.1295 -38.0821
   -38.0819 -37.9529 -37.9528 -37.7412 -37.7409   3.3247   3.3463   3.5009
     3.5745   3.8185   3.9559   4.1088   4.1631   4.2390   4.3199   4.3992
     4.4838   4.8153   4.9617   5.1315   5.3355   5.5999   5.6931   6.0244
     6.0353   6.2503   6.2504   6.7474   6.8628   7.0126   7.2553   7.4151
     7.4827   7.8187   8.1685   8.5380   8.8033   8.8416   8.9073   9.1119
    12.4974  12.7254  13.1883  13.8724  14.8032  15.9035  16.8284  16.9391

          k = 0.2778 0.6094 0.0000 (  4491 PWs)   bands (ev):

   -38.5796 -38.5713 -38.5383 -38.5332 -38.4977 -38.4737 -38.4437 -38.4139
   -38.3840 -38.3611 -38.3048 -38.2995 -38.2080 -38.1971 -38.1411 -38.0740
   -38.0738 -37.9850 -37.9849 -37.7399 -37.7394   3.2982   3.5269   3.5714
     3.7174   3.8341   3.9781   4.0364   4.0894   4.1730   4.3448   4.3981
     4.5632   4.7107   5.0899   5.1922   5.4140   5.5449   5.6845   5.9411
     5.9961   6.2924   6.3141   6.7181   6.9238   7.1021   7.2508   7.4542
     7.5202   8.1143   8.3271   8.4749   8.6300   8.6989   8.7464   8.8894
    13.7094  14.0043  14.4653  14.9083  15.2947  15.7630  16.2944  16.5148

          k = 0.2778-0.4170 0.0000 (  4462 PWs)   bands (ev):

   -38.5938 -38.5858 -38.5608 -38.5398 -38.4889 -38.4476 -38.4015 -38.3493
   -38.3428 -38.3030 -38.2665 -38.2516 -38.2048 -38.1895 -38.1142 -38.0834
   -38.0829 -37.9074 -37.9073 -37.7431 -37.7429   3.1856   3.3190   3.3975
     3.5393   3.6684   3.7640   3.9289   4.1326   4.2418   4.2977   4.5254
     4.6913   4.7510   4.8537   5.1919   5.2673   5.5866   5.7798   6.0171
     6.0908   6.2447   6.3210   6.5433   6.8396   7.0517   7.2733   7.4427
     7.5638   7.6681   8.0255   8.5424   8.9011   8.9285   9.0269   9.2166
    11.3240  11.4716  11.8285  12.4829  13.4969  14.7624  16.0881  17.2498

          k = 0.2778-0.2887 0.0000 (  4463 PWs)   bands (ev):

   -38.5722 -38.5613 -38.5472 -38.5306 -38.4531 -38.4407 -38.3723 -38.2792
   -38.2690 -38.2603 -38.2006 -38.1877 -38.1766 -38.1191 -38.0915 -38.0527
   -38.0513 -37.8182 -37.8179 -37.7496 -37.7495   2.9533   3.0669   3.2000
     3.2404   3.3617   3.4811   3.6237   3.8555   4.0522   4.1914   4.5418
     4.7830   5.1355   5.1724   5.4005   5.5305   5.6269   5.8008   5.9820
     6.1438   6.3480   6.5677   6.6930   6.8250   7.1264   7.3345   7.4796
     7.5788   7.8273   8.1285   8.3715   8.4650   8.6565   8.6744   8.9278
     9.1409   9.3228   9.4020  10.0572  11.3287  12.8151  14.3124  15.5866

          k = 0.2778-0.1604 0.0000 (  4458 PWs)   bands (ev):

   -38.5661 -38.5455 -38.4949 -38.4719 -38.4116 -38.3622 -38.3293 -38.2568
   -38.2178 -38.2150 -38.1839 -38.1470 -38.1198 -38.0871 -38.0624 -37.9838
   -37.9834 -37.7695 -37.7694 -37.7559 -37.7555   2.5701   2.8210   3.0335
     3.1327   3.3983   3.5121   3.7717   3.8515   4.1090   4.2683   4.6828
     4.9265   5.1461   5.3246   5.5527   5.6858   5.7784   5.8410   6.0188
     6.1551   6.4208   6.5188   6.5534   6.7201   6.8530   7.0741   7.2729
     7.3374   7.4201   7.4805   7.6568   7.8347   7.8719   7.9614   8.1064
     8.3285   8.7454   8.9178   8.9818  10.2656  11.7353  13.1654  14.2917

          k = 0.3889 0.6736 0.0000 (  4511 PWs)   bands (ev):

   -38.6159 -38.6045 -38.5678 -38.5516 -38.5075 -38.4304 -38.4262 -38.3792
   -38.3776 -38.3328 -38.2912 -38.2755 -38.2188 -38.1861 -38.1349 -38.1000
   -38.0998 -37.9433 -37.9430 -37.7408 -37.7406   3.0250   3.3110   3.4051
     3.5979   3.6225   3.7742   3.7932   4.0638   4.1619   4.2417   4.4823
     4.5188   4.6943   4.9323   5.3066   5.4857   5.7232   5.9118   5.9304
     6.2667   6.3385   6.7250   6.7300   6.8137   7.1605   7.4903   7.7191
     7.8523   8.2688   8.3889   8.4594   8.6340   8.7134   8.9240   8.9295
    13.2396  13.5406  13.8466  14.1497  14.5091  14.9228  15.2535  16.6350

          k = 0.3889-0.3528 0.0000 (  4485 PWs)   bands (ev):

   -38.6574 -38.6459 -38.6128 -38.5860 -38.5405 -38.4079 -38.3885 -38.3164
   -38.3076 -38.2718 -38.2385 -38.2144 -38.2111 -38.1440 -38.1337 -38.1227
   -38.1124 -37.8508 -37.8507 -37.7446 -37.7444   2.6383   2.8294   2.9004
     2.9775   3.1287   3.2395   3.3506   3.6659   3.7914   3.8827   4.4118
     4.7221   5.0244   5.3566   5.4870   5.6951   5.8306   5.9045   6.4145
     6.5794   6.6487   7.1888   7.2917   7.6473   7.7804   7.9113   8.2629
     8.3868   8.3931   8.4782   8.6269   8.8116   8.9055   9.0432   9.2262
    10.7752  11.2611  11.6590  12.0097  12.7572  13.7440  14.5587  16.4262

          k = 0.3889-0.2245 0.0000 (  4444 PWs)   bands (ev):

   -38.6329 -38.6225 -38.5968 -38.5742 -38.5119 -38.4258 -38.3858 -38.2779
   -38.2586 -38.2549 -38.2249 -38.1847 -38.1530 -38.1276 -38.1078 -38.0966
   -38.0934 -37.8049 -37.8047 -37.7482 -37.7478   2.5874   2.6443   2.7842
     2.9060   2.9734   3.1631   3.2089   3.5446   3.6443   3.8516   4.5123
     4.9465   5.3203   5.4002   5.5329   5.8179   5.8581   5.9477   6.4433
     6.6544   6.8235   7.1285   7.5386   7.7952   8.0744   8.2004   8.2769
     8.4354   8.4932   8.5547   8.5767   8.7001   8.7468   8.8631   8.9747
     9.0982   9.1951   9.4453   9.9806  11.3995  12.9899  14.5512  16.0844

          k =-0.5000-0.8660 0.0000 (  4492 PWs)   bands (ev):

   -38.6898 -38.6787 -38.6446 -38.6120 -38.5713 -38.3993 -38.3987 -38.2756
   -38.2709 -38.2594 -38.2593 -38.1995 -38.1662 -38.1658 -38.1514 -38.1192
   -38.1058 -37.8190 -37.8189 -37.7457 -37.7456   2.3611   2.5513   2.6079
     2.7136   2.8560   3.0185   3.0190   3.3951   3.4506   3.6948   4.4014
     4.8881   5.1470   5.2879   5.4259   5.7265   6.1783   6.2247   6.3869
     7.0754   7.1297   7.2219   7.8954   8.1617   8.3681   8.5145   8.7945
     8.9001   8.9105   9.0047   9.0105   9.0709   9.2012   9.3776   9.3850
     9.7387  10.8383  11.7478  11.9518  12.3507  12.4914  12.6266  16.0967

     the Fermi energy is     8.3531 ev

!    total energy              =   -1198.23267455 Ry
     estimated scf accuracy    <          6.8E-09 Ry
     smearing contrib. (-TS)   =      -0.03008893 Ry
     internal energy E=F+TS    =   -1198.20258562 Ry

     The total energy is F=E-TS. E is the sum of the following terms:
     one-electron contribution =  -13522.38163572 Ry
     hartree contribution      =    6806.96249510 Ry
     xc contribution           =    -209.37994533 Ry
     ewald contribution        =    5726.59650034 Ry

     total magnetization       =     0.00 Bohr mag/cell
     absolute magnetization    =     0.00 Bohr mag/cell

     convergence has been achieved in  13 iterations

     negative rho (up, down):  1.964E-01 1.964E-01

     Forces acting on atoms (cartesian axes, Ry/au):

     atom    1 type  1   force =     0.00000000    0.00000000    0.00064831
     atom    2 type  1   force =     0.00000000    0.00000000   -0.00064483
     atom    3 type  1   force =     0.00000000    0.00000000    0.00216733
     atom    4 type  1   force =     0.00000000    0.00000000    0.00001212
     atom    5 type  1   force =     0.00000000    0.00000000   -0.00216943
     atom    6 type  1   force =     0.00000000    0.00000000    0.00061714
     atom    7 type  1   force =     0.00000000    0.00000000   -0.00063063

     Total force =     0.003319     Total SCF correction =     0.000438
     SCF correction compared to forces is large: reduce conv_thr to get better values
     Energy error            =      1.9E-05
     Gradient error          =      2.2E-03

     number of scf cycles    =   9
     number of bfgs steps    =   8

     energy   old            =   -1198.2326556458 Ry
     energy   new            =   -1198.2326745460 Ry

     CASE: energy  _new < energy  _old

     new trust radius        =       0.0079222698 bohr
     new conv_thr            =       0.0000001000 Ry


ATOMIC_POSITIONS (angstrom)
Rh            0.0000000000        0.0000000000        0.0438530569
Rh            2.7108568000        1.5651139000        2.2176621540
Rh            1.3554284000        0.7825569000        4.4133204168
Rh            0.0000000000        0.0000000000        6.6401825191
Rh            2.7108568000        1.5651139000        8.8671137657
Rh            1.3554284000        0.7825569000       11.0628190336
Rh            0.0000000000        0.0000000000       13.2365601539



     Writing output data file /home/STUDENTI/leonardo.razzai/WORK/relax_surf/7-L.save/
     NEW-OLD atomic charge density approx. for the potential

     negative rho (up, down):  1.949E-01 1.949E-01
     Generating pointlists ...

     total cpu time spent up to now is     1617.7 secs

     Self-consistent Calculation

     iteration #  1     ecut=    35.00 Ry     beta= 0.40
     Davidson diagonalization with overlap
     ethr =  1.00E-06,  avg # of iterations =  6.0

     negative rho (up, down):  1.949E-01 1.949E-01

     total cpu time spent up to now is     1652.5 secs

     total energy              =   -1198.23021722 Ry
     estimated scf accuracy    <       0.14195883 Ry

     total magnetization       =     0.00 Bohr mag/cell
     absolute magnetization    =     0.00 Bohr mag/cell

     iteration #  2     ecut=    35.00 Ry     beta= 0.40
     Davidson diagonalization with overlap
     ethr =  1.35E-04,  avg # of iterations =  1.0

     negative rho (up, down):  1.949E-01 1.949E-01

     total cpu time spent up to now is     1668.5 secs

     total energy              =   -1198.23182518 Ry
     estimated scf accuracy    <       0.07731539 Ry

     total magnetization       =     0.00 Bohr mag/cell
     absolute magnetization    =     0.00 Bohr mag/cell

     iteration #  3     ecut=    35.00 Ry     beta= 0.40
     Davidson diagonalization with overlap
     ethr =  7.36E-05,  avg # of iterations =  1.0

     negative rho (up, down):  1.949E-01 1.949E-01

     total cpu time spent up to now is     1684.9 secs

     total energy              =   -1198.23267917 Ry
     estimated scf accuracy    <       0.00353259 Ry

     total magnetization       =     0.00 Bohr mag/cell
     absolute magnetization    =     0.00 Bohr mag/cell

     iteration #  4     ecut=    35.00 Ry     beta= 0.40
     Davidson diagonalization with overlap
     ethr =  3.36E-06,  avg # of iterations =  1.1

     negative rho (up, down):  1.949E-01 1.949E-01

     total cpu time spent up to now is     1700.9 secs

     total energy              =   -1198.23267996 Ry
     estimated scf accuracy    <       0.00103593 Ry

     total magnetization       =    -0.00 Bohr mag/cell
     absolute magnetization    =     0.00 Bohr mag/cell

     iteration #  5     ecut=    35.00 Ry     beta= 0.40
     Davidson diagonalization with overlap
     ethr =  9.87E-07,  avg # of iterations =  1.8

     negative rho (up, down):  1.949E-01 1.949E-01

     total cpu time spent up to now is     1717.6 secs

     total energy              =   -1198.23268837 Ry
     estimated scf accuracy    <       0.00003744 Ry

     total magnetization       =    -0.00 Bohr mag/cell
     absolute magnetization    =     0.00 Bohr mag/cell

     iteration #  6     ecut=    35.00 Ry     beta= 0.40
     Davidson diagonalization with overlap
     ethr =  3.57E-08,  avg # of iterations =  1.0

     negative rho (up, down):  1.949E-01 1.949E-01

     total cpu time spent up to now is     1733.4 secs

     total energy              =   -1198.23268798 Ry
     estimated scf accuracy    <       0.00000827 Ry

     total magnetization       =    -0.00 Bohr mag/cell
     absolute magnetization    =     0.00 Bohr mag/cell

     iteration #  7     ecut=    35.00 Ry     beta= 0.40
     Davidson diagonalization with overlap
     ethr =  7.87E-09,  avg # of iterations =  1.0

     negative rho (up, down):  1.949E-01 1.949E-01

     total cpu time spent up to now is     1749.7 secs

     total energy              =   -1198.23268758 Ry
     estimated scf accuracy    <       0.00000682 Ry

     total magnetization       =    -0.00 Bohr mag/cell
     absolute magnetization    =     0.00 Bohr mag/cell

     iteration #  8     ecut=    35.00 Ry     beta= 0.40
     Davidson diagonalization with overlap
     ethr =  6.49E-09,  avg # of iterations =  1.1

     negative rho (up, down):  1.949E-01 1.949E-01

     total cpu time spent up to now is     1765.7 secs

     total energy              =   -1198.23268765 Ry
     estimated scf accuracy    <       0.00000339 Ry

     total magnetization       =    -0.00 Bohr mag/cell
     absolute magnetization    =     0.00 Bohr mag/cell

     iteration #  9     ecut=    35.00 Ry     beta= 0.40
     Davidson diagonalization with overlap
     ethr =  3.23E-09,  avg # of iterations =  1.9

     negative rho (up, down):  1.949E-01 1.949E-01

     total cpu time spent up to now is     1783.2 secs

     total energy              =   -1198.23268890 Ry
     estimated scf accuracy    <       0.00000716 Ry

     total magnetization       =    -0.00 Bohr mag/cell
     absolute magnetization    =     0.00 Bohr mag/cell

     iteration # 10     ecut=    35.00 Ry     beta= 0.40
     Davidson diagonalization with overlap
     ethr =  3.23E-09,  avg # of iterations =  1.0

     negative rho (up, down):  1.949E-01 1.949E-01

     total cpu time spent up to now is     1799.3 secs

     total energy              =   -1198.23268939 Ry
     estimated scf accuracy    <       0.00000109 Ry

     total magnetization       =    -0.00 Bohr mag/cell
     absolute magnetization    =     0.00 Bohr mag/cell

     iteration # 11     ecut=    35.00 Ry     beta= 0.40
     Davidson diagonalization with overlap
     ethr =  1.04E-09,  avg # of iterations =  1.0

     negative rho (up, down):  1.949E-01 1.949E-01

     total cpu time spent up to now is     1815.3 secs

     total energy              =   -1198.23268964 Ry
     estimated scf accuracy    <       0.00000015 Ry

     total magnetization       =    -0.00 Bohr mag/cell
     absolute magnetization    =     0.00 Bohr mag/cell

     iteration # 12     ecut=    35.00 Ry     beta= 0.40
     Davidson diagonalization with overlap
     ethr =  1.41E-10,  avg # of iterations =  1.1

     negative rho (up, down):  1.949E-01 1.949E-01

     total cpu time spent up to now is     1831.4 secs

     total energy              =   -1198.23268998 Ry
     estimated scf accuracy    <       0.00000012 Ry

     total magnetization       =    -0.00 Bohr mag/cell
     absolute magnetization    =     0.00 Bohr mag/cell

     iteration # 13     ecut=    35.00 Ry     beta= 0.40
     Davidson diagonalization with overlap
     ethr =  1.17E-10,  avg # of iterations =  1.2

     negative rho (up, down):  1.949E-01 1.949E-01
 
     Magnetic moment per site:
     atom:    1    charge:   13.1071    magn:   -0.0000    constr:    0.0000
     atom:    2    charge:   13.1652    magn:   -0.0000    constr:    0.0000
     atom:    3    charge:   13.1611    magn:    0.0000    constr:    0.0000
     atom:    4    charge:   13.1541    magn:    0.0000    constr:    0.0000
     atom:    5    charge:   13.1611    magn:    0.0000    constr:    0.0000
     atom:    6    charge:   13.1648    magn:   -0.0000    constr:    0.0000
     atom:    7    charge:   13.1069    magn:    0.0000    constr:    0.0000

     total cpu time spent up to now is     1847.3 secs

     End of self-consistent calculation

 ------ SPIN UP ------------


          k = 0.0556 0.0962 0.0000 (  4451 PWs)   bands (ev):

   -38.6532 -38.6015 -38.4191 -38.2708 -38.1813 -38.1710 -38.1499 -38.1488
   -38.1145 -38.1118 -38.0825 -38.0715 -38.0571 -38.0431 -38.0153 -37.7735
   -37.7725 -37.7411 -37.7410 -37.7094 -37.7093   1.0287   1.4905   2.2090
     2.7047   2.7248   3.0355   3.0829   4.8968   4.9282   5.1131   5.1647
     5.2618   5.3626   5.5599   5.5660   5.5954   5.6432   5.6578   5.6889
     5.7743   5.8465   5.8964   5.9647   6.0930   6.2015   6.2072   6.7567
     7.0474   7.0935   7.2770   7.3303   7.5203   7.5582   7.6753   7.7619
     8.0671   8.1062   8.6010   8.6266   8.8224   9.3788  10.3106  10.8608

          k = 0.0556 0.2245 0.0000 (  4420 PWs)   bands (ev):

   -38.6029 -38.5693 -38.4342 -38.3591 -38.3090 -38.2570 -38.2365 -38.2137
   -38.1828 -38.1814 -38.1417 -38.1170 -38.0972 -38.0698 -38.0433 -37.8674
   -37.8673 -37.7616 -37.7612 -37.7425 -37.7420   1.9424   2.3219   2.9253
     3.2730   3.3986   3.6825   3.7804   4.2129   4.4807   4.5918   4.6366
     4.8291   4.8662   5.3545   5.4699   5.6187   5.7186   5.8005   5.8369
     5.9201   6.0314   6.1850   6.2883   6.4208   6.5152   6.6416   6.7232
     6.7724   6.9234   7.0618   7.1643   7.3322   7.6277   7.7201   7.9703
     8.0971   8.5199   8.6700   8.8288   9.5545  10.7545  11.9827  12.8805

          k = 0.0556 0.3528 0.0000 (  4467 PWs)   bands (ev):

   -38.5674 -38.5468 -38.5290 -38.5095 -38.4402 -38.4067 -38.3562 -38.2691
   -38.2379 -38.2333 -38.1948 -38.1654 -38.1421 -38.0978 -38.0790 -38.0210
   -38.0203 -37.7862 -37.7861 -37.7524 -37.7522   2.7327   2.9810   3.0284
     3.1192   3.3500   3.4101   3.6430   3.8126   4.0815   4.1418   4.6318
     4.9458   5.1200   5.3528   5.5433   5.6475   5.6888   5.7760   6.0294
     6.1585   6.4459   6.5999   6.7409   6.8171   7.0384   7.3033   7.4693
     7.5291   7.7233   7.8392   7.9875   8.1020   8.2865   8.3579   8.4880
     8.4997   8.6753   8.9213   9.3199  10.6718  12.1819  13.6651  14.8708

          k = 0.0556 0.4811 0.0000 (  4463 PWs)   bands (ev):

   -38.6548 -38.6428 -38.6145 -38.5881 -38.5367 -38.4179 -38.3893 -38.2866
   -38.2771 -38.2666 -38.2331 -38.1989 -38.1762 -38.1353 -38.1257 -38.1123
   -38.1040 -37.8191 -37.8190 -37.7458 -37.7455   2.5473   2.6674   2.7743
     2.8692   2.9892   3.1566   3.1791   3.5489   3.6355   3.8112   4.4523
     4.8676   5.2078   5.3837   5.4933   5.7338   5.9230   5.9719   6.4876
     6.6647   6.8284   7.2262   7.5134   7.8543   8.0506   8.0964   8.3892
     8.4762   8.5806   8.6251   8.7214   8.7423   8.8889   8.9923   9.1524
     9.5864  10.1203  10.4504  10.7838  11.8766  13.2856  14.6386  16.3737

          k = 0.0556-0.5453 0.0000 (  4486 PWs)   bands (ev):

   -38.6832 -38.6704 -38.6382 -38.6074 -38.5658 -38.4027 -38.3949 -38.2905
   -38.2853 -38.2649 -38.2494 -38.2063 -38.1859 -38.1525 -38.1465 -38.1199
   -38.1140 -37.8268 -37.8265 -37.7445 -37.7443   2.4297   2.6166   2.6846
     2.7699   2.9268   3.0693   3.1023   3.4710   3.5403   3.7358   4.4078
     4.8377   5.1165   5.3385   5.4283   5.7449   5.9782   6.1247   6.4935
     6.8042   7.0659   7.2799   7.7136   8.0776   8.2015   8.4575   8.4918
     8.7022   8.7866   8.8730   8.9019   8.9700   9.0446   9.1496   9.2679
    10.2131  11.0043  11.7411  11.9035  12.2028  12.9178  13.4888  16.1855

          k = 0.0556-0.4170 0.0000 (  4465 PWs)   bands (ev):

   -38.6041 -38.5946 -38.5762 -38.5559 -38.4836 -38.4378 -38.3809 -38.2799
   -38.2607 -38.2546 -38.2150 -38.1850 -38.1611 -38.1140 -38.0981 -38.0813
   -38.0771 -37.8053 -37.8052 -37.7486 -37.7482   2.7370   2.7611   2.9348
     3.0297   3.0948   3.2860   3.3561   3.6716   3.8243   3.9504   4.5437
     4.9107   5.3254   5.4630   5.5695   5.6289   5.7055   5.9483   6.2568
     6.3832   6.6046   6.9959   7.1772   7.3856   7.5751   7.6891   8.0088
     8.0895   8.1342   8.2562   8.3700   8.5167   8.6251   8.7354   8.8981
     9.0255   9.2064   9.2804   9.9206  11.2900  12.8595  14.4202  15.7881

          k = 0.0556-0.2887 0.0000 (  4439 PWs)   bands (ev):

   -38.5743 -38.5534 -38.4697 -38.4349 -38.3848 -38.3279 -38.3047 -38.2489
   -38.2104 -38.2076 -38.1720 -38.1415 -38.1200 -38.0823 -38.0605 -37.9463
   -37.9457 -37.7643 -37.7641 -37.7566 -37.7562   2.4584   2.7352   3.1145
     3.2798   3.5026   3.6953   3.8989   4.0326   4.2252   4.3752   4.6159
     4.6755   4.9934   5.1298   5.4976   5.6790   5.7586   5.7922   5.9002
     6.0250   6.1063   6.2776   6.3695   6.6843   6.7211   6.8353   6.9844
     7.1648   7.2284   7.3410   7.5858   7.6959   7.8339   7.9691   8.0808
     8.2603   8.5803   8.8661   8.9321  10.0943  11.4697  12.8346  13.8972

          k = 0.0556-0.1604 0.0000 (  4443 PWs)   bands (ev):

   -38.6319 -38.5871 -38.4219 -38.3019 -38.2367 -38.2075 -38.1784 -38.1708
   -38.1561 -38.1484 -38.1043 -38.0950 -38.0726 -38.0616 -38.0278 -37.7983
   -37.7981 -37.7654 -37.7651 -37.7234 -37.7233   1.4225   1.8606   2.5528
     3.0111   3.0427   3.3553   3.4027   4.5826   4.7010   4.8692   4.9394
     5.0522   5.0896   5.4274   5.5623   5.6709   5.7297   5.7970   5.8726
     5.8785   5.9308   5.9811   6.0274   6.2113   6.2694   6.4332   6.5060
     6.8872   6.9771   7.0539   7.1232   7.3040   7.5035   7.6434   7.8665
     8.0138   8.3726   8.5694   8.8065   9.0606  10.0463  11.1262  11.8435

          k = 0.0556-0.0321 0.0000 (  4465 PWs)   bands (ev):

   -38.6648 -38.6096 -38.4197 -38.2603 -38.1512 -38.1484 -38.1403 -38.1390
   -38.0897 -38.0840 -38.0767 -38.0592 -38.0563 -38.0199 -38.0084 -37.7755
   -37.7742 -37.7132 -37.7130 -37.7021 -37.7018   0.8199   1.2898   2.0152
     2.5204   2.5548   2.8524   2.9001   5.0707   5.1144   5.2610   5.3259
     5.3790   5.4181   5.4217   5.4829   5.5105   5.6182   5.6385   5.6473
     5.7028   5.7380   5.9218   5.9791   6.0447   6.0586   6.3062   7.1510
     7.1856   7.2579   7.3626   7.3722   7.5200   7.5584   7.8088   7.9224
     8.1514   8.2633   8.2684   8.6710   8.8381   8.8656   9.6761  10.1114

          k = 0.1667 0.2887 0.0000 (  4425 PWs)   bands (ev):

   -38.5529 -38.5477 -38.4869 -38.4632 -38.4226 -38.3689 -38.3345 -38.2684
   -38.2364 -38.2356 -38.1777 -38.1722 -38.1477 -38.1149 -38.0734 -37.9777
   -37.9776 -37.7971 -37.7970 -37.7530 -37.7525   2.9278   3.0721   3.3543
     3.6876   3.8684   3.8854   3.9902   4.0486   4.0635   4.2602   4.3853
     4.5353   4.9861   5.0255   5.1060   5.3125   5.4870   5.4870   5.5147
     5.6521   6.2084   6.2426   6.4606   6.5533   6.6716   7.1051   7.1554
     7.3106   7.5555   7.7290   7.9573   8.1875   8.3222   8.4424   8.4577
     8.5685   8.6340   8.7276   9.4174  10.6485  12.0353  13.4351  14.5793

          k = 0.1667 0.4170 0.0000 (  4459 PWs)   bands (ev):

   -38.5897 -38.5786 -38.5613 -38.5402 -38.4797 -38.4477 -38.3851 -38.3111
   -38.3079 -38.2815 -38.2288 -38.2201 -38.2015 -38.1606 -38.1040 -38.0731
   -38.0719 -37.8592 -37.8591 -37.7455 -37.7453   3.0991   3.1661   3.2982
     3.4497   3.5077   3.5719   3.8034   3.8892   4.1093   4.2907   4.5515
     4.6635   4.9088   5.0865   5.1839   5.4241   5.5240   5.8878   5.9646
     6.1272   6.2050   6.4453   6.5688   6.8433   7.1368   7.2835   7.4165
     7.6344   7.7716   8.0149   8.4979   8.7837   8.8777   8.9464   9.1214
    10.1815  10.3284  10.5470  11.1710  12.2910  13.6831  15.1307  16.4183

          k = 0.1667 0.5453 0.0000 (  4490 PWs)   bands (ev):

   -38.6458 -38.6339 -38.5998 -38.5753 -38.5326 -38.4097 -38.3907 -38.3602
   -38.3443 -38.2999 -38.2623 -38.2425 -38.2276 -38.1708 -38.1308 -38.1182
   -38.1174 -37.8931 -37.8929 -37.7415 -37.7414   2.7930   3.0825   3.0908
     3.2214   3.3645   3.4519   3.6023   3.8460   4.0381   4.0876   4.4293
     4.5315   4.7778   5.1596   5.4748   5.6441   5.7254   5.9366   6.1963
     6.3169   6.5460   6.8223   7.1969   7.2467   7.3477   7.7268   8.0215
     8.1677   8.2945   8.4129   8.5925   8.7200   8.8084   9.0029   9.1308
    12.0406  12.4640  12.8854  13.2864  13.7908  14.2693  14.5194  16.4943

          k = 0.1667-0.4811 0.0000 (  4476 PWs)   bands (ev):

   -38.6255 -38.6137 -38.5863 -38.5622 -38.5146 -38.4260 -38.3895 -38.3413
   -38.3317 -38.2917 -38.2477 -38.2411 -38.2161 -38.1690 -38.1199 -38.1033
   -38.1016 -37.8814 -37.8811 -37.7429 -37.7427   2.9016   3.1136   3.1587
     3.3235   3.4051   3.4941   3.6721   3.8816   4.0436   4.1774   4.4466
     4.6345   4.8900   5.0345   5.4464   5.5245   5.7550   5.9502   6.0495
     6.1653   6.5276   6.6764   6.9337   7.0697   7.1971   7.6192   7.8172
     7.8368   7.9873   8.1436   8.5531   8.8399   8.8946   9.0502   9.2191
    11.1479  11.4121  11.7300  12.3041  13.2445  14.4232  15.5653  16.7465

          k = 0.1667-0.3528 0.0000 (  4458 PWs)   bands (ev):

   -38.5567 -38.5465 -38.5270 -38.5105 -38.4574 -38.4301 -38.3690 -38.2831
   -38.2732 -38.2676 -38.2042 -38.1890 -38.1834 -38.1426 -38.0880 -38.0302
   -38.0298 -37.8298 -37.8297 -37.7493 -37.7491   3.1901   3.2869   3.3820
     3.5194   3.6379   3.7347   3.8515   3.9958   4.2348   4.2985   4.4615
     4.6678   4.8502   4.9615   5.2222   5.3316   5.3770   5.5951   5.7897
     5.8687   6.1236   6.1710   6.4512   6.7296   6.8889   7.0566   7.3282
     7.4834   7.6959   7.8730   8.3483   8.5396   8.6525   8.6805   8.8959
     9.2892   9.3554   9.4863  10.1502  11.3829  12.8161  14.2682  15.4981

          k = 0.1667-0.2245 0.0000 (  4433 PWs)   bands (ev):

   -38.5783 -38.5566 -38.4549 -38.4092 -38.3651 -38.3054 -38.2893 -38.2470
   -38.2055 -38.2037 -38.1649 -38.1405 -38.1195 -38.0854 -38.0606 -37.9215
   -37.9213 -37.7671 -37.7670 -37.7572 -37.7567   2.4111   2.7118   3.2032
     3.5595   3.6810   3.8346   3.9688   4.1396   4.2712   4.3186   4.4854
     4.6602   4.7889   5.0979   5.2827   5.4366   5.5152   5.6245   5.7400
     5.8207   6.0689   6.2300   6.5164   6.5763   6.6030   6.8276   6.9120
     7.1726   7.1872   7.2737   7.5902   7.6931   7.8847   8.0381   8.0512
     8.1576   8.4745   8.6950   8.9652  10.0596  11.3502  12.6664  13.6945

          k = 0.1667-0.0962 0.0000 (  4427 PWs)   bands (ev):

   -38.6224 -38.5808 -38.4248 -38.3214 -38.2642 -38.2248 -38.1933 -38.1777
   -38.1712 -38.1692 -38.1105 -38.1053 -38.0833 -38.0652 -38.0297 -37.8236
   -37.8235 -37.7645 -37.7640 -37.7281 -37.7279   1.6008   2.0209   2.6842
     3.0853   3.1737   3.4736   3.5441   4.3968   4.6590   4.7757   4.8241
     4.9816   4.9974   5.5051   5.5537   5.6908   5.7676   5.8102   5.9080
     5.9753   6.0080   6.0959   6.1092   6.1416   6.3309   6.4441   6.6067
     6.7102   6.9201   6.9622   7.1510   7.2864   7.5122   7.6010   7.8711
     8.1803   8.2881   8.7057   8.9180   9.1426  10.2867  11.4384  12.2235

          k = 0.2778 0.4811 0.0000 (  4485 PWs)   bands (ev):

   -38.5883 -38.5852 -38.5544 -38.5419 -38.4835 -38.4684 -38.4339 -38.3877
   -38.3637 -38.3367 -38.2980 -38.2848 -38.2062 -38.2038 -38.1323 -38.0815
   -38.0813 -37.9522 -37.9521 -37.7404 -37.7400   3.3178   3.3393   3.4952
     3.5713   3.8157   3.9513   4.1036   4.1560   4.2370   4.3166   4.3971
     4.4787   4.8118   4.9600   5.1300   5.3337   5.5971   5.6915   6.0245
     6.0355   6.2508   6.2509   6.7495   6.8645   7.0136   7.2554   7.4153
     7.4829   7.8189   8.1692   8.5389   8.8049   8.8430   8.9077   9.1137
    12.4959  12.7253  13.1889  13.8737  14.8051  15.9058  16.8283  16.9399

          k = 0.2778 0.6094 0.0000 (  4491 PWs)   bands (ev):

   -38.5811 -38.5723 -38.5404 -38.5354 -38.5000 -38.4749 -38.4457 -38.4154
   -38.3857 -38.3630 -38.3059 -38.3005 -38.2103 -38.1992 -38.1441 -38.0734
   -38.0732 -37.9844 -37.9842 -37.7390 -37.7386   3.2908   3.5225   3.5645
     3.7130   3.8282   3.9742   4.0293   4.0871   4.1718   4.3384   4.3942
     4.5601   4.7080   5.0885   5.1906   5.4125   5.5415   5.6832   5.9415
     5.9962   6.2930   6.3147   6.7205   6.9249   7.1031   7.2518   7.4544
     7.5208   8.1148   8.3277   8.4755   8.6315   8.6997   8.7479   8.8911
    13.7080  14.0044  14.4657  14.9081  15.2948  15.7636  16.2963  16.5145

          k = 0.2778-0.4170 0.0000 (  4462 PWs)   bands (ev):

   -38.5952 -38.5868 -38.5633 -38.5418 -38.4917 -38.4500 -38.4028 -38.3498
   -38.3432 -38.3052 -38.2686 -38.2531 -38.2069 -38.1916 -38.1168 -38.0829
   -38.0824 -37.9067 -37.9066 -37.7423 -37.7421   3.1786   3.3125   3.3929
     3.5348   3.6655   3.7593   3.9255   4.1293   4.2382   4.2945   4.5225
     4.6875   4.7484   4.8498   5.1900   5.2648   5.5837   5.7781   6.0173
     6.0908   6.2455   6.3212   6.5449   6.8402   7.0526   7.2728   7.4432
     7.5639   7.6682   8.0262   8.5434   8.9027   8.9293   9.0274   9.2180
    11.3226  11.4713  11.8289  12.4842  13.4994  14.7660  16.0930  17.2527

          k = 0.2778-0.2887 0.0000 (  4463 PWs)   bands (ev):

   -38.5744 -38.5628 -38.5496 -38.5320 -38.4554 -38.4432 -38.3735 -38.2806
   -38.2699 -38.2611 -38.2026 -38.1894 -38.1785 -38.1214 -38.0935 -38.0521
   -38.0508 -37.8175 -37.8172 -37.7489 -37.7487   2.9471   3.0605   3.1951
     3.2377   3.3569   3.4780   3.6209   3.8538   4.0495   4.1904   4.5399
     4.7811   5.1309   5.1712   5.3943   5.5279   5.6241   5.8014   5.9808
     6.1425   6.3469   6.5673   6.6921   6.8243   7.1251   7.3356   7.4793
     7.5789   7.8271   8.1285   8.3706   8.4657   8.6569   8.6744   8.9297
     9.1402   9.3227   9.4025  10.0591  11.3321  12.8197  14.3179  15.5905

          k = 0.2778-0.1604 0.0000 (  4458 PWs)   bands (ev):

   -38.5692 -38.5478 -38.4972 -38.4728 -38.4134 -38.3646 -38.3309 -38.2582
   -38.2187 -38.2157 -38.1856 -38.1491 -38.1213 -38.0895 -38.0644 -37.9831
   -37.9827 -37.7688 -37.7687 -37.7552 -37.7548   2.5644   2.8180   3.0285
     3.1286   3.3956   3.5071   3.7691   3.8498   4.1083   4.2655   4.6800
     4.9229   5.1452   5.3226   5.5518   5.6865   5.7700   5.8401   6.0149
     6.1543   6.4207   6.5147   6.5537   6.7197   6.8497   7.0722   7.2741
     7.3352   7.4210   7.4783   7.6566   7.8349   7.8727   7.9617   8.1069
     8.3291   8.7460   8.9196   8.9847  10.2689  11.7398  13.1700  14.2966

          k = 0.3889 0.6736 0.0000 (  4511 PWs)   bands (ev):

   -38.6175 -38.6053 -38.5701 -38.5537 -38.5105 -38.4318 -38.4271 -38.3801
   -38.3790 -38.3349 -38.2925 -38.2772 -38.2212 -38.1880 -38.1378 -38.0995
   -38.0992 -37.9426 -37.9423 -37.7400 -37.7398   3.0176   3.3075   3.3984
     3.5919   3.6182   3.7714   3.7889   4.0608   4.1598   4.2388   4.4797
     4.5119   4.6926   4.9291   5.3047   5.4840   5.7231   5.9074   5.9305
     6.2660   6.3407   6.7255   6.7302   6.8141   7.1605   7.4905   7.7195
     7.8532   8.2692   8.3894   8.4601   8.6358   8.7144   8.9256   8.9312
    13.2387  13.5399  13.8462  14.1499  14.5099  14.9237  15.2566  16.6369

          k = 0.3889-0.3528 0.0000 (  4485 PWs)   bands (ev):

   -38.6590 -38.6467 -38.6154 -38.5880 -38.5434 -38.4091 -38.3891 -38.3175
   -38.3084 -38.2742 -38.2410 -38.2162 -38.2128 -38.1454 -38.1343 -38.1229
   -38.1140 -37.8501 -37.8500 -37.7438 -37.7436   2.6312   2.8232   2.8969
     2.9717   3.1263   3.2360   3.3475   3.6640   3.7905   3.8814   4.4101
     4.7198   5.0184   5.3545   5.4873   5.6929   5.8267   5.9032   6.4131
     6.5779   6.6455   7.1879   7.2908   7.6475   7.7808   7.9103   8.2631
     8.3872   8.3936   8.4786   8.6284   8.8112   8.9068   9.0440   9.2274
    10.7739  11.2615  11.6595  12.0106  12.7589  13.7461  14.5614  16.4264

          k = 0.3889-0.2245 0.0000 (  4444 PWs)   bands (ev):

   -38.6345 -38.6235 -38.5995 -38.5762 -38.5146 -38.4277 -38.3866 -38.2800
   -38.2596 -38.2556 -38.2270 -38.1867 -38.1545 -38.1292 -38.1074 -38.0973
   -38.0953 -37.8041 -37.8040 -37.7474 -37.7470   2.5810   2.6383   2.7810
     2.9008   2.9694   3.1601   3.2058   3.5443   3.6436   3.8492   4.5109
     4.9458   5.3204   5.4017   5.5244   5.8142   5.8563   5.9438   6.4397
     6.6527   6.8217   7.1267   7.5383   7.7942   8.0748   8.2005   8.2759
     8.4328   8.4923   8.5548   8.5762   8.6993   8.7465   8.8641   8.9753
     9.1008   9.1969   9.4463   9.9823  11.4025  12.9939  14.5572  16.0875

          k =-0.5000-0.8660 0.0000 (  4492 PWs)   bands (ev):

   -38.6914 -38.6795 -38.6472 -38.6140 -38.5742 -38.3998 -38.3992 -38.2767
   -38.2716 -38.2623 -38.2618 -38.2015 -38.1677 -38.1663 -38.1511 -38.1212
   -38.1076 -37.8183 -37.8182 -37.7449 -37.7448   2.3543   2.5452   2.6052
     2.7069   2.8535   3.0151   3.0158   3.3941   3.4505   3.6926   4.4000
     4.8876   5.1471   5.2897   5.4173   5.7229   6.1754   6.2216   6.3835
     7.0750   7.1283   7.2206   7.8951   8.1614   8.3699   8.5147   8.7957
     8.8981   8.9094   9.0027   9.0116   9.0697   9.2015   9.3782   9.3858
     9.7374  10.8400  11.7491  11.9533  12.3510  12.4935  12.6280  16.0973

 ------ SPIN DOWN ----------


          k = 0.0556 0.0962 0.0000 (  4451 PWs)   bands (ev):

   -38.6532 -38.6015 -38.4191 -38.2708 -38.1813 -38.1710 -38.1499 -38.1488
   -38.1145 -38.1118 -38.0825 -38.0715 -38.0571 -38.0431 -38.0153 -37.7735
   -37.7725 -37.7411 -37.7410 -37.7094 -37.7093   1.0287   1.4905   2.2090
     2.7047   2.7248   3.0355   3.0829   4.8968   4.9282   5.1131   5.1647
     5.2618   5.3626   5.5599   5.5660   5.5954   5.6432   5.6578   5.6889
     5.7743   5.8465   5.8964   5.9647   6.0930   6.2015   6.2072   6.7567
     7.0474   7.0935   7.2770   7.3303   7.5203   7.5582   7.6753   7.7619
     8.0671   8.1062   8.6010   8.6266   8.8224   9.3788  10.3106  10.8608

          k = 0.0556 0.2245 0.0000 (  4420 PWs)   bands (ev):

   -38.6029 -38.5693 -38.4342 -38.3591 -38.3090 -38.2570 -38.2365 -38.2137
   -38.1828 -38.1814 -38.1417 -38.1170 -38.0972 -38.0698 -38.0433 -37.8674
   -37.8673 -37.7616 -37.7612 -37.7425 -37.7420   1.9424   2.3219   2.9253
     3.2730   3.3986   3.6825   3.7804   4.2129   4.4807   4.5918   4.6366
     4.8291   4.8662   5.3545   5.4699   5.6187   5.7186   5.8005   5.8369
     5.9201   6.0314   6.1850   6.2883   6.4208   6.5152   6.6416   6.7232
     6.7724   6.9234   7.0618   7.1643   7.3322   7.6277   7.7201   7.9703
     8.0971   8.5199   8.6700   8.8288   9.5545  10.7545  11.9827  12.8805

          k = 0.0556 0.3528 0.0000 (  4467 PWs)   bands (ev):

   -38.5674 -38.5468 -38.5290 -38.5095 -38.4402 -38.4067 -38.3562 -38.2691
   -38.2379 -38.2333 -38.1948 -38.1654 -38.1421 -38.0978 -38.0790 -38.0210
   -38.0203 -37.7862 -37.7861 -37.7524 -37.7522   2.7327   2.9810   3.0284
     3.1192   3.3500   3.4101   3.6430   3.8126   4.0815   4.1418   4.6318
     4.9458   5.1200   5.3528   5.5433   5.6475   5.6888   5.7760   6.0294
     6.1585   6.4459   6.5999   6.7409   6.8171   7.0384   7.3033   7.4693
     7.5291   7.7233   7.8392   7.9875   8.1020   8.2865   8.3579   8.4880
     8.4997   8.6753   8.9213   9.3199  10.6718  12.1819  13.6651  14.8708

          k = 0.0556 0.4811 0.0000 (  4463 PWs)   bands (ev):

   -38.6548 -38.6428 -38.6145 -38.5881 -38.5367 -38.4179 -38.3893 -38.2866
   -38.2771 -38.2666 -38.2331 -38.1989 -38.1762 -38.1353 -38.1257 -38.1123
   -38.1040 -37.8191 -37.8190 -37.7458 -37.7455   2.5473   2.6674   2.7743
     2.8692   2.9892   3.1566   3.1791   3.5489   3.6355   3.8112   4.4523
     4.8676   5.2078   5.3837   5.4933   5.7338   5.9230   5.9719   6.4876
     6.6647   6.8284   7.2262   7.5134   7.8543   8.0506   8.0964   8.3892
     8.4762   8.5806   8.6251   8.7214   8.7423   8.8889   8.9923   9.1524
     9.5864  10.1203  10.4504  10.7838  11.8766  13.2856  14.6386  16.3737

          k = 0.0556-0.5453 0.0000 (  4486 PWs)   bands (ev):

   -38.6832 -38.6704 -38.6382 -38.6074 -38.5658 -38.4027 -38.3949 -38.2905
   -38.2853 -38.2649 -38.2494 -38.2063 -38.1859 -38.1525 -38.1465 -38.1199
   -38.1140 -37.8268 -37.8265 -37.7445 -37.7443   2.4297   2.6166   2.6846
     2.7699   2.9268   3.0693   3.1023   3.4710   3.5403   3.7358   4.4078
     4.8377   5.1165   5.3385   5.4283   5.7449   5.9782   6.1247   6.4935
     6.8042   7.0659   7.2799   7.7136   8.0776   8.2015   8.4575   8.4918
     8.7022   8.7866   8.8730   8.9019   8.9700   9.0446   9.1496   9.2679
    10.2131  11.0043  11.7411  11.9035  12.2028  12.9178  13.4888  16.1868

          k = 0.0556-0.4170 0.0000 (  4465 PWs)   bands (ev):

   -38.6041 -38.5946 -38.5762 -38.5559 -38.4836 -38.4378 -38.3809 -38.2799
   -38.2607 -38.2546 -38.2150 -38.1850 -38.1611 -38.1140 -38.0981 -38.0813
   -38.0771 -37.8053 -37.8052 -37.7486 -37.7482   2.7370   2.7611   2.9348
     3.0297   3.0948   3.2860   3.3561   3.6716   3.8243   3.9504   4.5437
     4.9107   5.3254   5.4630   5.5695   5.6289   5.7055   5.9483   6.2568
     6.3832   6.6046   6.9959   7.1772   7.3856   7.5751   7.6891   8.0088
     8.0895   8.1342   8.2562   8.3700   8.5167   8.6251   8.7354   8.8981
     9.0255   9.2064   9.2804   9.9206  11.2900  12.8595  14.4202  15.7881

          k = 0.0556-0.2887 0.0000 (  4439 PWs)   bands (ev):

   -38.5743 -38.5534 -38.4697 -38.4349 -38.3848 -38.3279 -38.3047 -38.2489
   -38.2104 -38.2076 -38.1720 -38.1415 -38.1200 -38.0823 -38.0605 -37.9463
   -37.9457 -37.7643 -37.7641 -37.7566 -37.7562   2.4584   2.7352   3.1145
     3.2798   3.5026   3.6953   3.8989   4.0326   4.2252   4.3752   4.6159
     4.6755   4.9934   5.1298   5.4976   5.6790   5.7586   5.7922   5.9002
     6.0250   6.1063   6.2776   6.3695   6.6843   6.7211   6.8353   6.9844
     7.1648   7.2284   7.3410   7.5858   7.6959   7.8339   7.9691   8.0808
     8.2603   8.5803   8.8661   8.9321  10.0943  11.4697  12.8346  13.8972

          k = 0.0556-0.1604 0.0000 (  4443 PWs)   bands (ev):

   -38.6319 -38.5871 -38.4219 -38.3019 -38.2367 -38.2075 -38.1784 -38.1708
   -38.1561 -38.1484 -38.1043 -38.0950 -38.0726 -38.0616 -38.0278 -37.7983
   -37.7981 -37.7654 -37.7651 -37.7234 -37.7233   1.4225   1.8606   2.5528
     3.0111   3.0427   3.3553   3.4027   4.5826   4.7010   4.8692   4.9394
     5.0522   5.0896   5.4274   5.5623   5.6709   5.7297   5.7970   5.8726
     5.8785   5.9308   5.9811   6.0274   6.2113   6.2694   6.4332   6.5060
     6.8872   6.9771   7.0539   7.1232   7.3040   7.5035   7.6434   7.8665
     8.0138   8.3726   8.5694   8.8065   9.0606  10.0463  11.1262  11.8435

          k = 0.0556-0.0321 0.0000 (  4465 PWs)   bands (ev):

   -38.6648 -38.6096 -38.4197 -38.2603 -38.1512 -38.1484 -38.1403 -38.1390
   -38.0897 -38.0840 -38.0767 -38.0592 -38.0563 -38.0199 -38.0084 -37.7755
   -37.7742 -37.7132 -37.7130 -37.7021 -37.7018   0.8199   1.2898   2.0152
     2.5204   2.5548   2.8524   2.9001   5.0707   5.1144   5.2610   5.3259
     5.3790   5.4181   5.4217   5.4829   5.5105   5.6182   5.6385   5.6473
     5.7028   5.7380   5.9218   5.9791   6.0447   6.0586   6.3062   7.1510
     7.1856   7.2579   7.3626   7.3722   7.5200   7.5584   7.8088   7.9224
     8.1514   8.2633   8.2684   8.6710   8.8381   8.8656   9.6761  10.1114

          k = 0.1667 0.2887 0.0000 (  4425 PWs)   bands (ev):

   -38.5529 -38.5477 -38.4869 -38.4632 -38.4226 -38.3689 -38.3345 -38.2684
   -38.2364 -38.2356 -38.1777 -38.1722 -38.1477 -38.1149 -38.0734 -37.9777
   -37.9776 -37.7971 -37.7970 -37.7530 -37.7525   2.9278   3.0721   3.3543
     3.6876   3.8684   3.8854   3.9902   4.0486   4.0635   4.2602   4.3853
     4.5353   4.9861   5.0255   5.1060   5.3125   5.4870   5.4870   5.5147
     5.6521   6.2084   6.2426   6.4606   6.5533   6.6716   7.1051   7.1554
     7.3106   7.5555   7.7290   7.9573   8.1875   8.3222   8.4424   8.4577
     8.5685   8.6340   8.7276   9.4174  10.6485  12.0353  13.4351  14.5793

          k = 0.1667 0.4170 0.0000 (  4459 PWs)   bands (ev):

   -38.5897 -38.5786 -38.5613 -38.5402 -38.4797 -38.4477 -38.3851 -38.3111
   -38.3079 -38.2815 -38.2288 -38.2201 -38.2015 -38.1606 -38.1040 -38.0731
   -38.0719 -37.8592 -37.8591 -37.7455 -37.7453   3.0991   3.1661   3.2982
     3.4497   3.5077   3.5719   3.8034   3.8892   4.1093   4.2907   4.5515
     4.6635   4.9088   5.0865   5.1839   5.4241   5.5240   5.8878   5.9646
     6.1272   6.2050   6.4453   6.5688   6.8433   7.1368   7.2835   7.4165
     7.6344   7.7716   8.0149   8.4979   8.7837   8.8777   8.9464   9.1214
    10.1815  10.3284  10.5470  11.1710  12.2910  13.6831  15.1307  16.4183

          k = 0.1667 0.5453 0.0000 (  4490 PWs)   bands (ev):

   -38.6458 -38.6339 -38.5998 -38.5753 -38.5326 -38.4097 -38.3907 -38.3602
   -38.3443 -38.2999 -38.2623 -38.2425 -38.2276 -38.1708 -38.1308 -38.1182
   -38.1174 -37.8931 -37.8929 -37.7415 -37.7414   2.7930   3.0825   3.0908
     3.2214   3.3645   3.4519   3.6023   3.8460   4.0381   4.0876   4.4293
     4.5315   4.7778   5.1596   5.4748   5.6441   5.7254   5.9366   6.1963
     6.3169   6.5460   6.8223   7.1969   7.2467   7.3477   7.7268   8.0215
     8.1677   8.2945   8.4129   8.5925   8.7200   8.8084   9.0029   9.1308
    12.0406  12.4640  12.8854  13.2864  13.7908  14.2693  14.5194  16.4955

          k = 0.1667-0.4811 0.0000 (  4476 PWs)   bands (ev):

   -38.6255 -38.6137 -38.5863 -38.5622 -38.5146 -38.4260 -38.3895 -38.3413
   -38.3317 -38.2917 -38.2477 -38.2411 -38.2161 -38.1690 -38.1199 -38.1033
   -38.1016 -37.8814 -37.8811 -37.7429 -37.7427   2.9016   3.1136   3.1587
     3.3235   3.4051   3.4941   3.6721   3.8816   4.0436   4.1774   4.4466
     4.6345   4.8900   5.0345   5.4464   5.5245   5.7550   5.9502   6.0495
     6.1653   6.5276   6.6764   6.9337   7.0697   7.1971   7.6192   7.8172
     7.8368   7.9873   8.1436   8.5531   8.8399   8.8946   9.0502   9.2191
    11.1479  11.4121  11.7300  12.3041  13.2445  14.4232  15.5653  16.7465

          k = 0.1667-0.3528 0.0000 (  4458 PWs)   bands (ev):

   -38.5567 -38.5465 -38.5270 -38.5105 -38.4574 -38.4301 -38.3690 -38.2831
   -38.2732 -38.2676 -38.2042 -38.1890 -38.1834 -38.1426 -38.0880 -38.0302
   -38.0298 -37.8298 -37.8297 -37.7493 -37.7491   3.1901   3.2869   3.3820
     3.5194   3.6379   3.7347   3.8515   3.9958   4.2348   4.2985   4.4615
     4.6678   4.8502   4.9615   5.2222   5.3316   5.3770   5.5951   5.7897
     5.8687   6.1236   6.1710   6.4512   6.7296   6.8889   7.0566   7.3282
     7.4834   7.6959   7.8730   8.3483   8.5396   8.6525   8.6805   8.8959
     9.2892   9.3554   9.4863  10.1502  11.3829  12.8161  14.2682  15.4981

          k = 0.1667-0.2245 0.0000 (  4433 PWs)   bands (ev):

   -38.5783 -38.5566 -38.4549 -38.4092 -38.3651 -38.3054 -38.2893 -38.2470
   -38.2055 -38.2037 -38.1649 -38.1405 -38.1195 -38.0854 -38.0606 -37.9215
   -37.9213 -37.7671 -37.7670 -37.7572 -37.7567   2.4111   2.7118   3.2032
     3.5595   3.6810   3.8346   3.9688   4.1396   4.2712   4.3186   4.4854
     4.6602   4.7889   5.0979   5.2827   5.4366   5.5152   5.6245   5.7400
     5.8207   6.0689   6.2300   6.5164   6.5763   6.6030   6.8276   6.9120
     7.1726   7.1872   7.2737   7.5902   7.6931   7.8847   8.0381   8.0512
     8.1576   8.4745   8.6950   8.9652  10.0596  11.3502  12.6664  13.6945

          k = 0.1667-0.0962 0.0000 (  4427 PWs)   bands (ev):

   -38.6224 -38.5808 -38.4248 -38.3214 -38.2642 -38.2248 -38.1933 -38.1777
   -38.1712 -38.1692 -38.1105 -38.1053 -38.0833 -38.0652 -38.0297 -37.8236
   -37.8235 -37.7645 -37.7640 -37.7281 -37.7279   1.6008   2.0209   2.6842
     3.0853   3.1737   3.4736   3.5441   4.3968   4.6590   4.7757   4.8241
     4.9816   4.9974   5.5051   5.5537   5.6908   5.7676   5.8102   5.9080
     5.9753   6.0080   6.0959   6.1092   6.1416   6.3309   6.4441   6.6067
     6.7102   6.9201   6.9622   7.1510   7.2864   7.5122   7.6010   7.8711
     8.1803   8.2881   8.7057   8.9180   9.1426  10.2867  11.4384  12.2235

          k = 0.2778 0.4811 0.0000 (  4485 PWs)   bands (ev):

   -38.5883 -38.5852 -38.5544 -38.5419 -38.4835 -38.4684 -38.4339 -38.3877
   -38.3637 -38.3367 -38.2980 -38.2848 -38.2062 -38.2038 -38.1323 -38.0815
   -38.0813 -37.9522 -37.9521 -37.7404 -37.7400   3.3178   3.3393   3.4952
     3.5713   3.8157   3.9513   4.1036   4.1560   4.2370   4.3166   4.3971
     4.4787   4.8118   4.9600   5.1300   5.3337   5.5971   5.6915   6.0245
     6.0355   6.2508   6.2509   6.7495   6.8645   7.0136   7.2554   7.4153
     7.4829   7.8189   8.1692   8.5389   8.8049   8.8430   8.9077   9.1137
    12.4959  12.7253  13.1889  13.8737  14.8051  15.9058  16.8283  16.9399

          k = 0.2778 0.6094 0.0000 (  4491 PWs)   bands (ev):

   -38.5811 -38.5723 -38.5404 -38.5354 -38.5000 -38.4749 -38.4457 -38.4154
   -38.3857 -38.3630 -38.3059 -38.3005 -38.2103 -38.1992 -38.1441 -38.0734
   -38.0732 -37.9844 -37.9842 -37.7390 -37.7386   3.2908   3.5225   3.5645
     3.7130   3.8282   3.9742   4.0293   4.0871   4.1718   4.3384   4.3942
     4.5601   4.7080   5.0885   5.1906   5.4125   5.5415   5.6832   5.9415
     5.9962   6.2930   6.3147   6.7205   6.9249   7.1031   7.2518   7.4544
     7.5208   8.1148   8.3277   8.4755   8.6315   8.6997   8.7479   8.8911
    13.7080  14.0044  14.4657  14.9081  15.2948  15.7636  16.2963  16.5145

          k = 0.2778-0.4170 0.0000 (  4462 PWs)   bands (ev):

   -38.5952 -38.5868 -38.5633 -38.5418 -38.4917 -38.4500 -38.4028 -38.3498
   -38.3432 -38.3052 -38.2686 -38.2531 -38.2069 -38.1916 -38.1168 -38.0829
   -38.0824 -37.9067 -37.9066 -37.7423 -37.7421   3.1786   3.3125   3.3929
     3.5348   3.6655   3.7593   3.9255   4.1293   4.2382   4.2945   4.5225
     4.6875   4.7484   4.8498   5.1900   5.2648   5.5837   5.7781   6.0173
     6.0908   6.2455   6.3212   6.5449   6.8402   7.0526   7.2728   7.4432
     7.5639   7.6682   8.0262   8.5434   8.9027   8.9293   9.0274   9.2180
    11.3226  11.4713  11.8289  12.4842  13.4994  14.7660  16.0930  17.2527

          k = 0.2778-0.2887 0.0000 (  4463 PWs)   bands (ev):

   -38.5744 -38.5628 -38.5496 -38.5320 -38.4554 -38.4432 -38.3735 -38.2806
   -38.2699 -38.2611 -38.2026 -38.1894 -38.1785 -38.1214 -38.0935 -38.0521
   -38.0508 -37.8175 -37.8172 -37.7489 -37.7487   2.9471   3.0605   3.1951
     3.2377   3.3569   3.4780   3.6209   3.8538   4.0495   4.1904   4.5399
     4.7811   5.1309   5.1712   5.3943   5.5279   5.6241   5.8014   5.9808
     6.1425   6.3469   6.5673   6.6921   6.8243   7.1251   7.3356   7.4793
     7.5789   7.8271   8.1285   8.3706   8.4657   8.6569   8.6744   8.9297
     9.1402   9.3227   9.4025  10.0591  11.3321  12.8197  14.3179  15.5905

          k = 0.2778-0.1604 0.0000 (  4458 PWs)   bands (ev):

   -38.5692 -38.5478 -38.4972 -38.4728 -38.4134 -38.3646 -38.3309 -38.2582
   -38.2187 -38.2157 -38.1856 -38.1491 -38.1213 -38.0895 -38.0644 -37.9831
   -37.9827 -37.7688 -37.7687 -37.7552 -37.7548   2.5644   2.8180   3.0285
     3.1286   3.3956   3.5071   3.7691   3.8498   4.1083   4.2655   4.6800
     4.9229   5.1452   5.3226   5.5518   5.6865   5.7700   5.8401   6.0149
     6.1543   6.4207   6.5147   6.5537   6.7197   6.8497   7.0722   7.2741
     7.3352   7.4210   7.4783   7.6566   7.8349   7.8727   7.9617   8.1069
     8.3291   8.7460   8.9196   8.9847  10.2689  11.7398  13.1700  14.2966

          k = 0.3889 0.6736 0.0000 (  4511 PWs)   bands (ev):

   -38.6175 -38.6053 -38.5701 -38.5537 -38.5105 -38.4318 -38.4271 -38.3801
   -38.3790 -38.3349 -38.2925 -38.2772 -38.2212 -38.1880 -38.1378 -38.0995
   -38.0992 -37.9426 -37.9423 -37.7400 -37.7398   3.0176   3.3075   3.3984
     3.5919   3.6182   3.7714   3.7889   4.0608   4.1598   4.2388   4.4797
     4.5119   4.6926   4.9291   5.3047   5.4840   5.7231   5.9074   5.9305
     6.2660   6.3407   6.7255   6.7302   6.8141   7.1605   7.4905   7.7195
     7.8532   8.2692   8.3894   8.4601   8.6358   8.7144   8.9256   8.9312
    13.2387  13.5399  13.8462  14.1499  14.5099  14.9237  15.2566  16.6369

          k = 0.3889-0.3528 0.0000 (  4485 PWs)   bands (ev):

   -38.6590 -38.6467 -38.6154 -38.5880 -38.5434 -38.4091 -38.3891 -38.3175
   -38.3084 -38.2742 -38.2410 -38.2162 -38.2128 -38.1454 -38.1343 -38.1229
   -38.1140 -37.8501 -37.8500 -37.7438 -37.7436   2.6312   2.8232   2.8969
     2.9717   3.1263   3.2360   3.3475   3.6640   3.7905   3.8814   4.4101
     4.7198   5.0184   5.3545   5.4873   5.6929   5.8267   5.9032   6.4131
     6.5779   6.6455   7.1879   7.2908   7.6475   7.7808   7.9103   8.2631
     8.3872   8.3936   8.4786   8.6284   8.8112   8.9068   9.0440   9.2274
    10.7739  11.2615  11.6595  12.0106  12.7589  13.7461  14.5614  16.4265

          k = 0.3889-0.2245 0.0000 (  4444 PWs)   bands (ev):

   -38.6345 -38.6235 -38.5995 -38.5762 -38.5146 -38.4277 -38.3866 -38.2800
   -38.2596 -38.2556 -38.2270 -38.1867 -38.1545 -38.1292 -38.1074 -38.0973
   -38.0953 -37.8041 -37.8040 -37.7474 -37.7470   2.5810   2.6383   2.7810
     2.9008   2.9694   3.1601   3.2058   3.5443   3.6436   3.8492   4.5109
     4.9458   5.3204   5.4017   5.5244   5.8142   5.8563   5.9438   6.4397
     6.6527   6.8217   7.1267   7.5383   7.7942   8.0748   8.2005   8.2759
     8.4328   8.4923   8.5548   8.5762   8.6993   8.7465   8.8641   8.9753
     9.1008   9.1969   9.4463   9.9823  11.4025  12.9939  14.5572  16.0875

          k =-0.5000-0.8660 0.0000 (  4492 PWs)   bands (ev):

   -38.6914 -38.6795 -38.6472 -38.6140 -38.5742 -38.3998 -38.3992 -38.2767
   -38.2716 -38.2623 -38.2618 -38.2015 -38.1677 -38.1663 -38.1511 -38.1212
   -38.1076 -37.8183 -37.8182 -37.7449 -37.7448   2.3543   2.5452   2.6052
     2.7069   2.8535   3.0151   3.0158   3.3941   3.4505   3.6926   4.4000
     4.8876   5.1471   5.2897   5.4173   5.7229   6.1754   6.2216   6.3835
     7.0750   7.1283   7.2206   7.8951   8.1614   8.3699   8.5147   8.7957
     8.8981   8.9094   9.0027   9.0116   9.0697   9.2015   9.3782   9.3858
     9.7374  10.8400  11.7491  11.9533  12.3510  12.4935  12.6280  16.0973

     the Fermi energy is     8.3533 ev

!    total energy              =   -1198.23269006 Ry
     estimated scf accuracy    <          6.4E-09 Ry
     smearing contrib. (-TS)   =      -0.03006645 Ry
     internal energy E=F+TS    =   -1198.20262361 Ry

     The total energy is F=E-TS. E is the sum of the following terms:
     one-electron contribution =  -13543.39153112 Ry
     hartree contribution      =    6817.46375435 Ry
     xc contribution           =    -209.38364871 Ry
     ewald contribution        =    5737.10880186 Ry

     total magnetization       =     0.00 Bohr mag/cell
     absolute magnetization    =     0.00 Bohr mag/cell

     convergence has been achieved in  13 iterations

     negative rho (up, down):  1.949E-01 1.949E-01

     Forces acting on atoms (cartesian axes, Ry/au):

     atom    1 type  1   force =     0.00000000    0.00000000    0.00063004
     atom    2 type  1   force =     0.00000000    0.00000000   -0.00114819
     atom    3 type  1   force =     0.00000000    0.00000000    0.00181693
     atom    4 type  1   force =     0.00000000    0.00000000    0.00001592
     atom    5 type  1   force =     0.00000000    0.00000000   -0.00182178
     atom    6 type  1   force =     0.00000000    0.00000000    0.00111598
     atom    7 type  1   force =     0.00000000    0.00000000   -0.00060890

     Total force =     0.003155     Total SCF correction =     0.000424
     SCF correction compared to forces is large: reduce conv_thr to get better values
     Energy error            =      1.6E-05
     Gradient error          =      1.8E-03

     number of scf cycles    =  10
     number of bfgs steps    =   9

     energy   old            =   -1198.2326745460 Ry
     energy   new            =   -1198.2326900599 Ry

     CASE: energy  _new < energy  _old

     new trust radius        =       0.0069927370 bohr
     new conv_thr            =       0.0000001000 Ry


ATOMIC_POSITIONS (angstrom)
Rh            0.0000000000        0.0000000000        0.0475534540
Rh            2.7108568000        1.5651139000        2.2205398325
Rh            1.3554284000        0.7825569000        4.4167697363
Rh            0.0000000000        0.0000000000        6.6401859943
Rh            2.7108568000        1.5651139000        8.8636594647
Rh            1.3554284000        0.7825569000       11.0599256066
Rh            0.0000000000        0.0000000000       13.2328770117



     Writing output data file /home/STUDENTI/leonardo.razzai/WORK/relax_surf/7-L.save/
     NEW-OLD atomic charge density approx. for the potential

     negative rho (up, down):  1.943E-01 1.943E-01
     Generating pointlists ...

     total cpu time spent up to now is     1852.1 secs

     Self-consistent Calculation

     iteration #  1     ecut=    35.00 Ry     beta= 0.40
     Davidson diagonalization with overlap
     ethr =  1.00E-06,  avg # of iterations =  5.8

     negative rho (up, down):  1.943E-01 1.943E-01

     total cpu time spent up to now is     1886.9 secs

     total energy              =   -1198.23075368 Ry
     estimated scf accuracy    <       0.11211556 Ry

     total magnetization       =    -0.00 Bohr mag/cell
     absolute magnetization    =     0.00 Bohr mag/cell

     iteration #  2     ecut=    35.00 Ry     beta= 0.40
     Davidson diagonalization with overlap
     ethr =  1.07E-04,  avg # of iterations =  1.0

     negative rho (up, down):  1.943E-01 1.943E-01

     total cpu time spent up to now is     1903.0 secs

     total energy              =   -1198.23202007 Ry
     estimated scf accuracy    <       0.06103506 Ry

     total magnetization       =     0.00 Bohr mag/cell
     absolute magnetization    =     0.00 Bohr mag/cell

     iteration #  3     ecut=    35.00 Ry     beta= 0.40
     Davidson diagonalization with overlap
     ethr =  5.81E-05,  avg # of iterations =  1.0

     negative rho (up, down):  1.943E-01 1.943E-01

     total cpu time spent up to now is     1918.8 secs

     total energy              =   -1198.23268640 Ry
     estimated scf accuracy    <       0.00278780 Ry

     total magnetization       =     0.00 Bohr mag/cell
     absolute magnetization    =     0.00 Bohr mag/cell

     iteration #  4     ecut=    35.00 Ry     beta= 0.40
     Davidson diagonalization with overlap
     ethr =  2.66E-06,  avg # of iterations =  1.1

     negative rho (up, down):  1.943E-01 1.943E-01

     total cpu time spent up to now is     1935.3 secs

     total energy              =   -1198.23269696 Ry
     estimated scf accuracy    <       0.00057506 Ry

     total magnetization       =    -0.00 Bohr mag/cell
     absolute magnetization    =     0.00 Bohr mag/cell

     iteration #  5     ecut=    35.00 Ry     beta= 0.40
     Davidson diagonalization with overlap
     ethr =  5.48E-07,  avg # of iterations =  1.3

     negative rho (up, down):  1.943E-01 1.943E-01

     total cpu time spent up to now is     1951.2 secs

     total energy              =   -1198.23270118 Ry
     estimated scf accuracy    <       0.00002338 Ry

     total magnetization       =    -0.00 Bohr mag/cell
     absolute magnetization    =     0.00 Bohr mag/cell

     iteration #  6     ecut=    35.00 Ry     beta= 0.40
     Davidson diagonalization with overlap
     ethr =  2.23E-08,  avg # of iterations =  1.0

     negative rho (up, down):  1.943E-01 1.943E-01

     total cpu time spent up to now is     1967.3 secs

     total energy              =   -1198.23270090 Ry
     estimated scf accuracy    <       0.00000523 Ry

     total magnetization       =    -0.00 Bohr mag/cell
     absolute magnetization    =     0.00 Bohr mag/cell

     iteration #  7     ecut=    35.00 Ry     beta= 0.40
     Davidson diagonalization with overlap
     ethr =  4.98E-09,  avg # of iterations =  1.1
MPI startup(): shm:dapl fabric is unknown or has been removed from the product, please use ofi or shm:ofi instead.

     Program PWSCF v.6.7MaX starts on  5Apr2023 at 18:28:19 

     This program is part of the open-source Quantum ESPRESSO suite
     for quantum simulation of materials; please cite
         "P. Giannozzi et al., J. Phys.:Condens. Matter 21 395502 (2009);
         "P. Giannozzi et al., J. Phys.:Condens. Matter 29 465901 (2017);
          URL http://www.quantum-espresso.org", 
     in publications or presentations arising from this work. More details at
     http://www.quantum-espresso.org/quote

     Parallel version (MPI), running on     8 processors

     MPI processes distributed on     1 nodes
     R & G space division:  proc/nbgrp/npool/nimage =       8
     Reading input from n_layers7.pwi

     Current dimensions of program PWSCF are:
     Max number of different atomic species (ntypx) = 10
     Max number of k-points (npk) =  40000
     Max angular momentum in pseudopotentials (lmaxx) =  3


 %%%%%%%%%%%%%%%%%%%%%%%%%%%%%%%%%%%%%%%%%%%%%%%%%%%%%%%%%%%%%%%%%%%%%%%%%%%%%%
     Error in routine check_tempdir (1):
     temporary directory /home/STUDENTI/leonardo.razzai/WORK/relax_surf/ cannot be created or accessed
 %%%%%%%%%%%%%%%%%%%%%%%%%%%%%%%%%%%%%%%%%%%%%%%%%%%%%%%%%%%%%%%%%%%%%%%%%%%%%%

 %%%%%%%%%%%%%%%%%%%%%%%%%%%%%%%%%%%%%%%%%%%%%%%%%%%%%%%%%%%%%%%%%%%%%%%%%%%%%%
     Error in routine check_tempdir (1):
     temporary directory /home/STUDENTI/leonardo.razzai/WORK/relax_surf/ cannot be created or accessed
 %%%%%%%%%%%%%%%%%%%%%%%%%%%%%%%%%%%%%%%%%%%%%%%%%%%%%%%%%%%%%%%%%%%%%%%%%%%%%%

     stopping ...

 %%%%%%%%%%%%%%%%%%%%%%%%%%%%%%%%%%%%%%%%%%%%%%%%%%%%%%%%%%%%%%%%%%%%%%%%%%%%%%
     Error in routine check_tempdir (1):
     temporary directory /home/STUDENTI/leonardo.razzai/WORK/relax_surf/ cannot be created or accessed
 %%%%%%%%%%%%%%%%%%%%%%%%%%%%%%%%%%%%%%%%%%%%%%%%%%%%%%%%%%%%%%%%%%%%%%%%%%%%%%

     stopping ...

 %%%%%%%%%%%%%%%%%%%%%%%%%%%%%%%%%%%%%%%%%%%%%%%%%%%%%%%%%%%%%%%%%%%%%%%%%%%%%%
     Error in routine check_tempdir (1):
     temporary directory /home/STUDENTI/leonardo.razzai/WORK/relax_surf/ cannot be created or accessed
 %%%%%%%%%%%%%%%%%%%%%%%%%%%%%%%%%%%%%%%%%%%%%%%%%%%%%%%%%%%%%%%%%%%%%%%%%%%%%%

     stopping ...

 %%%%%%%%%%%%%%%%%%%%%%%%%%%%%%%%%%%%%%%%%%%%%%%%%%%%%%%%%%%%%%%%%%%%%%%%%%%%%%
     Error in routine check_tempdir (1):
     temporary directory /home/STUDENTI/leonardo.razzai/WORK/relax_surf/ cannot be created or accessed
 %%%%%%%%%%%%%%%%%%%%%%%%%%%%%%%%%%%%%%%%%%%%%%%%%%%%%%%%%%%%%%%%%%%%%%%%%%%%%%

     stopping ...

 %%%%%%%%%%%%%%%%%%%%%%%%%%%%%%%%%%%%%%%%%%%%%%%%%%%%%%%%%%%%%%%%%%%%%%%%%%%%%%
     Error in routine check_tempdir (1):
     temporary directory /home/STUDENTI/leonardo.razzai/WORK/relax_surf/ cannot be created or accessed
 %%%%%%%%%%%%%%%%%%%%%%%%%%%%%%%%%%%%%%%%%%%%%%%%%%%%%%%%%%%%%%%%%%%%%%%%%%%%%%

     stopping ...

     stopping ...

 %%%%%%%%%%%%%%%%%%%%%%%%%%%%%%%%%%%%%%%%%%%%%%%%%%%%%%%%%%%%%%%%%%%%%%%%%%%%%%
     Error in routine check_tempdir (1):
     temporary directory /home/STUDENTI/leonardo.razzai/WORK/relax_surf/ cannot be created or accessed
 %%%%%%%%%%%%%%%%%%%%%%%%%%%%%%%%%%%%%%%%%%%%%%%%%%%%%%%%%%%%%%%%%%%%%%%%%%%%%%

     stopping ...
 %%%%%%%%%%%%%%%%%%%%%%%%%%%%%%%%%%%%%%%%%%%%%%%%%%%%%%%%%%%%%%%%%%%%%%%%%%%%%%
     Error in routine check_tempdir (1):
     temporary directory /home/STUDENTI/leonardo.razzai/WORK/relax_surf/ cannot be created or accessed
 %%%%%%%%%%%%%%%%%%%%%%%%%%%%%%%%%%%%%%%%%%%%%%%%%%%%%%%%%%%%%%%%%%%%%%%%%%%%%%

     stopping ...
MPI startup(): shm:dapl fabric is unknown or has been removed from the product, please use ofi or shm:ofi instead.

     Program PWSCF v.6.7MaX starts on  5Apr2023 at 18:33:41 

     This program is part of the open-source Quantum ESPRESSO suite
     for quantum simulation of materials; please cite
         "P. Giannozzi et al., J. Phys.:Condens. Matter 21 395502 (2009);
         "P. Giannozzi et al., J. Phys.:Condens. Matter 29 465901 (2017);
          URL http://www.quantum-espresso.org", 
     in publications or presentations arising from this work. More details at
     http://www.quantum-espresso.org/quote

     Parallel version (MPI), running on     8 processors

     MPI processes distributed on     1 nodes
     R & G space division:  proc/nbgrp/npool/nimage =       8
     Reading input from n_layers7.pwi

     Current dimensions of program PWSCF are:
     Max number of different atomic species (ntypx) = 10
     Max number of k-points (npk) =  40000
     Max angular momentum in pseudopotentials (lmaxx) =  3


 %%%%%%%%%%%%%%%%%%%%%%%%%%%%%%%%%%%%%%%%%%%%%%%%%%%%%%%%%%%%%%%%%%%%%%%%%%%%%%
     Error in routine check_tempdir (1):
     temporary directory /home/STUDENTI/leonardo.razzai/WORK/surf_111/ cannot be created or accessed

 %%%%%%%%%%%%%%%%%%%%%%%%%%%%%%%%%%%%%%%%%%%%%%%%%%%%%%%%%%%%%%%%%%%%%%%%%%%%%%
     Error in routine check_tempdir (1):
     temporary directory /home/STUDENTI/leonardo.razzai/WORK/surf_111/ cannot be created or accessed
 %%%%%%%%%%%%%%%%%%%%%%%%%%%%%%%%%%%%%%%%%%%%%%%%%%%%%%%%%%%%%%%%%%%%%%%%%%%%%%

     stopping ...

 %%%%%%%%%%%%%%%%%%%%%%%%%%%%%%%%%%%%%%%%%%%%%%%%%%%%%%%%%%%%%%%%%%%%%%%%%%%%%%
     Error in routine check_tempdir (1):
     temporary directory /home/STUDENTI/leonardo.razzai/WORK/surf_111/ cannot be created or accessed
 %%%%%%%%%%%%%%%%%%%%%%%%%%%%%%%%%%%%%%%%%%%%%%%%%%%%%%%%%%%%%%%%%%%%%%%%%%%%%%

     stopping ...

 %%%%%%%%%%%%%%%%%%%%%%%%%%%%%%%%%%%%%%%%%%%%%%%%%%%%%%%%%%%%%%%%%%%%%%%%%%%%%%
     Error in routine check_tempdir (1):
     temporary directory /home/STUDENTI/leonardo.razzai/WORK/surf_111/ cannot be created or accessed
 %%%%%%%%%%%%%%%%%%%%%%%%%%%%%%%%%%%%%%%%%%%%%%%%%%%%%%%%%%%%%%%%%%%%%%%%%%%%%%

     stopping ...

 %%%%%%%%%%%%%%%%%%%%%%%%%%%%%%%%%%%%%%%%%%%%%%%%%%%%%%%%%%%%%%%%%%%%%%%%%%%%%%
     Error in routine check_tempdir (1):
     temporary directory /home/STUDENTI/leonardo.razzai/WORK/surf_111/ cannot be created or accessed
 %%%%%%%%%%%%%%%%%%%%%%%%%%%%%%%%%%%%%%%%%%%%%%%%%%%%%%%%%%%%%%%%%%%%%%%%%%%%%%

     stopping ...

 %%%%%%%%%%%%%%%%%%%%%%%%%%%%%%%%%%%%%%%%%%%%%%%%%%%%%%%%%%%%%%%%%%%%%%%%%%%%%%
     Error in routine check_tempdir (1):
     temporary directory /home/STUDENTI/leonardo.razzai/WORK/surf_111/ cannot be created or accessed
 %%%%%%%%%%%%%%%%%%%%%%%%%%%%%%%%%%%%%%%%%%%%%%%%%%%%%%%%%%%%%%%%%%%%%%%%%%%%%%

     stopping ...
 %%%%%%%%%%%%%%%%%%%%%%%%%%%%%%%%%%%%%%%%%%%%%%%%%%%%%%%%%%%%%%%%%%%%%%%%%%%%%%

     stopping ...

 %%%%%%%%%%%%%%%%%%%%%%%%%%%%%%%%%%%%%%%%%%%%%%%%%%%%%%%%%%%%%%%%%%%%%%%%%%%%%%
     Error in routine check_tempdir (1):
     temporary directory /home/STUDENTI/leonardo.razzai/WORK/surf_111/ cannot be created or accessed
 %%%%%%%%%%%%%%%%%%%%%%%%%%%%%%%%%%%%%%%%%%%%%%%%%%%%%%%%%%%%%%%%%%%%%%%%%%%%%%

     stopping ...
 %%%%%%%%%%%%%%%%%%%%%%%%%%%%%%%%%%%%%%%%%%%%%%%%%%%%%%%%%%%%%%%%%%%%%%%%%%%%%%
     Error in routine check_tempdir (1):
     temporary directory /home/STUDENTI/leonardo.razzai/WORK/surf_111/ cannot be created or accessed
 %%%%%%%%%%%%%%%%%%%%%%%%%%%%%%%%%%%%%%%%%%%%%%%%%%%%%%%%%%%%%%%%%%%%%%%%%%%%%%

     stopping ...
MPI startup(): shm:dapl fabric is unknown or has been removed from the product, please use ofi or shm:ofi instead.

     Program PWSCF v.6.7MaX starts on  5Apr2023 at 19:41:41 

     This program is part of the open-source Quantum ESPRESSO suite
     for quantum simulation of materials; please cite
         "P. Giannozzi et al., J. Phys.:Condens. Matter 21 395502 (2009);
         "P. Giannozzi et al., J. Phys.:Condens. Matter 29 465901 (2017);
          URL http://www.quantum-espresso.org", 
     in publications or presentations arising from this work. More details at
     http://www.quantum-espresso.org/quote

     Parallel version (MPI), running on     8 processors

     MPI processes distributed on     1 nodes
     R & G space division:  proc/nbgrp/npool/nimage =       8
     Reading input from n_layers7.pwi

     Current dimensions of program PWSCF are:
     Max number of different atomic species (ntypx) = 10
     Max number of k-points (npk) =  40000
     Max angular momentum in pseudopotentials (lmaxx) =  3

     File /home/STUDENTI/leonardo.razzai/Rh_work/surf_111/7-L.update deleted, as requested

     File /home/STUDENTI/leonardo.razzai/Rh_work/surf_111/7-L.bfgs deleted, as requested

     Subspace diagonalization in iterative solution of the eigenvalue problem:
     a serial algorithm will be used

 
     Parallelization info
     --------------------
     sticks:   dense  smooth     PW     G-vecs:    dense   smooth      PW
     Min          63      31     11                12632     4451     972
     Max          65      32     12                12645     4494     987
     Sum         511     253     91               101117    35839    7825
 


     bravais-lattice index     =            4
     lattice parameter (alat)  =       5.1228  a.u.
     unit-cell volume          =    1276.0194 (a.u.)^3
     number of atoms/cell      =            7
     number of atomic types    =            1
     number of electrons       =       105.00
     number of Kohn-Sham states=           64
     kinetic-energy cutoff     =      35.0000  Ry
     charge density cutoff     =     280.0000  Ry
     scf convergence threshold =      1.0E-06
     mixing beta               =       0.4000
     number of iterations used =            8  local-TF  mixing
     energy convergence thresh.=      1.0E-04
     force convergence thresh. =      1.0E-03
     Exchange-correlation=  SLA  PW   PBX  PBC
                           (   1   4   3   4   0   0   0)
     nstep                     =           50


     celldm(1)=   5.122776  celldm(2)=   0.000000  celldm(3)=  10.960000
     celldm(4)=   0.000000  celldm(5)=   0.000000  celldm(6)=   0.000000

     crystal axes: (cart. coord. in units of alat)
               a(1) = (   1.000000   0.000000   0.000000 )  
               a(2) = (  -0.500000   0.866025   0.000000 )  
               a(3) = (   0.000000   0.000000  10.960000 )  

     reciprocal axes: (cart. coord. in units 2 pi/alat)
               b(1) = (  1.000000  0.577350  0.000000 )  
               b(2) = (  0.000000  1.154701  0.000000 )  
               b(3) = (  0.000000  0.000000  0.091241 )  


     PseudoPot. # 1 for Rh read from file:
     /home/software/materia/pseudo/rh_pbe_v1.4.uspp.F.UPF
     MD5 check sum: 761627e959a2e3a1f56b0b5fe687810e
     Pseudo is Ultrasoft + core correction, Zval = 15.0
     Generated by new atomic code, or converted to UPF format
     Using radial grid of  969 points,  7 beta functions with: 
                l(1) =   0
                l(2) =   0
                l(3) =   1
                l(4) =   1
                l(5) =   2
                l(6) =   2
                l(7) =   2
     Q(r) pseudized with  8 coefficients,  rinner =    1.200   1.200   1.200
                                                       1.200   1.200

     atomic species   valence    mass     pseudopotential
        Rh            15.00   102.90500     Rh( 1.00)

     Starting magnetic structure 
     atomic species   magnetization
        Rh           0.010

      6 Sym. Ops. (no inversion) found



   Cartesian axes

     site n.     atom                  positions (alat units)
         1           Rh  tau(   1) = (   0.0000000   0.0000000   0.0000000  )
         2           Rh  tau(   2) = (   0.5000001  -0.2886752   0.8164967  )
         3           Rh  tau(   3) = (   0.5000001   0.2886752   1.6329934  )
         4           Rh  tau(   4) = (   0.0000000   0.0000000   2.4494902  )
         5           Rh  tau(   5) = (   0.5000001  -0.2886752   3.2659869  )
         6           Rh  tau(   6) = (   0.5000001   0.2886752   4.0824836  )
         7           Rh  tau(   7) = (   0.0000000   0.0000000   4.8989803  )

     number of k points=    25  Gaussian smearing, width (Ry)=  0.0200
                       cart. coord. in units 2pi/alat
        k(    1) = (   0.0555556   0.0962250   0.0000000), wk =   0.0246914
        k(    2) = (   0.0555556   0.2245251   0.0000000), wk =   0.0493827
        k(    3) = (   0.0555556   0.3528252   0.0000000), wk =   0.0493827
        k(    4) = (   0.0555556   0.4811252   0.0000000), wk =   0.0493827
        k(    5) = (   0.0555556  -0.5452753   0.0000000), wk =   0.0493827
        k(    6) = (   0.0555556  -0.4169752   0.0000000), wk =   0.0493827
        k(    7) = (   0.0555556  -0.2886751   0.0000000), wk =   0.0493827
        k(    8) = (   0.0555556  -0.1603751   0.0000000), wk =   0.0493827
        k(    9) = (   0.0555556  -0.0320750   0.0000000), wk =   0.0246914
        k(   10) = (   0.1666667   0.2886751   0.0000000), wk =   0.0246914
        k(   11) = (   0.1666667   0.4169752   0.0000000), wk =   0.0493827
        k(   12) = (   0.1666667   0.5452753   0.0000000), wk =   0.0493827
        k(   13) = (   0.1666667  -0.4811252   0.0000000), wk =   0.0493827
        k(   14) = (   0.1666667  -0.3528252   0.0000000), wk =   0.0493827
        k(   15) = (   0.1666667  -0.2245251   0.0000000), wk =   0.0493827
        k(   16) = (   0.1666667  -0.0962250   0.0000000), wk =   0.0246914
        k(   17) = (   0.2777778   0.4811252   0.0000000), wk =   0.0246914
        k(   18) = (   0.2777778   0.6094253   0.0000000), wk =   0.0493827
        k(   19) = (   0.2777778  -0.4169752   0.0000000), wk =   0.0493827
        k(   20) = (   0.2777778  -0.2886751   0.0000000), wk =   0.0493827
        k(   21) = (   0.2777778  -0.1603751   0.0000000), wk =   0.0246914
        k(   22) = (   0.3888889   0.6735753   0.0000000), wk =   0.0246914
        k(   23) = (   0.3888889  -0.3528252   0.0000000), wk =   0.0493827
        k(   24) = (   0.3888889  -0.2245251   0.0000000), wk =   0.0246914
        k(   25) = (  -0.5000000  -0.8660254   0.0000000), wk =   0.0123457

     Dense  grid:   101117 G-vectors     FFT dimensions: (  27,  27, 300)

     Smooth grid:    35839 G-vectors     FFT dimensions: (  20,  20, 216)

     Estimated max dynamical RAM per process >     102.98 MB

     Estimated total dynamical RAM >     823.81 MB
     Generating pointlists ...
     new r_m :   0.4125 (alat units)  2.1131 (a.u.) for type    1

     Initial potential from superposition of free atoms

     starting charge  101.49931, renormalised to  105.00000

     negative rho (up, down):  1.987E-01 1.947E-01
     Starting wfcs are   84 randomized atomic wfcs

     total cpu time spent up to now is        4.4 secs

     Self-consistent Calculation

     iteration #  1     ecut=    35.00 Ry     beta= 0.40
     Davidson diagonalization with overlap
     ethr =  1.00E-02,  avg # of iterations =  3.2

     negative rho (up, down):  2.000E-01 1.982E-01

     total cpu time spent up to now is       15.1 secs

     total energy              =   -1198.44743752 Ry
     estimated scf accuracy    <       5.12187217 Ry

     total magnetization       =     0.39 Bohr mag/cell
     absolute magnetization    =     0.39 Bohr mag/cell

     iteration #  2     ecut=    35.00 Ry     beta= 0.40
     Davidson diagonalization with overlap
     ethr =  4.88E-03,  avg # of iterations =  1.0

     negative rho (up, down):  2.041E-01 2.041E-01

     total cpu time spent up to now is       22.7 secs

     total energy              =   -1198.10793969 Ry
     estimated scf accuracy    <       1.35321563 Ry

     total magnetization       =     0.36 Bohr mag/cell
     absolute magnetization    =     0.37 Bohr mag/cell

     iteration #  3     ecut=    35.00 Ry     beta= 0.40
     Davidson diagonalization with overlap
     ethr =  1.29E-03,  avg # of iterations =  2.0

     negative rho (up, down):  2.067E-01 2.077E-01

     total cpu time spent up to now is       31.9 secs

     total energy              =   -1198.20423379 Ry
     estimated scf accuracy    <       0.28942246 Ry

     total magnetization       =     0.30 Bohr mag/cell
     absolute magnetization    =     0.31 Bohr mag/cell

     iteration #  4     ecut=    35.00 Ry     beta= 0.40
     Davidson diagonalization with overlap
     ethr =  2.76E-04,  avg # of iterations =  3.3

     negative rho (up, down):  2.079E-01 2.089E-01

     total cpu time spent up to now is       41.0 secs

     total energy              =   -1198.23135407 Ry
     estimated scf accuracy    <       0.06036971 Ry

     total magnetization       =     0.25 Bohr mag/cell
     absolute magnetization    =     0.26 Bohr mag/cell

     iteration #  5     ecut=    35.00 Ry     beta= 0.40
     Davidson diagonalization with overlap
     ethr =  5.75E-05,  avg # of iterations =  3.9

     negative rho (up, down):  2.093E-01 2.102E-01

     total cpu time spent up to now is       49.8 secs

     total energy              =   -1198.23263716 Ry
     estimated scf accuracy    <       0.00346456 Ry

     total magnetization       =     0.22 Bohr mag/cell
     absolute magnetization    =     0.23 Bohr mag/cell

     iteration #  6     ecut=    35.00 Ry     beta= 0.40
     Davidson diagonalization with overlap
     c_bands:  1 eigenvalues not converged
     c_bands:  1 eigenvalues not converged
     ethr =  3.30E-06,  avg # of iterations =  9.4

     negative rho (up, down):  2.096E-01 2.105E-01

     total cpu time spent up to now is       61.0 secs

     total energy              =   -1198.23196268 Ry
     estimated scf accuracy    <       0.00447490 Ry

     total magnetization       =     0.17 Bohr mag/cell
     absolute magnetization    =     0.19 Bohr mag/cell

     iteration #  7     ecut=    35.00 Ry     beta= 0.40
     Davidson diagonalization with overlap
     ethr =  3.30E-06,  avg # of iterations =  3.2

     negative rho (up, down):  2.085E-01 2.091E-01

     total cpu time spent up to now is       71.1 secs

     total energy              =   -1198.23268191 Ry
     estimated scf accuracy    <       0.00149766 Ry

     total magnetization       =     0.12 Bohr mag/cell
     absolute magnetization    =     0.13 Bohr mag/cell

     iteration #  8     ecut=    35.00 Ry     beta= 0.40
     Davidson diagonalization with overlap
     c_bands:  1 eigenvalues not converged
     c_bands:  1 eigenvalues not converged
     ethr =  1.43E-06,  avg # of iterations =  5.4

     negative rho (up, down):  2.066E-01 2.066E-01

     total cpu time spent up to now is       80.5 secs

     total energy              =   -1198.23229157 Ry
     estimated scf accuracy    <       0.00278546 Ry

     total magnetization       =     0.07 Bohr mag/cell
     absolute magnetization    =     0.08 Bohr mag/cell

     iteration #  9     ecut=    35.00 Ry     beta= 0.40
     Davidson diagonalization with overlap
     ethr =  1.43E-06,  avg # of iterations =  6.6

     negative rho (up, down):  2.050E-01 2.046E-01

     total cpu time spent up to now is       90.2 secs

     total energy              =   -1198.23170555 Ry
     estimated scf accuracy    <       0.00184435 Ry

     total magnetization       =     0.00 Bohr mag/cell
     absolute magnetization    =     0.05 Bohr mag/cell

     iteration # 10     ecut=    35.00 Ry     beta= 0.40
     Davidson diagonalization with overlap
     c_bands:  1 eigenvalues not converged
     ethr =  1.43E-06,  avg # of iterations =  6.8

     negative rho (up, down):  2.032E-01 2.027E-01

     total cpu time spent up to now is      100.4 secs

     total energy              =   -1198.23151277 Ry
     estimated scf accuracy    <       0.00037240 Ry

     total magnetization       =    -0.05 Bohr mag/cell
     absolute magnetization    =     0.05 Bohr mag/cell

     iteration # 11     ecut=    35.00 Ry     beta= 0.40
     Davidson diagonalization with overlap
     ethr =  3.55E-07,  avg # of iterations =  7.7

     negative rho (up, down):  2.028E-01 2.022E-01

     total cpu time spent up to now is      112.8 secs

     total energy              =   -1198.23152778 Ry
     estimated scf accuracy    <       0.00012449 Ry

     total magnetization       =    -0.07 Bohr mag/cell
     absolute magnetization    =     0.08 Bohr mag/cell

     iteration # 12     ecut=    35.00 Ry     beta= 0.40
     Davidson diagonalization with overlap
     ethr =  1.19E-07,  avg # of iterations =  2.5

     negative rho (up, down):  2.026E-01 2.021E-01

     total cpu time spent up to now is      122.5 secs

     total energy              =   -1198.23154653 Ry
     estimated scf accuracy    <       0.00002650 Ry

     total magnetization       =    -0.08 Bohr mag/cell
     absolute magnetization    =     0.09 Bohr mag/cell

     iteration # 13     ecut=    35.00 Ry     beta= 0.40
     Davidson diagonalization with overlap
     ethr =  2.52E-08,  avg # of iterations =  1.9

     negative rho (up, down):  2.024E-01 2.020E-01

     total cpu time spent up to now is      131.0 secs

     total energy              =   -1198.23154732 Ry
     estimated scf accuracy    <       0.00000514 Ry

     total magnetization       =    -0.07 Bohr mag/cell
     absolute magnetization    =     0.08 Bohr mag/cell

     iteration # 14     ecut=    35.00 Ry     beta= 0.40
     Davidson diagonalization with overlap
     ethr =  4.90E-09,  avg # of iterations =  2.6

     negative rho (up, down):  2.021E-01 2.019E-01

     total cpu time spent up to now is      139.4 secs

     total energy              =   -1198.23154752 Ry
     estimated scf accuracy    <       0.00000271 Ry

     total magnetization       =    -0.06 Bohr mag/cell
     absolute magnetization    =     0.07 Bohr mag/cell

     iteration # 15     ecut=    35.00 Ry     beta= 0.40
     Davidson diagonalization with overlap
     ethr =  2.58E-09,  avg # of iterations =  3.8

     negative rho (up, down):  2.021E-01 2.019E-01
 
     Magnetic moment per site:
     atom:    1    charge:   13.1750    magn:   -0.0095    constr:    0.0000
     atom:    2    charge:   13.2363    magn:   -0.0059    constr:    0.0000
     atom:    3    charge:   13.2474    magn:   -0.0018    constr:    0.0000
     atom:    4    charge:   13.2502    magn:   -0.0015    constr:    0.0000
     atom:    5    charge:   13.2469    magn:   -0.0018    constr:    0.0000
     atom:    6    charge:   13.2365    magn:   -0.0059    constr:    0.0000
     atom:    7    charge:   13.1750    magn:   -0.0095    constr:    0.0000

     total cpu time spent up to now is      149.6 secs

     End of self-consistent calculation

 ------ SPIN UP ------------


          k = 0.0556 0.0962 0.0000 (  4451 PWs)   bands (ev):

   -38.6487 -38.5605 -38.4046 -38.2572 -38.1586 -38.1580 -38.1338 -38.1314
   -38.1260 -38.1123 -38.0922 -38.0841 -38.0698 -38.0627 -38.0412 -37.7419
   -37.7411 -37.7185 -37.7184 -37.6866 -37.6864   1.0279   1.5378   2.2312
     2.7120   2.7250   3.0955   3.1334   4.9116   4.9168   5.1247   5.1806
     5.3015   5.3700   5.5703   5.5794   5.5938   5.6444   5.6874   5.7237
     5.8068   5.8459   5.8995   5.9810   6.0883   6.2442   6.2503   6.7656
     7.0496   7.0748   7.2947   7.3521   7.5172   7.5773   7.6750   7.7559
     8.0864   8.1040   8.5796   8.6234   8.7973   9.3687  10.2598  10.8173

          k = 0.0556 0.2245 0.0000 (  4420 PWs)   bands (ev):

   -38.5974 -38.5330 -38.4221 -38.3366 -38.2873 -38.2645 -38.2381 -38.2154
   -38.1699 -38.1635 -38.1502 -38.1267 -38.1049 -38.0869 -38.0671 -37.8453
   -37.8451 -37.7293 -37.7290 -37.7198 -37.7193   1.9410   2.3664   2.9514
     3.2776   3.4316   3.7398   3.8209   4.2231   4.5088   4.6121   4.6665
     4.8738   4.8935   5.3614   5.4856   5.6315   5.7138   5.7930   5.8532
     5.9137   6.0838   6.1893   6.2973   6.4630   6.5458   6.6632   6.7231
     6.7766   6.9409   7.0570   7.1791   7.3442   7.6202   7.7148   7.9732
     8.0959   8.4997   8.6486   8.8015   9.5296  10.7231  11.9255  12.8356

          k = 0.0556 0.3528 0.0000 (  4467 PWs)   bands (ev):

   -38.5599 -38.5362 -38.5099 -38.4822 -38.4309 -38.4167 -38.3469 -38.2636
   -38.2253 -38.2120 -38.1994 -38.1724 -38.1484 -38.1175 -38.1009 -38.0012
   -38.0009 -37.7637 -37.7637 -37.7178 -37.7177   2.7343   3.0158   3.0319
     3.1661   3.3751   3.4542   3.6973   3.8516   4.1050   4.1799   4.6633
     4.9524   5.1585   5.3678   5.5581   5.6479   5.6834   5.7931   6.0695
     6.2032   6.4599   6.6305   6.7721   6.8230   7.0687   7.3110   7.4502
     7.5317   7.7277   7.8429   7.9803   8.1118   8.2894   8.3499   8.4832
     8.4970   8.6408   8.8932   9.2931  10.6311  12.1297  13.6155  14.8296

          k = 0.0556 0.4811 0.0000 (  4463 PWs)   bands (ev):

   -38.6474 -38.6184 -38.6117 -38.5783 -38.5545 -38.3935 -38.3523 -38.2839
   -38.2664 -38.2535 -38.2405 -38.2032 -38.1821 -38.1472 -38.1321 -38.1043
   -38.1009 -37.7969 -37.7967 -37.7093 -37.7090   2.5533   2.6713   2.8306
     2.8896   3.0344   3.2003   3.2209   3.5939   3.6667   3.8541   4.4755
     4.8850   5.1939   5.3735   5.5114   5.7847   5.9686   5.9859   6.5293
     6.7007   6.8275   7.2502   7.5307   7.8598   8.0612   8.0888   8.3685
     8.4726   8.5886   8.6168   8.7000   8.7289   8.8862   8.9937   9.1363
     9.5842  10.1251  10.4376  10.7673  11.8432  13.2333  14.6097  16.3529

          k = 0.0556-0.5453 0.0000 (  4486 PWs)   bands (ev):

   -38.6754 -38.6431 -38.6370 -38.6005 -38.5863 -38.3671 -38.3535 -38.2893
   -38.2769 -38.2656 -38.2524 -38.2105 -38.1910 -38.1567 -38.1409 -38.1233
   -38.1195 -37.8046 -37.8043 -37.7076 -37.7072   2.4363   2.6210   2.7514
     2.7786   2.9815   3.1199   3.1289   3.5097   3.5789   3.7803   4.4348
     4.8557   5.0977   5.3225   5.4494   5.8295   5.9929   6.1348   6.5361
     6.8371   7.0636   7.3062   7.7241   8.0762   8.1963   8.4336   8.4891
     8.6907   8.8014   8.8619   8.8881   8.9559   9.0414   9.1568   9.2623
    10.2102  11.0115  11.7237  11.8895  12.1760  12.8786  13.4680  16.1998

          k = 0.0556-0.4170 0.0000 (  4465 PWs)   bands (ev):

   -38.5965 -38.5846 -38.5613 -38.5370 -38.4978 -38.4243 -38.3547 -38.2742
   -38.2489 -38.2353 -38.2212 -38.1901 -38.1672 -38.1333 -38.1183 -38.0631
   -38.0615 -37.7829 -37.7829 -37.7129 -37.7126   2.7410   2.7656   2.9829
     3.0777   3.1094   3.3246   3.4129   3.7188   3.8504   3.9900   4.5641
     4.9260   5.3302   5.4565   5.5889   5.6523   5.7154   6.0196   6.2781
     6.3992   6.6407   7.0105   7.2084   7.4019   7.5822   7.7012   7.9912
     8.0823   8.1269   8.2665   8.3545   8.5149   8.6224   8.7088   8.8916
     9.0052   9.2063   9.2756   9.8993  11.2491  12.8028  14.3779  15.7504

          k = 0.0556-0.2887 0.0000 (  4439 PWs)   bands (ev):

   -38.5678 -38.5239 -38.4598 -38.4084 -38.3664 -38.3385 -38.3081 -38.2464
   -38.1978 -38.1863 -38.1767 -38.1502 -38.1268 -38.1010 -38.0832 -37.9252
   -37.9247 -37.7415 -37.7414 -37.7233 -37.7230   2.4570   2.7751   3.1386
     3.2976   3.5570   3.7221   3.9337   4.0665   4.2430   4.4130   4.6535
     4.7308   5.0034   5.1388   5.4945   5.6728   5.7637   5.8116   5.9212
     6.0651   6.1315   6.2766   6.4031   6.7180   6.7421   6.8372   7.0077
     7.1503   7.2325   7.3435   7.6068   7.7023   7.8339   7.9649   8.0735
     8.2534   8.5478   8.8350   8.9096  10.0601  11.4268  12.7800  13.8536

          k = 0.0556-0.1604 0.0000 (  4443 PWs)   bands (ev):

   -38.6269 -38.5477 -38.4083 -38.2843 -38.2139 -38.2023 -38.1770 -38.1697
   -38.1451 -38.1357 -38.1221 -38.1056 -38.0830 -38.0766 -38.0530 -37.7748
   -37.7746 -37.7347 -37.7344 -37.7006 -37.7006   1.4215   1.9070   2.5766
     3.0091   3.0598   3.4154   3.4543   4.5902   4.7222   4.8686   4.9510
     5.1000   5.1309   5.4472   5.5643   5.6760   5.7442   5.7789   5.8728
     5.9089   5.9576   6.0172   6.0368   6.2110   6.2642   6.4835   6.5407
     6.8877   6.9713   7.0668   7.1254   7.3177   7.4998   7.6461   7.8649
     8.0266   8.3696   8.5467   8.7825   9.0441  10.0263  11.0704  11.7987

          k = 0.0556-0.0321 0.0000 (  4465 PWs)   bands (ev):

   -38.6604 -38.5678 -38.4049 -38.2482 -38.1341 -38.1273 -38.1241 -38.1168
   -38.1021 -38.0933 -38.0875 -38.0662 -38.0646 -38.0458 -38.0340 -37.7441
   -37.7431 -37.6904 -37.6903 -37.6792 -37.6790   0.8193   1.3374   2.0368
     2.5379   2.5416   2.9123   2.9498   5.0727   5.0985   5.2705   5.3483
     5.3936   5.4246   5.4247   5.4913   5.5602   5.5917   5.6696   5.6811
     5.6988   5.7350   5.9546   6.0142   6.0936   6.1032   6.2915   7.1606
     7.1805   7.2519   7.3734   7.3869   7.5310   7.5736   7.8348   7.9395
     8.1347   8.2495   8.2761   8.6463   8.8372   8.8435   9.6314  10.0694

          k = 0.1667 0.2887 0.0000 (  4425 PWs)   bands (ev):

   -38.5454 -38.5251 -38.4771 -38.4352 -38.4037 -38.3786 -38.3384 -38.2649
   -38.2159 -38.2144 -38.1822 -38.1763 -38.1562 -38.1448 -38.0926 -37.9573
   -37.9573 -37.7745 -37.7745 -37.7190 -37.7186   2.9234   3.1031   3.3893
     3.7342   3.8818   3.8996   4.0445   4.0554   4.1347   4.3195   4.4329
     4.5434   5.0071   5.0336   5.1297   5.3257   5.4986   5.5430   5.5693
     5.6251   6.1949   6.2418   6.4564   6.5972   6.6632   7.1179   7.1445
     7.3437   7.5616   7.7408   7.9527   8.1906   8.3036   8.4329   8.4424
     8.5657   8.6322   8.7111   9.3920  10.6085  11.9855  13.3850  14.5384

          k = 0.1667 0.4170 0.0000 (  4459 PWs)   bands (ev):

   -38.5802 -38.5640 -38.5506 -38.5243 -38.4954 -38.4331 -38.3628 -38.2890
   -38.2868 -38.2742 -38.2388 -38.2336 -38.2018 -38.1842 -38.1249 -38.0543
   -38.0538 -37.8372 -37.8371 -37.7095 -37.7095   3.1033   3.1683   3.3386
     3.5052   3.5415   3.6316   3.8466   3.9225   4.1434   4.3215   4.5804
     4.7091   4.9605   5.0933   5.2024   5.4631   5.5340   5.9014   5.9635
     6.1362   6.2318   6.4632   6.5893   6.8527   7.1312   7.2796   7.3962
     7.6384   7.7563   7.9935   8.4746   8.7715   8.8670   8.9375   9.1067
    10.1730  10.3283  10.5525  11.1598  12.2566  13.6314  15.0918  16.3833

          k = 0.1667 0.5453 0.0000 (  4490 PWs)   bands (ev):

   -38.6385 -38.6067 -38.5972 -38.5678 -38.5533 -38.3832 -38.3619 -38.3423
   -38.3188 -38.3070 -38.2697 -38.2456 -38.2356 -38.1892 -38.1544 -38.1004
   -38.1001 -37.8714 -37.8713 -37.7045 -37.7045   2.7997   3.0860   3.1608
     3.2310   3.4301   3.5073   3.6398   3.8697   4.0772   4.1368   4.4661
     4.5811   4.7705   5.2031   5.5018   5.6598   5.7266   5.9568   6.2259
     6.3138   6.5560   6.8412   7.2061   7.2650   7.3579   7.7184   8.0064
     8.1517   8.2819   8.3921   8.5688   8.7059   8.7887   8.9857   9.1124
    12.0336  12.4676  12.8818  13.2785  13.7744  14.2386  14.5005  16.5007

          k = 0.1667-0.4811 0.0000 (  4476 PWs)   bands (ev):

   -38.6176 -38.5861 -38.5856 -38.5526 -38.5333 -38.4073 -38.3607 -38.3184
   -38.3055 -38.2976 -38.2592 -38.2465 -38.2200 -38.1891 -38.1422 -38.0849
   -38.0844 -37.8595 -37.8593 -37.7063 -37.7061   2.9073   3.1167   3.2120
     3.3484   3.4657   3.5546   3.7097   3.9094   4.0847   4.2154   4.4789
     4.6875   4.8796   5.0847   5.4566   5.5697   5.7602   5.9629   6.0510
     6.1870   6.5402   6.6930   6.9585   7.0816   7.2010   7.6111   7.8079
     7.8188   7.9701   8.1169   8.5302   8.8261   8.8784   9.0377   9.2027
    11.1404  11.4158  11.7289  12.2937  13.2175  14.3812  15.5403  16.7283

          k = 0.1667-0.3528 0.0000 (  4458 PWs)   bands (ev):

   -38.5447 -38.5374 -38.5150 -38.4844 -38.4432 -38.4417 -38.3598 -38.2761
   -38.2508 -38.2456 -38.2144 -38.1978 -38.1863 -38.1703 -38.1078 -38.0107
   -38.0106 -37.8075 -37.8074 -37.7143 -37.7141   3.1924   3.2837   3.4303
     3.5560   3.6825   3.7795   3.8903   4.0381   4.2863   4.3133   4.5323
     4.6765   4.8770   4.9825   5.2466   5.3585   5.3971   5.6105   5.8198
     5.8875   6.1181   6.1683   6.4774   6.7181   6.8870   7.0616   7.3186
     7.4967   7.6950   7.8676   8.3315   8.5277   8.6345   8.6801   8.8810
     9.2786   9.3508   9.4984  10.1335  11.3430  12.7621  14.2233  15.4603

          k = 0.1667-0.2245 0.0000 (  4433 PWs)   bands (ev):

   -38.5721 -38.5250 -38.4443 -38.3838 -38.3442 -38.3139 -38.2959 -38.2463
   -38.1899 -38.1856 -38.1650 -38.1494 -38.1294 -38.1090 -38.0809 -37.9001
   -37.9000 -37.7441 -37.7440 -37.7244 -37.7242   2.4092   2.7528   3.2327
     3.5680   3.7225   3.8825   4.0008   4.1698   4.2874   4.3649   4.5328
     4.6776   4.8130   5.1175   5.2955   5.4583   5.5216   5.6369   5.7822
     5.8178   6.0659   6.2246   6.5644   6.5794   6.6212   6.8125   6.9479
     7.1742   7.1994   7.2827   7.6077   7.7054   7.8860   8.0313   8.0441
     8.1472   8.4444   8.6732   8.9403  10.0256  11.3087  12.6121  13.6510

          k = 0.1667-0.0962 0.0000 (  4427 PWs)   bands (ev):

   -38.6173 -38.5423 -38.4117 -38.3019 -38.2432 -38.2239 -38.1959 -38.1823
   -38.1573 -38.1475 -38.1308 -38.1149 -38.0880 -38.0821 -38.0538 -37.8008
   -37.8007 -37.7329 -37.7325 -37.7054 -37.7052   1.5997   2.0667   2.7087
     3.0865   3.1966   3.5327   3.5901   4.4032   4.7021   4.7611   4.8474
     5.0262   5.0434   5.5177   5.5498   5.7004   5.7793   5.7845   5.9102
     6.0044   6.0593   6.0901   6.1302   6.1534   6.3315   6.4956   6.6426
     6.7142   6.9314   6.9650   7.1365   7.3011   7.5095   7.6024   7.8780
     8.1735   8.2918   8.6732   8.8932   9.1272  10.2640  11.3812  12.1784

          k = 0.2778 0.4811 0.0000 (  4485 PWs)   bands (ev):

   -38.5732 -38.5725 -38.5438 -38.5412 -38.4890 -38.4610 -38.4157 -38.3686
   -38.3430 -38.3422 -38.2937 -38.2759 -38.2254 -38.2112 -38.1595 -38.0620
   -38.0620 -37.9313 -37.9312 -37.7034 -37.7032   3.3307   3.3417   3.5262
     3.6467   3.8891   3.9974   4.1147   4.1401   4.3217   4.3984   4.4479
     4.5111   4.8454   4.9767   5.1750   5.3434   5.6057   5.6931   6.0449
     6.0505   6.2780   6.2803   6.7437   6.8453   6.9956   7.2453   7.3896
     7.4595   7.8023   8.1497   8.5175   8.7880   8.8279   8.8836   9.0972
    12.4861  12.7306  13.1859  13.8620  14.7825  15.8742  16.8129  16.9302

          k = 0.2778 0.6094 0.0000 (  4491 PWs)   bands (ev):

   -38.5737 -38.5496 -38.5372 -38.5269 -38.5011 -38.4522 -38.4449 -38.4046
   -38.3929 -38.3593 -38.2884 -38.2797 -38.2237 -38.2106 -38.1759 -38.0535
   -38.0534 -37.9641 -37.9640 -37.7018 -37.7015   3.2983   3.5502   3.6060
     3.7577   3.8656   4.0067   4.0533   4.1732   4.2692   4.3381   4.4398
     4.5995   4.7605   5.1050   5.2313   5.4264   5.5389   5.6926   5.9649
     6.0125   6.3214   6.3389   6.7150   6.9020   7.0881   7.2410   7.4185
     7.4894   8.1015   8.3093   8.4536   8.6143   8.6753   8.7313   8.8741
    13.6984  14.0071  14.4598  14.9018  15.2903  15.7451  16.2836  16.5045

          k = 0.2778-0.4170 0.0000 (  4462 PWs)   bands (ev):

   -38.5839 -38.5687 -38.5557 -38.5358 -38.5034 -38.4379 -38.3816 -38.3229
   -38.3153 -38.3066 -38.2762 -38.2580 -38.2245 -38.2027 -38.1405 -38.0638
   -38.0636 -37.8852 -37.8851 -37.7058 -37.7057   3.1841   3.3208   3.4339
     3.5813   3.7353   3.7910   3.9736   4.1782   4.2628   4.3272   4.5828
     4.7294   4.7771   4.8728   5.2332   5.2763   5.5856   5.7983   6.0266
     6.1052   6.2659   6.3406   6.5530   6.8268   7.0432   7.2652   7.4279
     7.5539   7.6477   8.0036   8.5205   8.8859   8.9155   9.0106   9.2031
    11.3121  11.4766  11.8304  12.4736  13.4709  14.7222  16.0597  17.2225

          k = 0.2778-0.2887 0.0000 (  4463 PWs)   bands (ev):

   -38.5649 -38.5579 -38.5306 -38.5083 -38.4651 -38.4352 -38.3560 -38.2723
   -38.2540 -38.2400 -38.2167 -38.1893 -38.1864 -38.1442 -38.1132 -38.0331
   -38.0325 -37.7951 -37.7949 -37.7136 -37.7135   2.9493   3.0636   3.2250
     3.2908   3.3870   3.5358   3.6633   3.8972   4.0836   4.2171   4.5628
     4.8174   5.1411   5.2249   5.3931   5.5426   5.6590   5.7936   5.9851
     6.1983   6.3581   6.5888   6.7043   6.8515   7.1356   7.3217   7.4618
     7.5869   7.8240   8.1304   8.3550   8.4493   8.6502   8.6633   8.9107
     9.1338   9.3156   9.4113  10.0411  11.2919  12.7647  14.2736  15.5522

          k = 0.2778-0.1604 0.0000 (  4458 PWs)   bands (ev):

   -38.5621 -38.5238 -38.4863 -38.4454 -38.3988 -38.3756 -38.3295 -38.2540
   -38.2073 -38.1945 -38.1895 -38.1573 -38.1252 -38.1097 -38.0871 -37.9626
   -37.9624 -37.7463 -37.7462 -37.7212 -37.7208   2.5643   2.8565   3.0379
     3.1657   3.4485   3.5236   3.8187   3.8841   4.1280   4.3073   4.7238
     4.9416   5.1633   5.3403   5.5407   5.6741   5.7833   5.8370   6.1079
     6.1620   6.4396   6.5607   6.5760   6.7231   6.8837   7.1148   7.2547
     7.3436   7.3947   7.4759   7.6777   7.8497   7.8567   7.9661   8.0994
     8.3219   8.7029   8.8958   8.9574  10.2323  11.6929  13.1168  14.2536

          k = 0.3889 0.6736 0.0000 (  4511 PWs)   bands (ev):

   -38.6106 -38.5782 -38.5662 -38.5462 -38.5297 -38.4117 -38.4029 -38.3831
   -38.3591 -38.3235 -38.2810 -38.2785 -38.2357 -38.2011 -38.1664 -38.0804
   -38.0801 -37.9217 -37.9212 -37.7030 -37.7027   3.0246   3.3838   3.4002
     3.5970   3.6674   3.8268   3.8363   4.1241   4.2222   4.2751   4.5171
     4.5275   4.7181   4.9656   5.3269   5.5304   5.7436   5.8976   5.9399
     6.2703   6.3501   6.7286   6.7518   6.8265   7.1515   7.4799   7.6969
     7.8317   8.2580   8.3711   8.4316   8.6197   8.6907   8.9075   8.9132
    13.2299  13.5373  13.8465  14.1514  14.5062  14.8913  15.2338  16.6264

          k = 0.3889-0.3528 0.0000 (  4485 PWs)   bands (ev):

   -38.6515 -38.6196 -38.6141 -38.5798 -38.5634 -38.3812 -38.3514 -38.2996
   -38.2943 -38.2801 -38.2547 -38.2186 -38.2148 -38.1640 -38.1466 -38.1080
   -38.1065 -37.8280 -37.8279 -37.7071 -37.7068   2.6375   2.8272   2.9471
     2.9982   3.1887   3.2909   3.3715   3.6998   3.8253   3.9282   4.4373
     4.7558   5.0044   5.3949   5.4954   5.6938   5.8348   5.9585   6.4471
     6.6088   6.6429   7.2025   7.3106   7.6628   7.7948   7.8959   8.2458
     8.3767   8.3888   8.4607   8.6078   8.7978   8.8936   9.0376   9.2104
    10.7689  11.2677  11.6512  11.9984  12.7339  13.7061  14.5404  16.4241

          k = 0.3889-0.2245 0.0000 (  4444 PWs)   bands (ev):

   -38.6273 -38.6055 -38.5917 -38.5627 -38.5304 -38.4088 -38.3536 -38.2790
   -38.2498 -38.2346 -38.2318 -38.1939 -38.1579 -38.1464 -38.1172 -38.0890
   -38.0857 -37.7818 -37.7817 -37.7112 -37.7109   2.5872   2.6417   2.8380
     2.9265   2.9995   3.1872   3.2701   3.5922   3.6717   3.8905   4.5325
     4.9544   5.3081   5.3855   5.5378   5.8734   5.9106   5.9531   6.4914
     6.6829   6.8193   7.1625   7.5505   7.8121   8.0664   8.2034   8.2780
     8.4220   8.5072   8.5430   8.5784   8.6851   8.7295   8.8786   8.9756
     9.0793   9.1911   9.4291   9.9573  11.3625  12.9365  14.5200  16.0540

          k =-0.5000-0.8660 0.0000 (  4492 PWs)   bands (ev):

   -38.6836 -38.6520 -38.6462 -38.6072 -38.5950 -38.3627 -38.3557 -38.2866
   -38.2676 -38.2633 -38.2506 -38.2082 -38.1710 -38.1705 -38.1323 -38.1293
   -38.1228 -37.7961 -37.7959 -37.7079 -37.7078   2.3612   2.5495   2.6745
     2.7128   2.9056   3.0322   3.0758   3.4331   3.4907   3.7365   4.4264
     4.8979   5.1268   5.2708   5.4307   5.8205   6.1883   6.2276   6.4346
     7.1050   7.1607   7.2159   7.9027   8.1560   8.3604   8.4831   8.7838
     8.8959   8.9272   8.9938   8.9985   9.0675   9.1909   9.3960   9.4000
     9.7341  10.8458  11.7324  11.9280  12.3093  12.4748  12.6034  16.1167

 ------ SPIN DOWN ----------


          k = 0.0556 0.0962 0.0000 (  4451 PWs)   bands (ev):

   -38.6525 -38.5657 -38.4102 -38.2622 -38.1643 -38.1634 -38.1394 -38.1365
   -38.1296 -38.1179 -38.0970 -38.0878 -38.0735 -38.0664 -38.0444 -37.7539
   -37.7530 -37.7274 -37.7273 -37.6953 -37.6952   1.0281   1.5377   2.2308
     2.7104   2.7238   3.0924   3.1303   4.9079   4.9142   5.1212   5.1762
     5.2972   5.3661   5.5662   5.5757   5.5910   5.6385   5.6835   5.7183
     5.8032   5.8404   5.8950   5.9756   6.0826   6.2381   6.2441   6.7619
     7.0451   7.0710   7.2895   7.3457   7.5119   7.5707   7.6688   7.7495
     8.0800   8.0982   8.5716   8.6184   8.7915   9.3642  10.2553  10.8146

          k = 0.0556 0.2245 0.0000 (  4420 PWs)   bands (ev):

   -38.6012 -38.5381 -38.4273 -38.3422 -38.2937 -38.2690 -38.2427 -38.2194
   -38.1746 -38.1689 -38.1549 -38.1317 -38.1089 -38.0905 -38.0704 -37.8540
   -37.8538 -37.7414 -37.7411 -37.7286 -37.7281   1.9410   2.3661   2.9507
     3.2758   3.4296   3.7368   3.8180   4.2200   4.5054   4.6088   4.6629
     4.8695   4.8892   5.3573   5.4816   5.6257   5.7096   5.7890   5.8497
     5.9094   6.0791   6.1843   6.2934   6.4582   6.5402   6.6576   6.7186
     6.7703   6.9360   7.0513   7.1732   7.3381   7.6143   7.7089   7.9671
     8.0899   8.4924   8.6422   8.7960   9.5247  10.7189  11.9217  12.8331

          k = 0.0556 0.3528 0.0000 (  4467 PWs)   bands (ev):

   -38.5639 -38.5404 -38.5146 -38.4875 -38.4367 -38.4216 -38.3518 -38.2684
   -38.2300 -38.2177 -38.2035 -38.1776 -38.1525 -38.1210 -38.1042 -38.0098
   -38.0094 -37.7724 -37.7724 -37.7301 -37.7300   2.7332   3.0142   3.0301
     3.1636   3.3723   3.4515   3.6934   3.8480   4.1017   4.1758   4.6595
     4.9486   5.1552   5.3632   5.5551   5.6447   5.6789   5.7883   6.0647
     6.1977   6.4555   6.6255   6.7671   6.8189   7.0631   7.3052   7.4441
     7.5276   7.7227   7.8378   7.9746   8.1069   8.2843   8.3435   8.4776
     8.4913   8.6336   8.8880   9.2882  10.6270  12.1260  13.6122  14.8274

          k = 0.0556 0.4811 0.0000 (  4463 PWs)   bands (ev):

   -38.6517 -38.6237 -38.6163 -38.5829 -38.5590 -38.3987 -38.3584 -38.2885
   -38.2711 -38.2584 -38.2451 -38.2085 -38.1863 -38.1512 -38.1359 -38.1123
   -38.1084 -37.8056 -37.8055 -37.7217 -37.7214   2.5512   2.6695   2.8278
     2.8869   3.0317   3.1972   3.2175   3.5900   3.6629   3.8498   4.4718
     4.8807   5.1891   5.3694   5.5074   5.7799   5.9637   5.9822   6.5238
     6.6955   6.8233   7.2447   7.5255   7.8544   8.0564   8.0823   8.3609
     8.4664   8.5833   8.6121   8.6956   8.7239   8.8805   8.9867   9.1311
     9.5802  10.1216  10.4349  10.7647  11.8407  13.2308  14.6077  16.3495

          k = 0.0556-0.5453 0.0000 (  4486 PWs)   bands (ev):

   -38.6797 -38.6490 -38.6412 -38.6047 -38.5908 -38.3729 -38.3600 -38.2930
   -38.2817 -38.2697 -38.2577 -38.2158 -38.1954 -38.1611 -38.1454 -38.1303
   -38.1264 -37.8134 -37.8130 -37.7201 -37.7197   2.4341   2.6191   2.7483
     2.7761   2.9783   3.1167   3.1259   3.5058   3.5748   3.7760   4.4309
     4.8514   5.0929   5.3180   5.4455   5.8243   5.9882   6.1313   6.5307
     6.8313   7.0592   7.3006   7.7178   8.0704   8.1907   8.4259   8.4839
     8.6854   8.7961   8.8566   8.8830   8.9510   9.0361   9.1502   9.2561
    10.2075  11.0092  11.7213  11.8879  12.1741  12.8765  13.4664  16.1954

          k = 0.0556-0.4170 0.0000 (  4465 PWs)   bands (ev):

   -38.6008 -38.5887 -38.5666 -38.5419 -38.5023 -38.4294 -38.3603 -38.2791
   -38.2536 -38.2408 -38.2254 -38.1953 -38.1714 -38.1369 -38.1218 -38.0714
   -38.0697 -37.7917 -37.7916 -37.7253 -37.7249   2.7394   2.7635   2.9802
     3.0745   3.1076   3.3217   3.4091   3.7150   3.8468   3.9858   4.5604
     4.9219   5.3251   5.4534   5.5854   5.6482   5.7102   6.0143   6.2748
     6.3942   6.6353   7.0062   7.2033   7.3972   7.5773   7.6948   7.9847
     8.0758   8.1230   8.2603   8.3502   8.5096   8.6172   8.7020   8.8864
     9.0000   9.2017   9.2712   9.8957  11.2457  12.7996  14.3750  15.7480

          k = 0.0556-0.2887 0.0000 (  4439 PWs)   bands (ev):

   -38.5716 -38.5286 -38.4644 -38.4141 -38.3729 -38.3432 -38.3122 -38.2509
   -38.2026 -38.1921 -38.1809 -38.1554 -38.1309 -38.1045 -38.0865 -37.9339
   -37.9334 -37.7502 -37.7502 -37.7355 -37.7352   2.4566   2.7743   3.1372
     3.2955   3.5544   3.7193   3.9300   4.0634   4.2399   4.4094   4.6501
     4.7264   5.0001   5.1350   5.4902   5.6684   5.7598   5.8081   5.9168
     6.0603   6.1266   6.2713   6.3974   6.7133   6.7365   6.8316   7.0027
     7.1447   7.2282   7.3392   7.6011   7.6969   7.8273   7.9587   8.0679
     8.2474   8.5404   8.8293   8.9042  10.0555  11.4229  12.7764  13.8513

          k = 0.0556-0.1604 0.0000 (  4443 PWs)   bands (ev):

   -38.6307 -38.5529 -38.4137 -38.2896 -38.2201 -38.2072 -38.1817 -38.1739
   -38.1502 -38.1410 -38.1262 -38.1104 -38.0869 -38.0802 -38.0563 -37.7837
   -37.7835 -37.7466 -37.7464 -37.7094 -37.7093   1.4216   1.9069   2.5761
     3.0075   3.0584   3.4125   3.4511   4.5871   4.7187   4.8654   4.9471
     5.0958   5.1267   5.4428   5.5590   5.6715   5.7409   5.7736   5.8688
     5.9042   5.9529   6.0126   6.0318   6.2067   6.2611   6.4775   6.5351
     6.8828   6.9667   7.0600   7.1190   7.3116   7.4944   7.6400   7.8589
     8.0205   8.3637   8.5389   8.7769   9.0389  10.0219  11.0662  11.7961

          k = 0.0556-0.0321 0.0000 (  4465 PWs)   bands (ev):

   -38.6642 -38.5731 -38.4106 -38.2532 -38.1391 -38.1334 -38.1291 -38.1227
   -38.1061 -38.0978 -38.0924 -38.0701 -38.0688 -38.0491 -38.0373 -37.7562
   -37.7551 -37.6992 -37.6991 -37.6880 -37.6877   0.8194   1.3374   2.0364
     2.5367   2.5402   2.9092   2.9467   5.0695   5.0954   5.2671   5.3440
     5.3892   5.4202   5.4212   5.4883   5.5554   5.5869   5.6655   5.6775
     5.6934   5.7308   5.9485   6.0082   6.0873   6.0970   6.2863   7.1564
     7.1764   7.2483   7.3684   7.3817   7.5251   7.5675   7.8288   7.9327
     8.1283   8.2438   8.2697   8.6382   8.8331   8.8379   9.6269  10.0666

          k = 0.1667 0.2887 0.0000 (  4425 PWs)   bands (ev):

   -38.5492 -38.5296 -38.4815 -38.4408 -38.4104 -38.3834 -38.3425 -38.2696
   -38.2216 -38.2202 -38.1865 -38.1810 -38.1600 -38.1479 -38.0960 -37.9659
   -37.9659 -37.7833 -37.7832 -37.7312 -37.7309   2.9229   3.1022   3.3878
     3.7316   3.8795   3.8971   4.0415   4.0525   4.1316   4.3158   4.4284
     4.5398   5.0036   5.0312   5.1255   5.3211   5.4935   5.5372   5.5643
     5.6218   6.1905   6.2364   6.4509   6.5914   6.6568   7.1127   7.1408
     7.3376   7.5561   7.7346   7.9468   8.1860   8.2972   8.4258   8.4386
     8.5588   8.6269   8.7061   9.3870  10.6042  11.9817  13.3817  14.5361

          k = 0.1667 0.4170 0.0000 (  4459 PWs)   bands (ev):

   -38.5846 -38.5679 -38.5565 -38.5284 -38.5003 -38.4381 -38.3681 -38.2943
   -38.2928 -38.2802 -38.2425 -38.2373 -38.2063 -38.1876 -38.1283 -38.0627
   -38.0622 -37.8459 -37.8458 -37.7219 -37.7219   3.1011   3.1665   3.3358
     3.5024   3.5387   3.6284   3.8432   3.9197   4.1395   4.3181   4.5764
     4.7052   4.9561   5.0896   5.1992   5.4592   5.5305   5.8970   5.9577
     6.1319   6.2268   6.4584   6.5848   6.8469   7.1262   7.2756   7.3909
     7.6318   7.7486   7.9868   8.4665   8.7672   8.8600   8.9319   9.1020
    10.1697  10.3243  10.5480  11.1563  12.2532  13.6282  15.0889  16.3811

          k = 0.1667 0.5453 0.0000 (  4490 PWs)   bands (ev):

   -38.6428 -38.6127 -38.6014 -38.5719 -38.5580 -38.3884 -38.3672 -38.3476
   -38.3249 -38.3119 -38.2742 -38.2498 -38.2397 -38.1927 -38.1577 -38.1086
   -38.1083 -37.8801 -37.8799 -37.7170 -37.7169   2.7974   3.0841   3.1575
     3.2285   3.4264   3.5046   3.6364   3.8660   4.0735   4.1327   4.4620
     4.5770   4.7672   5.1989   5.4972   5.6558   5.7209   5.9518   6.2215
     6.3106   6.5511   6.8368   7.2005   7.2599   7.3531   7.7126   8.0000
     8.1463   8.2757   8.3832   8.5609   8.7016   8.7826   8.9803   9.1080
    12.0315  12.4648  12.8792  13.2761  13.7721  14.2363  14.4989  16.4958

          k = 0.1667-0.4811 0.0000 (  4476 PWs)   bands (ev):

   -38.6219 -38.5922 -38.5896 -38.5567 -38.5381 -38.4121 -38.3661 -38.3241
   -38.3118 -38.3022 -38.2634 -38.2506 -38.2243 -38.1926 -38.1455 -38.0932
   -38.0926 -37.8682 -37.8680 -37.7187 -37.7185   2.9051   3.1148   3.2090
     3.3457   3.4623   3.5515   3.7063   3.9059   4.0810   4.2116   4.4748
     4.6834   4.8763   5.0805   5.4532   5.5649   5.7547   5.9580   6.0475
     6.1827   6.5358   6.6882   6.9534   7.0768   7.1957   7.6058   7.8019
     7.8135   7.9628   8.1098   8.5219   8.8220   8.8714   9.0318   9.1982
    11.1377  11.4123  11.7255  12.2908  13.2146  14.3785  15.5384  16.7254

          k = 0.1667-0.3528 0.0000 (  4458 PWs)   bands (ev):

   -38.5491 -38.5413 -38.5196 -38.4893 -38.4486 -38.4471 -38.3646 -38.2810
   -38.2567 -38.2519 -38.2184 -38.2010 -38.1911 -38.1735 -38.1112 -38.0192
   -38.0191 -37.8162 -37.8161 -37.7266 -37.7264   3.1910   3.2820   3.4286
     3.5536   3.6797   3.7765   3.8869   4.0347   4.2828   4.3099   4.5283
     4.6735   4.8734   4.9784   5.2426   5.3548   5.3930   5.6066   5.8145
     5.8828   6.1130   6.1627   6.4720   6.7130   6.8814   7.0566   7.3146
     7.4902   7.6875   7.8610   8.3237   8.5233   8.6293   8.6735   8.8763
     9.2751   9.3460   9.4929  10.1294  11.3391  12.7586  14.2201  15.4582

          k = 0.1667-0.2245 0.0000 (  4433 PWs)   bands (ev):

   -38.5758 -38.5298 -38.4491 -38.3895 -38.3508 -38.3186 -38.2998 -38.2506
   -38.1949 -38.1911 -38.1699 -38.1542 -38.1331 -38.1123 -38.0843 -37.9087
   -37.9086 -37.7529 -37.7528 -37.7366 -37.7363   2.4090   2.7523   3.2317
     3.5660   3.7203   3.8797   3.9979   4.1669   4.2841   4.3615   4.5282
     4.6740   4.8091   5.1135   5.2923   5.4536   5.5159   5.6318   5.7775
     5.8143   6.0616   6.2196   6.5584   6.5731   6.6150   6.8083   6.9430
     7.1699   7.1942   7.2776   7.6023   7.7003   7.8799   8.0256   8.0371
     8.1413   8.4369   8.6682   8.9346  10.0209  11.3047  12.6084  13.6486

          k = 0.1667-0.0962 0.0000 (  4427 PWs)   bands (ev):

   -38.6211 -38.5475 -38.4170 -38.3073 -38.2492 -38.2289 -38.2005 -38.1862
   -38.1621 -38.1534 -38.1344 -38.1200 -38.0923 -38.0855 -38.0571 -37.8096
   -37.8095 -37.7450 -37.7446 -37.7141 -37.7139   1.5997   2.0666   2.7082
     3.0849   3.1949   3.5297   3.5871   4.4002   4.6979   4.7584   4.8439
     5.0215   5.0390   5.5137   5.5447   5.6959   5.7761   5.7796   5.9053
     6.0009   6.0544   6.0865   6.1253   6.1490   6.3273   6.4900   6.6370
     6.7088   6.9245   6.9599   7.1300   7.2953   7.5033   7.5967   7.8724
     8.1674   8.2854   8.6654   8.8878   9.1223  10.2598  11.3771  12.1759

          k = 0.2778 0.4811 0.0000 (  4485 PWs)   bands (ev):

   -38.5781 -38.5766 -38.5494 -38.5452 -38.4937 -38.4652 -38.4210 -38.3746
   -38.3479 -38.3475 -38.2985 -38.2808 -38.2290 -38.2149 -38.1626 -38.0705
   -38.0704 -37.9400 -37.9399 -37.7159 -37.7156   3.3285   3.3392   3.5234
     3.6427   3.8861   3.9945   4.1121   4.1379   4.3177   4.3941   4.4436
     4.5072   4.8420   4.9737   5.1709   5.3398   5.6019   5.6900   6.0385
     6.0441   6.2726   6.2750   6.7398   6.8408   6.9908   7.2422   7.3826
     7.4526   7.7962   8.1408   8.5085   8.7818   8.8236   8.8779   9.0926
    12.4839  12.7275  13.1826  13.8591  14.7796  15.8715  16.8111  16.9287

          k = 0.2778 0.6094 0.0000 (  4491 PWs)   bands (ev):

   -38.5779 -38.5550 -38.5415 -38.5317 -38.5057 -38.4573 -38.4498 -38.4102
   -38.3974 -38.3642 -38.2939 -38.2854 -38.2271 -38.2141 -38.1789 -38.0620
   -38.0619 -37.9727 -37.9726 -37.7143 -37.7140   3.2959   3.5478   3.6026
     3.7546   3.8626   4.0044   4.0503   4.1692   4.2648   4.3356   4.4359
     4.5957   4.7566   5.1019   5.2272   5.4229   5.5357   5.6890   5.9582
     6.0063   6.3156   6.3333   6.7114   6.8972   7.0839   7.2371   7.4115
     7.4832   8.0944   8.2986   8.4460   8.6095   8.6691   8.7272   8.8695
    13.6966  14.0046  14.4572  14.8997  15.2881  15.7426  16.2814  16.5028

          k = 0.2778-0.4170 0.0000 (  4462 PWs)   bands (ev):

   -38.5884 -38.5728 -38.5616 -38.5395 -38.5084 -38.4424 -38.3868 -38.3293
   -38.3217 -38.3117 -38.2799 -38.2619 -38.2282 -38.2066 -38.1438 -38.0722
   -38.0720 -37.8938 -37.8937 -37.7182 -37.7181   3.1819   3.3187   3.4310
     3.5779   3.7322   3.7882   3.9702   4.1751   4.2595   4.3234   4.5789
     4.7253   4.7735   4.8693   5.2294   5.2726   5.5823   5.7943   6.0204
     6.0994   6.2611   6.3359   6.5486   6.8213   7.0388   7.2614   7.4220
     7.5476   7.6406   7.9955   8.5120   8.8797   8.9104   9.0050   9.1985
    11.3094  11.4728  11.8267  12.4704  13.4678  14.7192  16.0570  17.2205

          k = 0.2778-0.2887 0.0000 (  4463 PWs)   bands (ev):

   -38.5693 -38.5617 -38.5359 -38.5131 -38.4698 -38.4406 -38.3611 -38.2772
   -38.2593 -38.2460 -38.2205 -38.1943 -38.1904 -38.1476 -38.1166 -38.0415
   -38.0409 -37.8038 -37.8036 -37.7259 -37.7258   2.9479   3.0617   3.2225
     3.2885   3.3843   3.5329   3.6596   3.8938   4.0799   4.2133   4.5590
     4.8134   5.1377   5.2206   5.3895   5.5392   5.6550   5.7891   5.9798
     6.1932   6.3536   6.5838   6.7004   6.8458   7.1299   7.3171   7.4559
     7.5815   7.8168   8.1240   8.3488   8.4443   8.6438   8.6577   8.9058
     9.1294   9.3114   9.4059  10.0371  11.2881  12.7613  14.2705  15.5500

          k = 0.2778-0.1604 0.0000 (  4458 PWs)   bands (ev):

   -38.5660 -38.5284 -38.4908 -38.4510 -38.4052 -38.3802 -38.3340 -38.2586
   -38.2119 -38.2002 -38.1936 -38.1626 -38.1296 -38.1130 -38.0905 -37.9712
   -37.9710 -37.7550 -37.7549 -37.7334 -37.7331   2.5636   2.8554   3.0361
     3.1633   3.4458   3.5209   3.8148   3.8808   4.1247   4.3034   4.7200
     4.9383   5.1595   5.3366   5.5374   5.6699   5.7800   5.8321   6.1027
     6.1569   6.4346   6.5555   6.5711   6.7187   6.8790   7.1096   7.2494
     7.3391   7.3892   7.4724   7.6725   7.8436   7.8505   7.9592   8.0935
     8.3159   8.6954   8.8903   8.9522  10.2279  11.6891  13.1133  14.2514

          k = 0.3889 0.6736 0.0000 (  4511 PWs)   bands (ev):

   -38.6148 -38.5842 -38.5703 -38.5503 -38.5344 -38.4166 -38.4083 -38.3870
   -38.3653 -38.3292 -38.2862 -38.2831 -38.2391 -38.2047 -38.1695 -38.0887
   -38.0885 -37.9303 -37.9299 -37.7155 -37.7151   3.0222   3.3802   3.3982
     3.5948   3.6644   3.8232   3.8331   4.1201   4.2182   4.2713   4.5140
     4.5237   4.7145   4.9617   5.3229   5.5261   5.7377   5.8949   5.9336
     6.2659   6.3464   6.7236   6.7463   6.8216   7.1465   7.4749   7.6905
     7.8263   8.2498   8.3605   8.4268   8.6137   8.6849   8.9022   8.9094
    13.2282  13.5350  13.8441  14.1490  14.5037  14.8887  15.2320  16.6234

          k = 0.3889-0.3528 0.0000 (  4485 PWs)   bands (ev):

   -38.6557 -38.6256 -38.6182 -38.5841 -38.5680 -38.3865 -38.3576 -38.3049
   -38.2993 -38.2844 -38.2593 -38.2229 -38.2196 -38.1675 -38.1503 -38.1160
   -38.1143 -37.8367 -37.8366 -37.7195 -37.7192   2.6353   2.8253   2.9444
     2.9954   3.1852   3.2881   3.3683   3.6960   3.8215   3.9238   4.4334
     4.7516   5.0006   5.3905   5.4906   5.6888   5.8315   5.9534   6.4419
     6.6037   6.6394   7.1978   7.3051   7.6580   7.7893   7.8900   8.2386
     8.3700   8.3832   8.4554   8.6005   8.7938   8.8870   9.0315   9.2056
    10.7661  11.2645  11.6485  11.9959  12.7316  13.7038  14.5388  16.4191

          k = 0.3889-0.2245 0.0000 (  4444 PWs)   bands (ev):

   -38.6316 -38.6101 -38.5969 -38.5675 -38.5349 -38.4139 -38.3596 -38.2837
   -38.2543 -38.2403 -38.2358 -38.1993 -38.1623 -38.1501 -38.1206 -38.0972
   -38.0935 -37.7905 -37.7904 -37.7236 -37.7232   2.5850   2.6400   2.8351
     2.9236   2.9972   3.1841   3.2665   3.5882   3.6680   3.8862   4.5288
     4.9502   5.3024   5.3818   5.5345   5.8690   5.9053   5.9492   6.4856
     6.6787   6.8140   7.1572   7.5459   7.8061   8.0589   8.2007   8.2718
     8.4182   8.5018   8.5367   8.5733   8.6802   8.7240   8.8720   8.9681
     9.0737   9.1880   9.4265   9.9544  11.3595  12.9336  14.5174  16.0512

          k =-0.5000-0.8660 0.0000 (  4492 PWs)   bands (ev):

   -38.6879 -38.6580 -38.6504 -38.6114 -38.5996 -38.3687 -38.3624 -38.2897
   -38.2721 -38.2675 -38.2563 -38.2136 -38.1754 -38.1753 -38.1403 -38.1327
   -38.1295 -37.8048 -37.8046 -37.7203 -37.7203   2.3590   2.5476   2.6713
     2.7105   2.9025   3.0290   3.0726   3.4291   3.4866   3.7322   4.4225
     4.8937   5.1215   5.2663   5.4274   5.8153   6.1840   6.2240   6.4289
     7.0988   7.1553   7.2110   7.8963   8.1484   8.3554   8.4755   8.7786
     8.8920   8.9221   8.9887   8.9925   9.0629   9.1871   9.3881   9.3922
     9.7323  10.8443  11.7310  11.9264  12.3072  12.4731  12.6016  16.1107

     the Fermi energy is     8.3388 ev

!    total energy              =   -1198.23155099 Ry
     estimated scf accuracy    <       0.00000069 Ry
     smearing contrib. (-TS)   =      -0.03065420 Ry
     internal energy E=F+TS    =   -1198.20089680 Ry

     The total energy is F=E-TS. E is the sum of the following terms:
     one-electron contribution =  -13429.50680677 Ry
     hartree contribution      =    6760.55417188 Ry
     xc contribution           =    -209.34330995 Ry
     ewald contribution        =    5680.09504805 Ry

     total magnetization       =    -0.04 Bohr mag/cell
     absolute magnetization    =     0.04 Bohr mag/cell

     convergence has been achieved in  15 iterations

     negative rho (up, down):  2.021E-01 2.019E-01

     Forces acting on atoms (cartesian axes, Ry/au):

     atom    1 type  1   force =     0.00000000    0.00000000    0.01219732
     atom    2 type  1   force =     0.00000000    0.00000000   -0.00736299
     atom    3 type  1   force =     0.00000000    0.00000000   -0.00672576
     atom    4 type  1   force =     0.00000000    0.00000000   -0.00000486
     atom    5 type  1   force =     0.00000000    0.00000000    0.00672347
     atom    6 type  1   force =     0.00000000    0.00000000    0.00737045
     atom    7 type  1   force =     0.00000000    0.00000000   -0.01219763

     Total force =     0.022283     Total SCF correction =     0.004133
     SCF correction compared to forces is large: reduce conv_thr to get better values

     BFGS Geometry Optimization
     Energy error            =      0.0E+00
     Gradient error          =      1.2E-02

     number of scf cycles    =   1
     number of bfgs steps    =   0

     energy   new            =   -1198.2315509917 Ry

     new trust radius        =       0.0121976327 bohr
     new conv_thr            =       0.0000010000 Ry


ATOMIC_POSITIONS (angstrom)
Rh            0.0000000000        0.0000000000        0.0064545421
Rh            1.3554284000       -0.7825569000        2.2095089716
Rh            1.3554284000        0.7825569000        4.4232514828
Rh            0.0000000000        0.0000000000        6.6402133277
Rh            1.3554284000       -0.7825569000        8.8571791083
Rh            1.3554284000        0.7825569000       11.0709266767
Rh            0.0000000000        0.0000000000       13.2739769907



     Writing output data file /home/STUDENTI/leonardo.razzai/Rh_work/surf_111/7-L.save/
     NEW-OLD atomic charge density approx. for the potential

     negative rho (up, down):  2.021E-01 2.019E-01
     Generating pointlists ...

     total cpu time spent up to now is      151.6 secs

     Self-consistent Calculation

     iteration #  1     ecut=    35.00 Ry     beta= 0.40
     Davidson diagonalization with overlap
     ethr =  1.00E-06,  avg # of iterations =  6.0

     negative rho (up, down):  2.021E-01 2.020E-01

     total cpu time spent up to now is      168.1 secs

     total energy              =   -1198.23138039 Ry
     estimated scf accuracy    <       0.02956114 Ry

     total magnetization       =    -0.03 Bohr mag/cell
     absolute magnetization    =     0.03 Bohr mag/cell

     iteration #  2     ecut=    35.00 Ry     beta= 0.40
     Davidson diagonalization with overlap
     ethr =  2.82E-05,  avg # of iterations =  1.0

     negative rho (up, down):  2.021E-01 2.020E-01

     total cpu time spent up to now is      175.8 secs

     total energy              =   -1198.23181020 Ry
     estimated scf accuracy    <       0.01719703 Ry

     total magnetization       =    -0.02 Bohr mag/cell
     absolute magnetization    =     0.03 Bohr mag/cell

     iteration #  3     ecut=    35.00 Ry     beta= 0.40
     Davidson diagonalization with overlap
     ethr =  1.64E-05,  avg # of iterations =  1.0

     negative rho (up, down):  2.021E-01 2.020E-01

     total cpu time spent up to now is      183.5 secs

     total energy              =   -1198.23199349 Ry
     estimated scf accuracy    <       0.00063956 Ry

     total magnetization       =    -0.02 Bohr mag/cell
     absolute magnetization    =     0.02 Bohr mag/cell

     iteration #  4     ecut=    35.00 Ry     beta= 0.40
     Davidson diagonalization with overlap
     ethr =  6.09E-07,  avg # of iterations =  1.0

     negative rho (up, down):  2.021E-01 2.020E-01

     total cpu time spent up to now is      191.3 secs

     total energy              =   -1198.23198025 Ry
     estimated scf accuracy    <       0.00030454 Ry

     total magnetization       =    -0.02 Bohr mag/cell
     absolute magnetization    =     0.02 Bohr mag/cell

     iteration #  5     ecut=    35.00 Ry     beta= 0.40
     Davidson diagonalization with overlap
     ethr =  2.90E-07,  avg # of iterations =  1.0

     negative rho (up, down):  2.021E-01 2.020E-01

     total cpu time spent up to now is      199.0 secs

     total energy              =   -1198.23198832 Ry
     estimated scf accuracy    <       0.00000107 Ry

     total magnetization       =    -0.01 Bohr mag/cell
     absolute magnetization    =     0.02 Bohr mag/cell

     iteration #  6     ecut=    35.00 Ry     beta= 0.40
     Davidson diagonalization with overlap
     ethr =  1.02E-09,  avg # of iterations =  3.3

     negative rho (up, down):  2.021E-01 2.020E-01

     total cpu time spent up to now is      209.5 secs

     total energy              =   -1198.23198861 Ry
     estimated scf accuracy    <       0.00000105 Ry

     total magnetization       =    -0.01 Bohr mag/cell
     absolute magnetization    =     0.02 Bohr mag/cell

     iteration #  7     ecut=    35.00 Ry     beta= 0.40
     Davidson diagonalization with overlap
     ethr =  9.97E-10,  avg # of iterations =  1.0

     negative rho (up, down):  2.021E-01 2.020E-01

     total cpu time spent up to now is      217.2 secs

     total energy              =   -1198.23198869 Ry
     estimated scf accuracy    <       0.00000140 Ry

     total magnetization       =    -0.01 Bohr mag/cell
     absolute magnetization    =     0.01 Bohr mag/cell

     iteration #  8     ecut=    35.00 Ry     beta= 0.40
     Davidson diagonalization with overlap
     ethr =  9.97E-10,  avg # of iterations =  1.0

     negative rho (up, down):  2.021E-01 2.020E-01

     total cpu time spent up to now is      224.9 secs

     total energy              =   -1198.23198872 Ry
     estimated scf accuracy    <       0.00000115 Ry

     total magnetization       =    -0.01 Bohr mag/cell
     absolute magnetization    =     0.01 Bohr mag/cell

     iteration #  9     ecut=    35.00 Ry     beta= 0.40
     Davidson diagonalization with overlap
     ethr =  9.97E-10,  avg # of iterations =  1.0

     negative rho (up, down):  2.021E-01 2.021E-01
 
     Magnetic moment per site:
     atom:    1    charge:   13.1786    magn:   -0.0021    constr:    0.0000
     atom:    2    charge:   13.2393    magn:   -0.0010    constr:    0.0000
     atom:    3    charge:   13.2463    magn:    0.0002    constr:    0.0000
     atom:    4    charge:   13.2480    magn:    0.0004    constr:    0.0000
     atom:    5    charge:   13.2457    magn:    0.0002    constr:    0.0000
     atom:    6    charge:   13.2395    magn:   -0.0010    constr:    0.0000
     atom:    7    charge:   13.1785    magn:   -0.0021    constr:    0.0000

     total cpu time spent up to now is      232.5 secs

     End of self-consistent calculation

 ------ SPIN UP ------------


          k = 0.0556 0.0962 0.0000 (  4451 PWs)   bands (ev):

   -38.6488 -38.5694 -38.4138 -38.2641 -38.1668 -38.1631 -38.1402 -38.1372
   -38.1267 -38.1184 -38.0954 -38.0848 -38.0713 -38.0634 -38.0404 -37.7584
   -37.7575 -37.7320 -37.7320 -37.7001 -37.7000   1.0296   1.5279   2.2221
     2.7164   2.7217   3.0766   3.1160   4.9090   4.9150   5.1228   5.1770
     5.2924   5.3607   5.5620   5.5778   5.5963   5.6433   5.6759   5.7115
     5.8008   5.8393   5.8923   5.9695   6.0832   6.2264   6.2318   6.7574
     7.0471   7.0755   7.2876   7.3415   7.5116   7.5651   7.6689   7.7533
     8.0753   8.0982   8.5776   8.6176   8.7951   9.3650  10.2644  10.8185

          k = 0.0556 0.2245 0.0000 (  4420 PWs)   bands (ev):

   -38.5976 -38.5407 -38.4293 -38.3447 -38.2966 -38.2674 -38.2417 -38.2186
   -38.1742 -38.1702 -38.1543 -38.1303 -38.1068 -38.0876 -38.0667 -37.8586
   -37.8585 -37.7460 -37.7457 -37.7334 -37.7329   1.9429   2.3574   2.9424
     3.2784   3.4251   3.7231   3.8073   4.2200   4.5041   4.6057   4.6579
     4.8625   4.8808   5.3550   5.4758   5.6229   5.7095   5.7897   5.8522
     5.9099   6.0719   6.1820   6.2951   6.4526   6.5331   6.6502   6.7185
     6.7694   6.9313   7.0506   7.1696   7.3371   7.6175   7.7090   7.9658
     8.0909   8.4984   8.6460   8.7997   9.5270  10.7229  11.9305  12.8361

          k = 0.0556 0.3528 0.0000 (  4467 PWs)   bands (ev):

   -38.5609 -38.5377 -38.5160 -38.4901 -38.4385 -38.4207 -38.3538 -38.2701
   -38.2298 -38.2195 -38.2022 -38.1770 -38.1508 -38.1177 -38.1008 -38.0137
   -38.0133 -37.7772 -37.7772 -37.7352 -37.7351   2.7359   3.0191   3.0235
     3.1558   3.3720   3.4412   3.6842   3.8362   4.0941   4.1657   4.6524
     4.9472   5.1500   5.3603   5.5529   5.6485   5.6791   5.7876   6.0595
     6.1887   6.4506   6.6167   6.7588   6.8168   7.0575   7.3052   7.4492
     7.5251   7.7237   7.8361   7.9777   8.1035   8.2824   8.3474   8.4786
     8.4908   8.6414   8.8912   9.2919  10.6326  12.1325  13.6175  14.8297

          k = 0.0556 0.4811 0.0000 (  4463 PWs)   bands (ev):

   -38.6497 -38.6252 -38.6148 -38.5828 -38.5567 -38.4016 -38.3654 -38.2888
   -38.2705 -38.2586 -38.2434 -38.2081 -38.1847 -38.1484 -38.1332 -38.1151
   -38.1104 -37.8103 -37.8102 -37.7273 -37.7270   2.5549   2.6723   2.8215
     2.8862   3.0250   3.1892   3.2083   3.5766   3.6530   3.8375   4.4651
     4.8776   5.1937   5.3697   5.5093   5.7738   5.9562   5.9810   6.5118
     6.6890   6.8245   7.2389   7.5208   7.8544   8.0529   8.0852   8.3675
     8.4690   8.5819   8.6134   8.6994   8.7259   8.8808   8.9862   9.1326
     9.5804  10.1185  10.4346  10.7651  11.8455  13.2371  14.6078  16.3514

          k = 0.0556-0.5453 0.0000 (  4486 PWs)   bands (ev):

   -38.6778 -38.6517 -38.6391 -38.6039 -38.5884 -38.3786 -38.3679 -38.2901
   -38.2811 -38.2679 -38.2577 -38.2154 -38.1939 -38.1592 -38.1445 -38.1311
   -38.1275 -37.8181 -37.8177 -37.7258 -37.7254   2.4378   2.6218   2.7391
     2.7787   2.9700   3.1096   3.1175   3.4939   3.5631   3.7632   4.4233
     4.8487   5.0981   5.3192   5.4472   5.8125   5.9848   6.1315   6.5185
     6.8249   7.0611   7.2949   7.7170   8.0709   8.1908   8.4321   8.4856
     8.6876   8.7943   8.8583   8.8863   8.9527   9.0356   9.1487   9.2564
    10.2073  11.0049  11.7211  11.8871  12.1779  12.8817  13.4665  16.1906

          k = 0.0556-0.4170 0.0000 (  4465 PWs)   bands (ev):

   -38.5988 -38.5864 -38.5678 -38.5430 -38.5003 -38.4309 -38.3653 -38.2808
   -38.2532 -38.2421 -38.2237 -38.1949 -38.1697 -38.1336 -38.1185 -38.0749
   -38.0729 -37.7964 -37.7963 -37.7307 -37.7303   2.7421   2.7674   2.9753
     3.0673   3.1076   3.3120   3.3997   3.7011   3.8382   3.9746   4.5548
     4.9185   5.3260   5.4536   5.5862   5.6473   5.7094   6.0029   6.2726
     6.3898   6.6252   7.0012   7.1956   7.3919   7.5760   7.6948   7.9895
     8.0796   8.1229   8.2597   8.3533   8.5104   8.6170   8.7072   8.8871
     9.0020   9.2007   9.2704   9.8975  11.2516  12.8064  14.3780  15.7505

          k = 0.0556-0.2887 0.0000 (  4439 PWs)   bands (ev):

   -38.5680 -38.5297 -38.4649 -38.4170 -38.3762 -38.3417 -38.3113 -38.2515
   -38.2024 -38.1939 -38.1800 -38.1544 -38.1290 -38.1014 -38.0830 -37.9382
   -37.9377 -37.7550 -37.7550 -37.7403 -37.7401   2.4589   2.7674   3.1323
     3.2943   3.5446   3.7173   3.9207   4.0569   4.2353   4.4016   4.6440
     4.7153   4.9982   5.1322   5.4901   5.6679   5.7575   5.8103   5.9126
     6.0547   6.1200   6.2700   6.3920   6.7088   6.7316   6.8314   6.9982
     7.1468   7.2266   7.3388   7.5953   7.6951   7.8284   7.9594   8.0686
     8.2504   8.5484   8.8343   8.9070  10.0596  11.4283  12.7837  13.8538

          k = 0.0556-0.1604 0.0000 (  4443 PWs)   bands (ev):

   -38.6271 -38.5562 -38.4168 -38.2917 -38.2227 -38.2065 -38.1812 -38.1724
   -38.1504 -38.1420 -38.1236 -38.1088 -38.0846 -38.0777 -38.0524 -37.7885
   -37.7884 -37.7510 -37.7507 -37.7142 -37.7141   1.4233   1.8973   2.5673
     3.0121   3.0566   3.3967   3.4370   4.5874   4.7180   4.8680   4.9489
     5.0863   5.1166   5.4362   5.5581   5.6699   5.7449   5.7764   5.8693
     5.9023   5.9489   6.0081   6.0281   6.2047   6.2605   6.4639   6.5248
     6.8834   6.9689   7.0568   7.1184   7.3109   7.4963   7.6386   7.8600
     8.0171   8.3643   8.5449   8.7803   9.0401  10.0243  11.0756  11.7996

          k = 0.0556-0.0321 0.0000 (  4465 PWs)   bands (ev):

   -38.6604 -38.5770 -38.4144 -38.2550 -38.1394 -38.1356 -38.1292 -38.1247
   -38.1039 -38.0961 -38.0908 -38.0681 -38.0671 -38.0451 -38.0333 -37.7605
   -37.7594 -37.7040 -37.7039 -37.6928 -37.6926   0.8210   1.3274   2.0278
     2.5353   2.5457   2.8934   2.9326   5.0706   5.0964   5.2695   5.3434
     5.3917   5.4142   5.4242   5.4922   5.5485   5.5933   5.6608   5.6744
     5.6944   5.7293   5.9390   5.9983   6.0744   6.0850   6.2873   7.1558
     7.1797   7.2465   7.3683   7.3807   7.5222   7.5633   7.8219   7.9288
     8.1318   8.2470   8.2682   8.6446   8.8319   8.8406   9.6351  10.0708

          k = 0.1667 0.2887 0.0000 (  4425 PWs)   bands (ev):

   -38.5454 -38.5294 -38.4817 -38.4439 -38.4139 -38.3818 -38.3418 -38.2706
   -38.2233 -38.2229 -38.1845 -38.1810 -38.1578 -38.1432 -38.0928 -37.9700
   -37.9700 -37.7880 -37.7880 -37.7363 -37.7359   2.9263   3.0980   3.3814
     3.7229   3.8846   3.8956   4.0346   4.0524   4.1190   4.3012   4.4153
     4.5367   4.9965   5.0278   5.1184   5.3178   5.4918   5.5249   5.5546
     5.6306   6.1911   6.2366   6.4498   6.5829   6.6578   7.1128   7.1460
     7.3287   7.5575   7.7320   7.9490   8.1842   8.3017   8.4317   8.4372
     8.5601   8.6259   8.7079   9.3907  10.6097  11.9878  13.3874  14.5381

          k = 0.1667 0.4170 0.0000 (  4459 PWs)   bands (ev):

   -38.5829 -38.5651 -38.5584 -38.5284 -38.4985 -38.4391 -38.3715 -38.2969
   -38.2960 -38.2818 -38.2399 -38.2345 -38.2058 -38.1840 -38.1248 -38.0663
   -38.0657 -37.8505 -37.8504 -37.7274 -37.7273   3.1053   3.1701   3.3329
     3.4945   3.5360   3.6182   3.8326   3.9104   4.1295   4.3101   4.5690
     4.6954   4.9473   5.0925   5.1974   5.4525   5.5294   5.8928   5.9575
     6.1275   6.2190   6.4525   6.5793   6.8426   7.1275   7.2744   7.3959
     7.6329   7.7555   7.9922   8.4723   8.7689   8.8620   8.9340   9.1034
    10.1710  10.3239  10.5451  11.1560  12.2577  13.6340  15.0914  16.3829

          k = 0.1667 0.5453 0.0000 (  4490 PWs)   bands (ev):

   -38.6408 -38.6154 -38.5994 -38.5709 -38.5555 -38.3911 -38.3707 -38.3485
   -38.3285 -38.3122 -38.2731 -38.2483 -38.2378 -38.1897 -38.1536 -38.1119
   -38.1116 -37.8846 -37.8845 -37.7227 -37.7227   2.8014   3.0874   3.1481
     3.2309   3.4162   3.4970   3.6253   3.8585   4.0626   4.1184   4.4534
     4.5699   4.7729   5.1908   5.4919   5.6554   5.7206   5.9443   6.2168
     6.3130   6.5447   6.8318   7.1986   7.2544   7.3493   7.7162   8.0036
     8.1493   8.2796   8.3904   8.5670   8.7026   8.7860   8.9831   9.1098
    12.0317  12.4626  12.8774  13.2749  13.7736  14.2396  14.4987  16.4936

          k = 0.1667-0.4811 0.0000 (  4476 PWs)   bands (ev):

   -38.6200 -38.5950 -38.5872 -38.5558 -38.5360 -38.4132 -38.3702 -38.3268
   -38.3158 -38.3015 -38.2613 -38.2489 -38.2231 -38.1894 -38.1417 -38.0965
   -38.0959 -37.8728 -37.8726 -37.7244 -37.7242   2.9091   3.1182   3.2037
     3.3444   3.4531   3.5423   3.6959   3.8976   4.0694   4.2005   4.4670
     4.6744   4.8829   5.0711   5.4536   5.5564   5.7535   5.9554   6.0466
     6.1770   6.5319   6.6813   6.9459   7.0727   7.1953   7.6090   7.8047
     7.8164   7.9692   8.1160   8.5277   8.8235   8.8748   9.0344   9.1999
    11.1385  11.4106  11.7234  12.2902  13.2176  14.3829  15.5386  16.7264

          k = 0.1667-0.3528 0.0000 (  4458 PWs)   bands (ev):

   -38.5474 -38.5379 -38.5200 -38.4913 -38.4510 -38.4459 -38.3662 -38.2827
   -38.2594 -38.2548 -38.2161 -38.1976 -38.1912 -38.1694 -38.1079 -38.0230
   -38.0229 -37.8209 -37.8208 -37.7319 -37.7317   3.1943   3.2868   3.4218
     3.5499   3.6727   3.7714   3.8767   4.0270   4.2719   4.3052   4.5134
     4.6705   4.8656   4.9743   5.2389   5.3551   5.3887   5.6016   5.8058
     5.8775   6.1124   6.1627   6.4658   6.7132   6.8814   7.0549   7.3179
     7.4887   7.6908   7.8638   8.3285   8.5248   8.6338   8.6726   8.8776
     9.2766   9.3469   9.4893  10.1305  11.3447  12.7650  14.2241  15.4598

          k = 0.1667-0.2245 0.0000 (  4433 PWs)   bands (ev):

   -38.5722 -38.5314 -38.4502 -38.3924 -38.3541 -38.3171 -38.2981 -38.2506
   -38.1955 -38.1928 -38.1701 -38.1528 -38.1306 -38.1086 -38.0811 -37.9132
   -37.9131 -37.7577 -37.7576 -37.7413 -37.7410   2.4112   2.7448   3.2238
     3.5678   3.7139   3.8731   3.9920   4.1618   4.2823   4.3516   4.5177
     4.6710   4.8024   5.1083   5.2872   5.4482   5.5147   5.6287   5.7718
     5.8182   6.0600   6.2205   6.5500   6.5719   6.6110   6.8139   6.9389
     7.1712   7.1896   7.2744   7.5972   7.6963   7.8812   8.0266   8.0394
     8.1434   8.4444   8.6704   8.9390  10.0251  11.3099  12.6159  13.6512

          k = 0.1667-0.0962 0.0000 (  4427 PWs)   bands (ev):

   -38.6175 -38.5506 -38.4198 -38.3095 -38.2514 -38.2282 -38.2000 -38.1848
   -38.1617 -38.1552 -38.1315 -38.1188 -38.0908 -38.0827 -38.0534 -37.8143
   -37.8143 -37.7494 -37.7490 -37.7189 -37.7188   1.6014   2.0572   2.6996
     3.0883   3.1924   3.5145   3.5744   4.4011   4.6946   4.7614   4.8427
     5.0112   5.0293   5.5087   5.5445   5.6929   5.7808   5.7841   5.9024
     6.0038   6.0451   6.0857   6.1260   6.1434   6.3256   6.4761   6.6266
     6.7079   6.9215   6.9600   7.1337   7.2931   7.5074   7.5944   7.8696
     8.1685   8.2866   8.6735   8.8907   9.1224  10.2626  11.3865  12.1792

          k = 0.2778 0.4811 0.0000 (  4485 PWs)   bands (ev):

   -38.5774 -38.5751 -38.5503 -38.5433 -38.4928 -38.4636 -38.4226 -38.3771
   -38.3511 -38.3465 -38.2999 -38.2833 -38.2259 -38.2123 -38.1582 -38.0742
   -38.0742 -37.9443 -37.9442 -37.7216 -37.7214   3.3321   3.3442   3.5216
     3.6302   3.8719   3.9901   4.1125   4.1438   4.2991   4.3779   4.4315
     4.5003   4.8340   4.9686   5.1616   5.3378   5.5979   5.6905   6.0337
     6.0405   6.2644   6.2663   6.7384   6.8412   6.9921   7.2431   7.3903
     7.4604   7.8013   8.1472   8.5147   8.7850   8.8252   8.8826   9.0941
    12.4850  12.7252  13.1808  13.8588  14.7816  15.8746  16.8117  16.9279

          k = 0.2778 0.6094 0.0000 (  4491 PWs)   bands (ev):

   -38.5760 -38.5561 -38.5393 -38.5313 -38.5041 -38.4587 -38.4496 -38.4115
   -38.3956 -38.3649 -38.2980 -38.2906 -38.2235 -38.2112 -38.1739 -38.0659
   -38.0658 -37.9768 -37.9767 -37.7201 -37.7198   3.3003   3.5520   3.5956
     3.7497   3.8583   4.0074   4.0430   4.1523   4.2430   4.3368   4.4241
     4.5863   4.7448   5.0963   5.2183   5.4199   5.5357   5.6863   5.9526
     6.0024   6.3077   6.3262   6.7093   6.8979   7.0848   7.2392   7.4220
     7.4911   8.0992   8.3063   8.4518   8.6112   8.6744   8.7284   8.8712
    13.6973  14.0023  14.4559  14.8988  15.2875  15.7438  16.2802  16.5027

          k = 0.2778-0.4170 0.0000 (  4462 PWs)   bands (ev):

   -38.5870 -38.5715 -38.5627 -38.5378 -38.5074 -38.4421 -38.3890 -38.3334
   -38.3261 -38.3124 -38.2777 -38.2606 -38.2253 -38.2045 -38.1398 -38.0758
   -38.0755 -37.8983 -37.8983 -37.7238 -37.7237   3.1861   3.3223   3.4276
     3.5717   3.7188   3.7866   3.9592   4.1653   4.2537   4.3147   4.5677
     4.7183   4.7662   4.8641   5.2225   5.2702   5.5827   5.7885   6.0179
     6.0959   6.2535   6.3291   6.5448   6.8212   7.0390   7.2630   7.4247
     7.5518   7.6485   8.0019   8.5180   8.8828   8.9124   9.0084   9.2000
    11.3109  11.4711  11.8242  12.4699  13.4709  14.7238  16.0586  17.2215

          k = 0.2778-0.2887 0.0000 (  4463 PWs)   bands (ev):

   -38.5674 -38.5585 -38.5372 -38.5147 -38.4680 -38.4423 -38.3644 -38.2792
   -38.2603 -38.2483 -38.2175 -38.1941 -38.1885 -38.1440 -38.1133 -38.0452
   -38.0446 -37.8086 -37.8083 -37.7312 -37.7312   2.9509   3.0657   3.2217
     3.2794   3.3818   3.5218   3.6506   3.8813   4.0702   4.2052   4.5535
     4.8055   5.1398   5.2101   5.3933   5.5381   5.6495   5.7889   5.9789
     6.1809   6.3498   6.5773   6.6966   6.8382   7.1285   7.3188   7.4598
     7.5811   7.8205   8.1250   8.3533   8.4464   8.6451   8.6604   8.9074
     9.1304   9.3123   9.4029  10.0383  11.2938  12.7678  14.2742  15.5520

          k = 0.2778-0.1604 0.0000 (  4458 PWs)   bands (ev):

   -38.5625 -38.5279 -38.4913 -38.4539 -38.4083 -38.3789 -38.3343 -38.2598
   -38.2110 -38.2020 -38.1929 -38.1617 -38.1283 -38.1096 -38.0869 -37.9754
   -37.9752 -37.7598 -37.7597 -37.7384 -37.7381   2.5661   2.8496   3.0365
     3.1569   3.4358   3.5210   3.8045   3.8721   4.1183   4.2931   4.7108
     4.9372   5.1545   5.3337   5.5383   5.6699   5.7853   5.8323   6.0908
     6.1550   6.4291   6.5443   6.5644   6.7176   6.8731   7.1020   7.2527
     7.3367   7.3941   7.4727   7.6664   7.8396   7.8556   7.9587   8.0946
     8.3194   8.7053   8.8940   8.9551  10.2325  11.6950  13.1199  14.2538

          k = 0.3889 0.6736 0.0000 (  4511 PWs)   bands (ev):

   -38.6128 -38.5869 -38.5684 -38.5491 -38.5320 -38.4181 -38.4104 -38.3838
   -38.3681 -38.3332 -38.2895 -38.2828 -38.2355 -38.2021 -38.1649 -38.0923
   -38.0921 -37.9347 -37.9342 -37.7212 -37.7209   3.0264   3.3695   3.4022
     3.5989   3.6584   3.8132   3.8239   4.1070   4.2045   4.2607   4.5139
     4.5164   4.7060   4.9539   5.3190   5.5177   5.7325   5.8982   5.9313
     6.2639   6.3416   6.7204   6.7386   6.8169   7.1484   7.4785   7.6961
     7.8303   8.2558   8.3684   8.4311   8.6160   8.6892   8.9049   8.9106
    13.2284  13.5341  13.8424  14.1460  14.5030  14.8926  15.2317  16.6219

          k = 0.3889-0.3528 0.0000 (  4485 PWs)   bands (ev):

   -38.6538 -38.6282 -38.6160 -38.5834 -38.5655 -38.3899 -38.3644 -38.3061
   -38.2999 -38.2828 -38.2571 -38.2217 -38.2190 -38.1643 -38.1473 -38.1189
   -38.1167 -37.8414 -37.8413 -37.7252 -37.7249   2.6391   2.8283   2.9412
     2.9918   3.1754   3.2806   3.3599   3.6850   3.8108   3.9104   4.4263
     4.7463   5.0073   5.3842   5.4887   5.6897   5.8334   5.9407   6.4359
     6.5940   6.6413   7.1938   7.3012   7.6526   7.7857   7.8952   8.2439
     8.3737   8.3842   8.4585   8.6050   8.7957   8.8892   9.0328   9.2076
    10.7665  11.2616  11.6474  11.9955  12.7345  13.7083  14.5385  16.4189

          k = 0.3889-0.2245 0.0000 (  4444 PWs)   bands (ev):

   -38.6296 -38.6093 -38.5970 -38.5681 -38.5327 -38.4159 -38.3658 -38.2847
   -38.2531 -38.2419 -38.2342 -38.1986 -38.1612 -38.1468 -38.1171 -38.1006
   -38.0961 -37.7953 -37.7951 -37.7292 -37.7288   2.5886   2.6429   2.8279
     2.9231   2.9927   3.1756   3.2567   3.5742   3.6588   3.8744   4.5225
     4.9479   5.3048   5.3826   5.5395   5.8669   5.8922   5.9496   6.4713
     6.6747   6.8148   7.1482   7.5408   7.8050   8.0623   8.1969   8.2734
     8.4216   8.5015   8.5412   8.5725   8.6825   8.7282   8.8680   8.9674
     9.0756   9.1859   9.4270   9.9567  11.3655  12.9406  14.5190  16.0538

          k =-0.5000-0.8660 0.0000 (  4492 PWs)   bands (ev):

   -38.6860 -38.6607 -38.6483 -38.6104 -38.5972 -38.3751 -38.3708 -38.2844
   -38.2708 -38.2660 -38.2579 -38.2130 -38.1743 -38.1735 -38.1435 -38.1303
   -38.1293 -37.8095 -37.8093 -37.7261 -37.7260   2.3626   2.5504   2.6607
     2.7143   2.8947   3.0224   3.0639   3.4171   3.4745   3.7195   4.4148
     4.8916   5.1253   5.2680   5.4324   5.8017   6.1821   6.2256   6.4143
     7.0940   7.1467   7.2131   7.8978   8.1502   8.3546   8.4836   8.7805
     8.8949   8.9212   8.9894   8.9949   9.0634   9.1874   9.3841   9.3887
     9.7318  10.8396  11.7319  11.9260  12.3151  12.4714  12.6046  16.1061

 ------ SPIN DOWN ----------


          k = 0.0556 0.0962 0.0000 (  4451 PWs)   bands (ev):

   -38.6490 -38.5700 -38.4144 -38.2646 -38.1678 -38.1637 -38.1409 -38.1379
   -38.1267 -38.1189 -38.0956 -38.0847 -38.0713 -38.0634 -38.0402 -37.7609
   -37.7601 -37.7340 -37.7339 -37.7021 -37.7019   1.0296   1.5278   2.2221
     2.7164   2.7216   3.0760   3.1154   4.9086   4.9149   5.1225   5.1764
     5.2918   5.3601   5.5615   5.5776   5.5963   5.6423   5.6755   5.7107
     5.8005   5.8384   5.8918   5.9685   6.0821   6.2253   6.2305   6.7569
     7.0466   7.0754   7.2869   7.3404   7.5109   7.5639   7.6679   7.7522
     8.0742   8.0974   8.5760   8.6170   8.7943   9.3644  10.2636  10.8181

          k = 0.0556 0.2245 0.0000 (  4420 PWs)   bands (ev):

   -38.5977 -38.5412 -38.4298 -38.3454 -38.2976 -38.2676 -38.2420 -38.2187
   -38.1747 -38.1709 -38.1545 -38.1306 -38.1069 -38.0875 -38.0665 -37.8605
   -37.8604 -37.7486 -37.7483 -37.7353 -37.7348   1.9428   2.3573   2.9423
     3.2784   3.4249   3.7226   3.8069   4.2198   4.5037   4.6054   4.6574
     4.8619   4.8802   5.3545   5.4752   5.6218   5.7090   5.7892   5.8519
     5.9094   6.0713   6.1812   6.2948   6.4519   6.5322   6.6493   6.7180
     6.7683   6.9306   7.0497   7.1685   7.3361   7.6166   7.7082   7.9649
     8.0900   8.4971   8.6450   8.7990   9.5263  10.7223  11.9298  12.8358

          k = 0.0556 0.3528 0.0000 (  4467 PWs)   bands (ev):

   -38.5611 -38.5380 -38.5165 -38.4908 -38.4393 -38.4210 -38.3542 -38.2704
   -38.2303 -38.2203 -38.2023 -38.1773 -38.1509 -38.1176 -38.1006 -38.0156
   -38.0151 -37.7791 -37.7791 -37.7379 -37.7378   2.7358   3.0190   3.0233
     3.1555   3.3718   3.4409   3.6837   3.8356   4.0936   4.1651   4.6518
     4.9467   5.1495   5.3596   5.5526   5.6483   5.6785   5.7869   6.0587
     6.1878   6.4499   6.6158   6.7580   6.8162   7.0567   7.3044   7.4482
     7.5247   7.7231   7.8355   7.9769   8.1029   8.2816   8.3463   8.4777
     8.4900   8.6400   8.8906   9.2912  10.6320  12.1319  13.6169  14.8293

          k = 0.0556 0.4811 0.0000 (  4463 PWs)   bands (ev):

   -38.6501 -38.6260 -38.6150 -38.5831 -38.5568 -38.4022 -38.3663 -38.2892
   -38.2710 -38.2592 -38.2436 -38.2086 -38.1849 -38.1486 -38.1334 -38.1166
   -38.1117 -37.8122 -37.8121 -37.7300 -37.7297   2.5548   2.6722   2.8212
     2.8860   3.0246   3.1888   3.2078   3.5759   3.6523   3.8367   4.4646
     4.8770   5.1929   5.3692   5.5089   5.7731   5.9554   5.9805   6.5110
     6.6881   6.8238   7.2381   7.5199   7.8536   8.0521   8.0841   8.3661
     8.4681   8.5812   8.6130   8.6991   8.7253   8.8799   8.9849   9.1319
     9.5797  10.1180  10.4343  10.7647  11.8450  13.2366  14.6075  16.3508

          k = 0.0556-0.5453 0.0000 (  4486 PWs)   bands (ev):

   -38.6782 -38.6526 -38.6393 -38.6041 -38.5885 -38.3795 -38.3690 -38.2902
   -38.2815 -38.2682 -38.2582 -38.2158 -38.1942 -38.1597 -38.1454 -38.1318
   -38.1285 -37.8200 -37.8196 -37.7285 -37.7281   2.4377   2.6217   2.7386
     2.7786   2.9695   3.1092   3.1171   3.4932   3.5624   3.7624   4.4227
     4.8482   5.0974   5.3187   5.4468   5.8117   5.9842   6.1311   6.5177
     6.8240   7.0603   7.2940   7.7160   8.0700   8.1899   8.4307   8.4848
     8.6870   8.7937   8.8578   8.8858   8.9522   9.0349   9.1475   9.2553
    10.2069  11.0046  11.7207  11.8870  12.1776  12.8813  13.4664  16.1908

          k = 0.0556-0.4170 0.0000 (  4465 PWs)   bands (ev):

   -38.5992 -38.5867 -38.5684 -38.5435 -38.5004 -38.4314 -38.3660 -38.2813
   -38.2537 -38.2429 -38.2238 -38.1953 -38.1699 -38.1336 -38.1183 -38.0767
   -38.0746 -37.7983 -37.7983 -37.7334 -37.7330   2.7420   2.7673   2.9749
     3.0669   3.1075   3.3116   3.3991   3.7004   3.8377   3.9739   4.5542
     4.9179   5.3252   5.4534   5.5858   5.6467   5.7086   6.0021   6.2720
     6.3891   6.6243   7.0005   7.1948   7.3911   7.5752   7.6937   7.9884
     8.0786   8.1226   8.2587   8.3529   8.5097   8.6164   8.7060   8.8864
     9.0013   9.2001   9.2697   9.8969  11.2511  12.8059  14.3775  15.7501

          k = 0.0556-0.2887 0.0000 (  4439 PWs)   bands (ev):

   -38.5681 -38.5302 -38.4653 -38.4178 -38.3772 -38.3420 -38.3114 -38.2518
   -38.2029 -38.1948 -38.1801 -38.1547 -38.1291 -38.1013 -38.0828 -37.9401
   -37.9396 -37.7570 -37.7569 -37.7429 -37.7427   2.4589   2.7673   3.1322
     3.2941   3.5443   3.7171   3.9202   4.0565   4.2348   4.4011   4.6435
     4.7146   4.9978   5.1317   5.4895   5.6673   5.7570   5.8100   5.9119
     6.0539   6.1192   6.2691   6.3910   6.7080   6.7309   6.8306   6.9975
     7.1460   7.2262   7.3384   7.5943   7.6942   7.8272   7.9583   8.0679
     8.2495   8.5470   8.8335   8.9062  10.0589  11.4277  12.7831  13.8535

          k = 0.0556-0.1604 0.0000 (  4443 PWs)   bands (ev):

   -38.6272 -38.5569 -38.4174 -38.2923 -38.2237 -38.2070 -38.1815 -38.1726
   -38.1510 -38.1427 -38.1236 -38.1089 -38.0846 -38.0777 -38.0522 -37.7905
   -37.7903 -37.7535 -37.7532 -37.7161 -37.7161   1.4233   1.8973   2.5673
     3.0121   3.0565   3.3961   3.4364   4.5872   4.7176   4.8678   4.9485
     5.0857   5.1160   5.4357   5.5572   5.6693   5.7447   5.7756   5.8688
     5.9016   5.9482   6.0075   6.0273   6.2043   6.2602   6.4628   6.5237
     6.8828   6.9684   7.0554   7.1173   7.3099   7.4956   7.6377   7.8592
     8.0161   8.3635   8.5434   8.7795   9.0393  10.0237  11.0748  11.7992

          k = 0.0556-0.0321 0.0000 (  4465 PWs)   bands (ev):

   -38.6606 -38.5776 -38.4150 -38.2555 -38.1400 -38.1364 -38.1299 -38.1256
   -38.1040 -38.0962 -38.0911 -38.0681 -38.0672 -38.0448 -38.0330 -37.7631
   -37.7620 -37.7059 -37.7058 -37.6947 -37.6945   0.8210   1.3273   2.0277
     2.5352   2.5457   2.8928   2.9320   5.0704   5.0962   5.2693   5.3428
     5.3911   5.4136   5.4240   5.4921   5.5478   5.5927   5.6603   5.6742
     5.6935   5.7289   5.9378   5.9971   6.0731   6.0837   6.2863   7.1554
     7.1794   7.2461   7.3678   7.3801   7.5214   7.5624   7.8209   7.9275
     8.1306   8.2460   8.2672   8.6430   8.8315   8.8399   9.6343  10.0704

          k = 0.1667 0.2887 0.0000 (  4425 PWs)   bands (ev):

   -38.5455 -38.5298 -38.4820 -38.4446 -38.4149 -38.3821 -38.3419 -38.2710
   -38.2241 -38.2237 -38.1846 -38.1813 -38.1578 -38.1429 -38.0927 -37.9719
   -37.9719 -37.7900 -37.7899 -37.7389 -37.7385   2.9263   3.0979   3.3812
     3.7225   3.8845   3.8953   4.0343   4.0521   4.1185   4.3006   4.4146
     4.5364   4.9959   5.0276   5.1177   5.3170   5.4908   5.5237   5.5538
     5.6304   6.1906   6.2357   6.4490   6.5821   6.6567   7.1121   7.1458
     7.3277   7.5567   7.7310   7.9482   8.1837   8.3007   8.4304   8.4369
     8.5588   8.6252   8.7073   9.3899  10.6090  11.9872  13.3869  14.5378

          k = 0.1667 0.4170 0.0000 (  4459 PWs)   bands (ev):

   -38.5833 -38.5654 -38.5591 -38.5287 -38.4988 -38.4396 -38.3721 -38.2976
   -38.2969 -38.2825 -38.2399 -38.2345 -38.2061 -38.1838 -38.1246 -38.0681
   -38.0675 -37.8525 -37.8524 -37.7301 -37.7300   3.1052   3.1700   3.3326
     3.4941   3.5357   3.6177   3.8321   3.9100   4.1290   4.3096   4.5684
     4.6948   4.9466   5.0922   5.1970   5.4519   5.5290   5.8921   5.9565
     6.1270   6.2181   6.4516   6.5785   6.8416   7.1269   7.2741   7.3952
     7.6317   7.7541   7.9910   8.4709   8.7686   8.8609   8.9332   9.1030
    10.1707  10.3234  10.5443  11.1554  12.2571  13.6335  15.0909  16.3825

          k = 0.1667 0.5453 0.0000 (  4490 PWs)   bands (ev):

   -38.6411 -38.6163 -38.5997 -38.5711 -38.5556 -38.3917 -38.3714 -38.3492
   -38.3294 -38.3125 -38.2734 -38.2485 -38.2379 -38.1896 -38.1535 -38.1136
   -38.1132 -37.8865 -37.8864 -37.7254 -37.7254   2.8013   3.0873   3.1476
     3.2308   3.4156   3.4967   3.6249   3.8581   4.0620   4.1176   4.4527
     4.5693   4.7727   5.1902   5.4911   5.6548   5.7196   5.9436   6.2161
     6.3126   6.5440   6.8312   7.1976   7.2536   7.3485   7.7154   8.0026
     8.1486   8.2787   8.3888   8.5657   8.7024   8.7850   8.9823   9.1095
    12.0315  12.4622  12.8770  13.2745  13.7732  14.2393  14.4985  16.4933

          k = 0.1667-0.4811 0.0000 (  4476 PWs)   bands (ev):

   -38.6203 -38.5959 -38.5873 -38.5560 -38.5362 -38.4137 -38.3709 -38.3276
   -38.3168 -38.3018 -38.2614 -38.2490 -38.2234 -38.1893 -38.1416 -38.0983
   -38.0976 -37.8747 -37.8745 -37.7271 -37.7269   2.9090   3.1181   3.2033
     3.3442   3.4526   3.5419   3.6955   3.8971   4.0689   4.1999   4.4663
     4.6738   4.8826   5.0704   5.4531   5.5556   5.7526   5.9546   6.0463
     6.1764   6.5313   6.6806   6.9449   7.0719   7.1946   7.6084   7.8038
     7.8156   7.9679   8.1148   8.5263   8.8232   8.8736   9.0335   9.1995
    11.1383  11.4102  11.7228  12.2897  13.2171  14.3825  15.5383  16.7259

          k = 0.1667-0.3528 0.0000 (  4458 PWs)   bands (ev):

   -38.5477 -38.5382 -38.5203 -38.4918 -38.4518 -38.4461 -38.3666 -38.2832
   -38.2603 -38.2558 -38.2162 -38.1974 -38.1915 -38.1692 -38.1077 -38.0249
   -38.0248 -37.8228 -37.8228 -37.7345 -37.7343   3.1943   3.2867   3.4216
     3.5497   3.6724   3.7711   3.8763   4.0266   4.2714   4.3048   4.5127
     4.6702   4.8651   4.9736   5.2383   5.3547   5.3882   5.6010   5.8048
     5.8767   6.1116   6.1617   6.4649   6.7125   6.8806   7.0542   7.3177
     7.4877   7.6894   7.8626   8.3271   8.5244   8.6331   8.6716   8.8771
     9.2764   9.3462   9.4882  10.1298  11.3441  12.7644  14.2236  15.4594

          k = 0.1667-0.2245 0.0000 (  4433 PWs)   bands (ev):

   -38.5723 -38.5319 -38.4506 -38.3932 -38.3551 -38.3174 -38.2982 -38.2509
   -38.1961 -38.1936 -38.1705 -38.1530 -38.1306 -38.1084 -38.0810 -37.9151
   -37.9150 -37.7596 -37.7596 -37.7439 -37.7436   2.4112   2.7448   3.2237
     3.5677   3.7137   3.8727   3.9917   4.1615   4.2820   4.3511   4.5170
     4.6706   4.8018   5.1077   5.2869   5.4474   5.5136   5.6278   5.7712
     5.8180   6.0595   6.2198   6.5489   6.5708   6.6100   6.8135   6.9382
     7.1707   7.1890   7.2737   7.5963   7.6955   7.8802   8.0257   8.0381
     8.1426   8.4430   8.6698   8.9381  10.0244  11.3093  12.6152  13.6508

          k = 0.1667-0.0962 0.0000 (  4427 PWs)   bands (ev):

   -38.6176 -38.5512 -38.4203 -38.3101 -38.2523 -38.2286 -38.2003 -38.1849
   -38.1623 -38.1560 -38.1314 -38.1191 -38.0910 -38.0826 -38.0532 -37.8163
   -37.8162 -37.7520 -37.7516 -37.7209 -37.7207   1.6014   2.0572   2.6995
     3.0883   3.1922   3.5139   3.5738   4.4009   4.6941   4.7614   4.8423
     5.0104   5.0287   5.5082   5.5436   5.6923   5.7807   5.7834   5.9016
     6.0036   6.0444   6.0852   6.1253   6.1428   6.3252   6.4751   6.6256
     6.7070   6.9202   6.9593   7.1326   7.2922   7.5064   7.5936   7.8689
     8.1676   8.2856   8.6720   8.8900   9.1217  10.2620  11.3858  12.1788

          k = 0.2778 0.4811 0.0000 (  4485 PWs)   bands (ev):

   -38.5780 -38.5754 -38.5509 -38.5434 -38.4930 -38.4639 -38.4232 -38.3779
   -38.3518 -38.3467 -38.3003 -38.2838 -38.2258 -38.2123 -38.1579 -38.0760
   -38.0760 -37.9462 -37.9461 -37.7242 -37.7241   3.3320   3.3441   3.5213
     3.6296   3.8714   3.9897   4.1123   4.1437   4.2984   4.3772   4.4308
     4.4997   4.8335   4.9683   5.1610   5.3372   5.5975   5.6901   6.0324
     6.0392   6.2633   6.2652   6.7381   6.8407   6.9916   7.2431   7.3890
     7.4591   7.8004   8.1455   8.5131   8.7842   8.8249   8.8817   9.0937
    12.4849  12.7247  13.1803  13.8583  14.7811  15.8741  16.8115  16.9278

          k = 0.2778 0.6094 0.0000 (  4491 PWs)   bands (ev):

   -38.5763 -38.5569 -38.5395 -38.5317 -38.5043 -38.4593 -38.4499 -38.4122
   -38.3957 -38.3653 -38.2987 -38.2913 -38.2234 -38.2112 -38.1736 -38.0677
   -38.0676 -37.9787 -37.9785 -37.7228 -37.7225   3.3002   3.5518   3.5952
     3.7493   3.8580   4.0073   4.0426   4.1516   4.2422   4.3366   4.4236
     4.5858   4.7443   5.0959   5.2177   5.4194   5.5353   5.6858   5.9511
     6.0012   6.3064   6.3251   6.7091   6.8974   7.0844   7.2390   7.4207
     7.4900   8.0981   8.3042   8.4506   8.6108   8.6733   8.7282   8.8707
    13.6972  14.0020  14.4555  14.8985  15.2872  15.7434  16.2799  16.5025

          k = 0.2778-0.4170 0.0000 (  4462 PWs)   bands (ev):

   -38.5874 -38.5720 -38.5632 -38.5379 -38.5077 -38.4424 -38.3896 -38.3344
   -38.3271 -38.3128 -38.2778 -38.2607 -38.2252 -38.2046 -38.1397 -38.0776
   -38.0773 -37.9002 -37.9002 -37.7265 -37.7264   3.1860   3.3222   3.4273
     3.5712   3.7184   3.7864   3.9587   4.1649   4.2534   4.3142   4.5671
     4.7178   4.7656   4.8636   5.2219   5.2697   5.5823   5.7879   6.0167
     6.0948   6.2526   6.3283   6.5442   6.8204   7.0386   7.2628   7.4238
     7.5508   7.6472   8.0005   8.5165   8.8819   8.9118   9.0076   9.1996
    11.3108  11.4706  11.8235  12.4694  13.4704  14.7233  16.0582  17.2212

          k = 0.2778-0.2887 0.0000 (  4463 PWs)   bands (ev):

   -38.5677 -38.5588 -38.5378 -38.5152 -38.4682 -38.4429 -38.3650 -38.2796
   -38.2609 -38.2491 -38.2174 -38.1945 -38.1886 -38.1438 -38.1132 -38.0470
   -38.0463 -37.8105 -37.8102 -37.7339 -37.7338   2.9508   3.0656   3.2215
     3.2791   3.3815   3.5215   3.6500   3.8807   4.0697   4.2046   4.5528
     4.8049   5.1394   5.2094   5.3930   5.5376   5.6490   5.7883   5.9781
     6.1801   6.3491   6.5764   6.6961   6.8373   7.1276   7.3183   7.4589
     7.5804   7.8192   8.1239   8.3524   8.4459   8.6441   8.6596   8.9069
     9.1299   9.3119   9.4018  10.0377  11.2932  12.7673  14.2737  15.5516

          k = 0.2778-0.1604 0.0000 (  4458 PWs)   bands (ev):

   -38.5627 -38.5283 -38.4916 -38.4547 -38.4092 -38.3791 -38.3346 -38.2602
   -38.2115 -38.2028 -38.1931 -38.1621 -38.1285 -38.1094 -38.0867 -37.9772
   -37.9770 -37.7617 -37.7616 -37.7411 -37.7407   2.5661   2.8494   3.0364
     3.1567   3.4355   3.5208   3.8039   3.8716   4.1178   4.2926   4.7102
     4.9369   5.1539   5.3331   5.5379   5.6694   5.7852   5.8316   6.0900
     6.1542   6.4282   6.5436   6.5634   6.7169   6.8725   7.1013   7.2520
     7.3362   7.3932   7.4725   7.6656   7.8385   7.8546   7.9574   8.0938
     8.3185   8.7039   8.8932   8.9545  10.2318  11.6944  13.1193  14.2535

          k = 0.3889 0.6736 0.0000 (  4511 PWs)   bands (ev):

   -38.6132 -38.5878 -38.5687 -38.5493 -38.5321 -38.4186 -38.4111 -38.3839
   -38.3690 -38.3339 -38.2901 -38.2831 -38.2354 -38.2020 -38.1646 -38.0941
   -38.0939 -37.9365 -37.9361 -37.7239 -37.7236   3.0263   3.3690   3.4021
     3.5988   3.6581   3.8127   3.8234   4.1064   4.2039   4.2602   4.5134
     4.5162   4.7054   4.9533   5.3183   5.5171   5.7313   5.8980   5.9301
     6.2632   6.3413   6.7197   6.7375   6.8160   7.1478   7.4779   7.6950
     7.8296   8.2544   8.3664   8.4305   8.6152   8.6883   8.9041   8.9105
    13.2282  13.5338  13.8420  14.1457  14.5026  14.8922  15.2314  16.6219

          k = 0.3889-0.3528 0.0000 (  4485 PWs)   bands (ev):

   -38.6542 -38.6291 -38.6162 -38.5837 -38.5656 -38.3906 -38.3653 -38.3068
   -38.3005 -38.2830 -38.2573 -38.2220 -38.2193 -38.1642 -38.1474 -38.1205
   -38.1181 -37.8433 -37.8432 -37.7279 -37.7276   2.6390   2.8282   2.9409
     2.9915   3.1748   3.2803   3.3595   3.6845   3.8101   3.9095   4.4257
     4.7458   5.0069   5.3836   5.4880   5.6890   5.8330   5.9399   6.4351
     6.5932   6.6408   7.1931   7.3004   7.6517   7.7848   7.8942   8.2427
     8.3726   8.3834   8.4578   8.6038   8.7955   8.8882   9.0318   9.2071
    10.7661  11.2611  11.6470  11.9951  12.7341  13.7079  14.5384  16.4178

          k = 0.3889-0.2245 0.0000 (  4444 PWs)   bands (ev):

   -38.6299 -38.6099 -38.5974 -38.5685 -38.5328 -38.4164 -38.3666 -38.2850
   -38.2535 -38.2427 -38.2343 -38.1990 -38.1614 -38.1469 -38.1170 -38.1023
   -38.0976 -37.7972 -37.7970 -37.7318 -37.7314   2.5885   2.6428   2.8275
     2.9229   2.9925   3.1752   3.2562   3.5734   3.6582   3.8737   4.5219
     4.9473   5.3038   5.3823   5.5393   5.8661   5.8914   5.9491   6.4705
     6.6739   6.8139   7.1474   7.5400   7.8041   8.0610   8.1966   8.2724
     8.4214   8.5007   8.5401   8.5719   8.6821   8.7274   8.8668   8.9658
     9.0748   9.1856   9.4267   9.9562  11.3651  12.9401  14.5186  16.0534

          k =-0.5000-0.8660 0.0000 (  4492 PWs)   bands (ev):

   -38.6863 -38.6616 -38.6485 -38.6106 -38.5973 -38.3760 -38.3719 -38.2842
   -38.2712 -38.2663 -38.2587 -38.2134 -38.1746 -38.1741 -38.1451 -38.1312
   -38.1291 -37.8114 -37.8112 -37.7288 -37.7287   2.3625   2.5503   2.6603
     2.7142   2.8943   3.0220   3.0635   3.4164   3.4738   3.7188   4.4143
     4.8911   5.1244   5.2674   5.4323   5.8009   6.1815   6.2251   6.4134
     7.0929   7.1459   7.2121   7.8967   8.1487   8.3540   8.4822   8.7800
     8.8947   8.9205   8.9889   8.9941   9.0630   9.1873   9.3823   9.3870
     9.7315  10.8394  11.7317  11.9257  12.3147  12.4713  12.6044  16.1049

     the Fermi energy is     8.3381 ev

!    total energy              =   -1198.23198887 Ry
     estimated scf accuracy    <       0.00000035 Ry
     smearing contrib. (-TS)   =      -0.03055428 Ry
     internal energy E=F+TS    =   -1198.20143459 Ry

     The total energy is F=E-TS. E is the sum of the following terms:
     one-electron contribution =  -13436.68654252 Ry
     hartree contribution      =    6764.15227953 Ry
     xc contribution           =    -209.34940431 Ry
     ewald contribution        =    5683.68223271 Ry

     total magnetization       =    -0.01 Bohr mag/cell
     absolute magnetization    =     0.01 Bohr mag/cell

     convergence has been achieved in   9 iterations

     negative rho (up, down):  2.021E-01 2.021E-01

     Forces acting on atoms (cartesian axes, Ry/au):

     atom    1 type  1   force =     0.00000000    0.00000000    0.00947969
     atom    2 type  1   force =     0.00000000    0.00000000   -0.00469783
     atom    3 type  1   force =     0.00000000    0.00000000   -0.00552626
     atom    4 type  1   force =     0.00000000    0.00000000    0.00001210
     atom    5 type  1   force =     0.00000000    0.00000000    0.00553654
     atom    6 type  1   force =     0.00000000    0.00000000    0.00468886
     atom    7 type  1   force =     0.00000000    0.00000000   -0.00949310

     Total force =     0.016889     Total SCF correction =     0.005202
     SCF correction compared to forces is large: reduce conv_thr to get better values
     Energy error            =      4.4E-04
     Gradient error          =      9.5E-03

     number of scf cycles    =   2
     number of bfgs steps    =   1

     energy   old            =   -1198.2315509917 Ry
     energy   new            =   -1198.2319888655 Ry

     CASE: energy  _new < energy  _old

     new trust radius        =       0.0134173960 bohr
     new conv_thr            =       0.0000004379 Ry


ATOMIC_POSITIONS (angstrom)
Rh            0.0000000000        0.0000000000        0.0135449040
Rh            1.3554284000       -0.7825569000        2.2059787384
Rh            1.3554284000        0.7825569000        4.4191229125
Rh            0.0000000000        0.0000000000        6.6402221229
Rh            1.3554284000       -0.7825569000        8.8613151789
Rh            1.3554284000        0.7825569000       11.0744504328
Rh            0.0000000000        0.0000000000       13.2668768106



     Writing output data file /home/STUDENTI/leonardo.razzai/Rh_work/surf_111/7-L.save/
     NEW-OLD atomic charge density approx. for the potential

     negative rho (up, down):  2.017E-01 2.017E-01
     Generating pointlists ...

     total cpu time spent up to now is      234.6 secs

     Self-consistent Calculation

     iteration #  1     ecut=    35.00 Ry     beta= 0.40
     Davidson diagonalization with overlap
     ethr =  1.00E-06,  avg # of iterations =  6.0

     negative rho (up, down):  2.017E-01 2.017E-01

     total cpu time spent up to now is      251.4 secs

     total energy              =   -1198.23157974 Ry
     estimated scf accuracy    <       0.03449916 Ry

     total magnetization       =    -0.00 Bohr mag/cell
     absolute magnetization    =     0.01 Bohr mag/cell

     iteration #  2     ecut=    35.00 Ry     beta= 0.40
     Davidson diagonalization with overlap
     ethr =  3.29E-05,  avg # of iterations =  1.0

     negative rho (up, down):  2.017E-01 2.017E-01

     total cpu time spent up to now is      259.1 secs

     total energy              =   -1198.23211739 Ry
     estimated scf accuracy    <       0.01955131 Ry

     total magnetization       =    -0.00 Bohr mag/cell
     absolute magnetization    =     0.01 Bohr mag/cell

     iteration #  3     ecut=    35.00 Ry     beta= 0.40
     Davidson diagonalization with overlap
     ethr =  1.86E-05,  avg # of iterations =  1.0

     negative rho (up, down):  2.017E-01 2.017E-01

     total cpu time spent up to now is      266.9 secs

     total energy              =   -1198.23233204 Ry
     estimated scf accuracy    <       0.00078072 Ry

     total magnetization       =    -0.00 Bohr mag/cell
     absolute magnetization    =     0.01 Bohr mag/cell

     iteration #  4     ecut=    35.00 Ry     beta= 0.40
     Davidson diagonalization with overlap
     ethr =  7.44E-07,  avg # of iterations =  1.0

     negative rho (up, down):  2.017E-01 2.017E-01

     total cpu time spent up to now is      274.6 secs

     total energy              =   -1198.23231460 Ry
     estimated scf accuracy    <       0.00037034 Ry

     total magnetization       =    -0.00 Bohr mag/cell
     absolute magnetization    =     0.00 Bohr mag/cell

     iteration #  5     ecut=    35.00 Ry     beta= 0.40
     Davidson diagonalization with overlap
     ethr =  3.53E-07,  avg # of iterations =  1.0

     negative rho (up, down):  2.017E-01 2.017E-01

     total cpu time spent up to now is      282.3 secs

     total energy              =   -1198.23232466 Ry
     estimated scf accuracy    <       0.00000237 Ry

     total magnetization       =    -0.00 Bohr mag/cell
     absolute magnetization    =     0.00 Bohr mag/cell

     iteration #  6     ecut=    35.00 Ry     beta= 0.40
     Davidson diagonalization with overlap
     ethr =  2.26E-09,  avg # of iterations =  2.6

     negative rho (up, down):  2.017E-01 2.017E-01

     total cpu time spent up to now is      291.9 secs

     total energy              =   -1198.23232496 Ry
     estimated scf accuracy    <       0.00000125 Ry

     total magnetization       =    -0.00 Bohr mag/cell
     absolute magnetization    =     0.00 Bohr mag/cell

     iteration #  7     ecut=    35.00 Ry     beta= 0.40
     Davidson diagonalization with overlap
     ethr =  1.19E-09,  avg # of iterations =  1.0

     negative rho (up, down):  2.017E-01 2.017E-01

     total cpu time spent up to now is      299.7 secs

     total energy              =   -1198.23232493 Ry
     estimated scf accuracy    <       0.00000150 Ry

     total magnetization       =    -0.00 Bohr mag/cell
     absolute magnetization    =     0.00 Bohr mag/cell

     iteration #  8     ecut=    35.00 Ry     beta= 0.40
     Davidson diagonalization with overlap
     ethr =  1.19E-09,  avg # of iterations =  1.0

     negative rho (up, down):  2.017E-01 2.017E-01

     total cpu time spent up to now is      307.4 secs

     total energy              =   -1198.23232494 Ry
     estimated scf accuracy    <       0.00000153 Ry

     total magnetization       =    -0.00 Bohr mag/cell
     absolute magnetization    =     0.00 Bohr mag/cell

     iteration #  9     ecut=    35.00 Ry     beta= 0.40
     Davidson diagonalization with overlap
     ethr =  1.19E-09,  avg # of iterations =  1.0

     negative rho (up, down):  2.017E-01 2.017E-01

     total cpu time spent up to now is      315.1 secs

     total energy              =   -1198.23232504 Ry
     estimated scf accuracy    <       0.00000047 Ry

     total magnetization       =    -0.00 Bohr mag/cell
     absolute magnetization    =     0.00 Bohr mag/cell

     iteration # 10     ecut=    35.00 Ry     beta= 0.40
     Davidson diagonalization with overlap
     ethr =  4.46E-10,  avg # of iterations =  1.1

     negative rho (up, down):  2.017E-01 2.017E-01
 
     Magnetic moment per site:
     atom:    1    charge:   13.1821    magn:   -0.0002    constr:    0.0000
     atom:    2    charge:   13.2428    magn:   -0.0001    constr:    0.0000
     atom:    3    charge:   13.2450    magn:    0.0000    constr:    0.0000
     atom:    4    charge:   13.2455    magn:    0.0001    constr:    0.0000
     atom:    5    charge:   13.2446    magn:    0.0000    constr:    0.0000
     atom:    6    charge:   13.2429    magn:   -0.0001    constr:    0.0000
     atom:    7    charge:   13.1821    magn:   -0.0002    constr:    0.0000

     total cpu time spent up to now is      322.8 secs

     End of self-consistent calculation

 ------ SPIN UP ------------


          k = 0.0556 0.0962 0.0000 (  4451 PWs)   bands (ev):

   -38.6430 -38.5730 -38.4151 -38.2638 -38.1693 -38.1625 -38.1401 -38.1377
   -38.1202 -38.1158 -38.0900 -38.0780 -38.0653 -38.0563 -38.0319 -37.7663
   -37.7653 -37.7377 -37.7376 -37.7059 -37.7058   1.0360   1.5212   2.2180
     2.7229   2.7265   3.0625   3.1041   4.9118   4.9197   5.1260   5.1801
     5.2882   5.3579   5.5605   5.5816   5.6047   5.6488   5.6704   5.7050
     5.8000   5.8403   5.8927   5.9651   6.0853   6.2157   6.2203   6.7554
     7.0512   7.0835   7.2869   7.3377   7.5135   7.5603   7.6703   7.7576
     8.0715   8.0999   8.5837   8.6189   8.8008   9.3677  10.2761  10.8263

          k = 0.0556 0.2245 0.0000 (  4420 PWs)   bands (ev):

   -38.5919 -38.5430 -38.4291 -38.3463 -38.2992 -38.2629 -38.2377 -38.2145
   -38.1732 -38.1711 -38.1501 -38.1251 -38.1012 -38.0806 -38.0586 -37.8641
   -37.8640 -37.7541 -37.7538 -37.7391 -37.7386   1.9494   2.3518   2.9382
     3.2845   3.4231   3.7113   3.7993   4.2230   4.5043   4.6045   4.6548
     4.8554   4.8772   5.3550   5.4726   5.6209   5.7120   5.7932   5.8563
     5.9136   6.0649   6.1817   6.2987   6.4471   6.5275   6.6451   6.7209
     6.7693   6.9282   7.0525   7.1672   7.3368   7.6218   7.7109   7.9660
     8.0931   8.5048   8.6512   8.8058   9.5316  10.7293  11.9424  12.8436

          k = 0.0556 0.3528 0.0000 (  4467 PWs)   bands (ev):

   -38.5562 -38.5335 -38.5160 -38.4925 -38.4387 -38.4160 -38.3533 -38.2688
   -38.2288 -38.2211 -38.1975 -38.1729 -38.1456 -38.1102 -38.0931 -38.0184
   -38.0178 -37.7828 -37.7828 -37.7441 -37.7439   2.7424   3.0161   3.0308
     3.1499   3.3739   3.4339   3.6760   3.8271   4.0894   4.1579   4.6476
     4.9484   5.1464   5.3593   5.5536   5.6554   5.6817   5.7880   6.0548
     6.1803   6.4481   6.6096   6.7522   6.8173   7.0531   7.3063   7.4557
     7.5252   7.7263   7.8366   7.9823   8.1023   8.2825   8.3519   8.4810
     8.4920   8.6502   8.8971   9.2978  10.6408  12.1421  13.6262  14.8373

          k = 0.0556 0.4811 0.0000 (  4463 PWs)   bands (ev):

   -38.6465 -38.6273 -38.6102 -38.5801 -38.5503 -38.4038 -38.3719 -38.2859
   -38.2690 -38.2583 -38.2377 -38.2046 -38.1799 -38.1427 -38.1284 -38.1170
   -38.1106 -37.8159 -37.8158 -37.7368 -37.7364   2.5616   2.6787   2.8151
     2.8890   3.0200   3.1847   3.2000   3.5656   3.6457   3.8275   4.4612
     4.8766   5.2005   5.3727   5.5127   5.7680   5.9483   5.9835   6.5018
     6.6834   6.8282   7.2348   7.5176   7.8557   8.0511   8.0890   8.3743
     8.4723   8.5819   8.6172   8.7063   8.7301   8.8827   8.9862   9.1364
     9.5830  10.1180  10.4381  10.7691  11.8536  13.2473  14.6118  16.3562

          k = 0.0556-0.5453 0.0000 (  4486 PWs)   bands (ev):

   -38.6747 -38.6545 -38.6346 -38.6004 -38.5815 -38.3844 -38.3756 -38.2847
   -38.2791 -38.2643 -38.2541 -38.2118 -38.1894 -38.1556 -38.1446 -38.1280
   -38.1253 -37.8236 -37.8233 -37.7354 -37.7350   2.4445   2.6280   2.7296
     2.7848   2.9628   3.1058   3.1108   3.4846   3.5538   3.7526   4.4182
     4.8480   5.1057   5.3231   5.4503   5.7994   5.9839   6.1343   6.5082
     6.8194   7.0651   7.2905   7.7169   8.0728   8.1925   8.4387   8.4889
     8.6917   8.7936   8.8623   8.8918   8.9569   9.0371   9.1479   9.2580
    10.2105  11.0038  11.7248  11.8907  12.1855  12.8909  13.4710  16.1874

          k = 0.0556-0.4170 0.0000 (  4465 PWs)   bands (ev):

   -38.5955 -38.5834 -38.5669 -38.5426 -38.4945 -38.4307 -38.3690 -38.2796
   -38.2520 -38.2431 -38.2183 -38.1913 -38.1647 -38.1263 -38.1112 -38.0789
   -38.0762 -37.8020 -37.8019 -37.7399 -37.7395   2.7483   2.7744   2.9708
     3.0619   3.1112   3.3054   3.3911   3.6895   3.8326   3.9658   4.5519
     4.9174   5.3282   5.4573   5.5888   5.6476   5.7105   5.9910   6.2723
     6.3877   6.6170   6.9986   7.1895   7.3885   7.5764   7.6952   7.9953
     8.0840   8.1258   8.2595   8.3594   8.5128   8.6188   8.7139   8.8899
     9.0064   9.2018   9.2723   9.9022  11.2605  12.8169  14.3844  15.7580

          k = 0.0556-0.2887 0.0000 (  4439 PWs)   bands (ev):

   -38.5625 -38.5303 -38.4632 -38.4196 -38.3785 -38.3369 -38.3069 -38.2491
   -38.2014 -38.1956 -38.1759 -38.1496 -38.1236 -38.0941 -38.0751 -37.9434
   -37.9429 -37.7607 -37.7607 -37.7487 -37.7485   2.4658   2.7634   3.1307
     3.2963   3.5367   3.7175   3.9141   4.0524   4.2336   4.3958   4.6393
     4.7060   4.9999   5.1320   5.4924   5.6698   5.7577   5.8143   5.9103
     6.0492   6.1154   6.2712   6.3869   6.7018   6.7315   6.8328   6.9952
     7.1511   7.2279   7.3410   7.5907   7.6948   7.8303   7.9613   8.0713
     8.2544   8.5570   8.8413   8.9119  10.0661  11.4364  12.7944  13.8613

          k = 0.0556-0.1604 0.0000 (  4443 PWs)   bands (ev):

   -38.6213 -38.5594 -38.4176 -38.2921 -38.2253 -38.2044 -38.1777 -38.1680
   -38.1501 -38.1424 -38.1166 -38.1032 -38.0787 -38.0712 -38.0440 -37.7944
   -37.7943 -37.7586 -37.7583 -37.7199 -37.7199   1.4297   1.8910   2.5631
     3.0203   3.0585   3.3828   3.4252   4.5905   4.7190   4.8735   4.9530
     5.0772   5.1091   5.4321   5.5588   5.6701   5.7501   5.7823   5.8723
     5.9011   5.9459   6.0041   6.0266   6.2061   6.2632   6.4512   6.5159
     6.8861   6.9736   7.0539   7.1188   7.3108   7.4997   7.6388   7.8625
     8.0149   8.3664   8.5512   8.7858   9.0433  10.0287  11.0878  11.8072

          k = 0.0556-0.0321 0.0000 (  4465 PWs)   bands (ev):

   -38.6545 -38.5807 -38.4159 -38.2545 -38.1399 -38.1374 -38.1294 -38.1266
   -38.0977 -38.0905 -38.0852 -38.0624 -38.0620 -38.0365 -38.0248 -37.7684
   -37.7671 -37.7097 -37.7096 -37.6986 -37.6983   0.8273   1.3206   2.0238
     2.5370   2.5559   2.8793   2.9208   5.0746   5.1008   5.2737   5.3446
     5.3969   5.4091   5.4292   5.4985   5.5416   5.6022   5.6575   5.6732
     5.6974   5.7315   5.9307   5.9893   6.0620   6.0736   6.2903   7.1568
     7.1857   7.2482   7.3697   7.3807   7.5211   7.5607   7.8165   7.9254
     8.1363   8.2518   8.2675   8.6512   8.8329   8.8456   9.6457  10.0788

          k = 0.1667 0.2887 0.0000 (  4425 PWs)   bands (ev):

   -38.5399 -38.5283 -38.4796 -38.4468 -38.4164 -38.3768 -38.3377 -38.2688
   -38.2250 -38.2249 -38.1785 -38.1783 -38.1519 -38.1338 -38.0854 -37.9750
   -37.9749 -37.7937 -37.7936 -37.7449 -37.7445   2.9342   3.0969   3.3781
     3.7161   3.8931   3.8952   4.0290   4.0561   4.1072   4.2879   4.4048
     4.5379   4.9922   5.0277   5.1137   5.3164   5.4903   5.5124   5.5465
     5.6435   6.1944   6.2383   6.4506   6.5743   6.6610   7.1140   7.1541
     7.3208   7.5600   7.7305   7.9526   8.1848   8.3073   8.4384   8.4387
     8.5619   8.6269   8.7121   9.3964  10.6178  11.9969  13.3966  14.5456

          k = 0.1667 0.4170 0.0000 (  4459 PWs)   bands (ev):

   -38.5801 -38.5635 -38.5564 -38.5269 -38.4927 -38.4385 -38.3737 -38.2993
   -38.2979 -38.2814 -38.2336 -38.2277 -38.2022 -38.1760 -38.1170 -38.0705
   -38.0697 -37.8560 -37.8560 -37.7367 -37.7366   3.1125   3.1772   3.3310
     3.4878   3.5351   3.6094   3.8242   3.9048   4.1222   4.3048   4.5639
     4.6873   4.9395   5.0981   5.1981   5.4470   5.5314   5.8907   5.9586
     6.1256   6.2128   6.4486   6.5757   6.8400   7.1310   7.2761   7.4029
     7.6343   7.7621   7.9985   8.4783   8.7734   8.8647   8.9377   9.1075
    10.1755  10.3259  10.5443  11.1586  12.2651  13.6435  15.0974  16.3901

          k = 0.1667 0.5453 0.0000 (  4490 PWs)   bands (ev):

   -38.6376 -38.6181 -38.5954 -38.5674 -38.5484 -38.3936 -38.3742 -38.3487
   -38.3316 -38.3081 -38.2686 -38.2437 -38.2320 -38.1827 -38.1452 -38.1156
   -38.1152 -37.8900 -37.8899 -37.7323 -37.7322   2.8085   3.0942   3.1386
     3.2364   3.4064   3.4908   3.6172   3.8543   4.0543   4.1065   4.4467
     4.5640   4.7822   5.1842   5.4877   5.6570   5.7216   5.9389   6.2132
     6.3186   6.5413   6.8287   7.1974   7.2512   7.3474   7.7212   8.0084
     8.1541   8.2847   8.3969   8.5735   8.7066   8.7909   8.9878   9.1145
    12.0358  12.4633  12.8791  13.2772  13.7786  14.2469  14.5029  16.4927

          k = 0.1667-0.4811 0.0000 (  4476 PWs)   bands (ev):

   -38.6169 -38.5978 -38.5823 -38.5527 -38.5295 -38.4134 -38.3739 -38.3289
   -38.3193 -38.2975 -38.2553 -38.2438 -38.2186 -38.1821 -38.1337 -38.1005
   -38.0995 -37.8782 -37.8780 -37.7338 -37.7337   2.9162   3.1251   3.1987
     3.3459   3.4447   3.5342   3.6884   3.8925   4.0606   4.1921   4.4612
     4.6667   4.8928   5.0631   5.4563   5.5487   5.7536   5.9546   6.0485
     6.1738   6.5304   6.6768   6.9398   7.0706   7.1968   7.6138   7.8084
     7.8216   7.9758   8.1231   8.5335   8.8281   8.8789   9.0384   9.2043
    11.1429  11.4116  11.7242  12.2928  13.2239  14.3911  15.5427  16.7309

          k = 0.1667-0.3528 0.0000 (  4458 PWs)   bands (ev):

   -38.5443 -38.5335 -38.5180 -38.4930 -38.4521 -38.4404 -38.3654 -38.2817
   -38.2619 -38.2575 -38.2099 -38.1904 -38.1883 -38.1606 -38.1003 -38.0276
   -38.0274 -37.8265 -37.8264 -37.7408 -37.7406   3.2013   3.2955   3.4170
     3.5476   3.6678   3.7679   3.8697   4.0210   4.2624   4.3046   4.4996
     4.6712   4.8606   4.9723   5.2367   5.3556   5.3881   5.5992   5.7986
     5.8741   6.1139   6.1642   6.4606   6.7157   6.8830   7.0555   7.3241
     7.4877   7.6939   7.8672   8.3335   8.5290   8.6405   8.6728   8.8815
     9.2814   9.3499   9.4869  10.1342  11.3530  12.7747  14.2316  15.4672

          k = 0.1667-0.2245 0.0000 (  4433 PWs)   bands (ev):

   -38.5666 -38.5325 -38.4490 -38.3947 -38.3567 -38.3125 -38.2929 -38.2476
   -38.1954 -38.1941 -38.1676 -38.1474 -38.1245 -38.1003 -38.0737 -37.9184
   -37.9183 -37.7634 -37.7634 -37.7496 -37.7493   2.4180   2.7404   3.2198
     3.5727   3.7099   3.8678   3.9885   4.1594   4.2833   4.3435   4.5089
     4.6711   4.7985   5.1052   5.2852   5.4445   5.5145   5.6267   5.7667
     5.8259   6.0611   6.2235   6.5410   6.5714   6.6086   6.8222   6.9354
     7.1719   7.1901   7.2735   7.5937   7.6942   7.8835   8.0292   8.0423
     8.1470   8.4525   8.6751   8.9451  10.0317  11.3178  12.6266  13.6586

          k = 0.1667-0.0962 0.0000 (  4427 PWs)   bands (ev):

   -38.6117 -38.5535 -38.4202 -38.3103 -38.2536 -38.2253 -38.1961 -38.1799
   -38.1611 -38.1569 -38.1244 -38.1137 -38.0859 -38.0757 -38.0452 -37.8201
   -37.8200 -37.7573 -37.7568 -37.7247 -37.7245   1.6079   2.0511   2.6953
     3.0953   3.1930   3.5011   3.5641   4.4050   4.6917   4.7683   4.8428
     5.0027   5.0216   5.5062   5.5462   5.6918   5.7877   5.7913   5.9018
     6.0075   6.0364   6.0878   6.1291   6.1382   6.3272   6.4635   6.6178
     6.7086   6.9188   6.9622   7.1386   7.2918   7.5120   7.5941   7.8688
     8.1709   8.2885   8.6821   8.8960   9.1249  10.2675  11.3989  12.1867

          k = 0.2778 0.4811 0.0000 (  4485 PWs)   bands (ev):

   -38.5765 -38.5730 -38.5488 -38.5382 -38.4887 -38.4601 -38.4233 -38.3788
   -38.3535 -38.3426 -38.2980 -38.2829 -38.2184 -38.2062 -38.1491 -38.0786
   -38.0786 -37.9494 -37.9493 -37.7311 -37.7310   3.3385   3.3520   3.5220
     3.6178   3.8589   3.9870   4.1155   4.1541   4.2812   4.3629   4.4212
     4.4963   4.8289   4.9668   5.1539   5.3385   5.5972   5.6939   6.0294
     6.0374   6.2574   6.2588   6.7399   6.8446   6.9962   7.2476   7.3985
     7.4686   7.8076   8.1529   8.5204   8.7897   8.8296   8.8892   9.0983
    12.4901  12.7256  13.1819  13.8617  14.7867  15.8811  16.8165  16.9313

          k = 0.2778 0.6094 0.0000 (  4491 PWs)   bands (ev):

   -38.5727 -38.5575 -38.5346 -38.5287 -38.4995 -38.4598 -38.4470 -38.4115
   -38.3903 -38.3635 -38.2999 -38.2936 -38.2161 -38.2046 -38.1639 -38.0705
   -38.0704 -37.9817 -37.9815 -37.7297 -37.7294   3.3075   3.5569   3.5909
     3.7457   3.8568   4.0101   4.0408   4.1358   4.2216   4.3426   4.4151
     4.5795   4.7352   5.0940   5.2112   5.4196   5.5391   5.6864   5.9471
     5.9993   6.3005   6.3202   6.7104   6.9017   7.0886   7.2440   7.4331
     7.5003   8.1045   8.3119   8.4581   8.6156   8.6810   8.7328   8.8756
    13.7022  14.0032  14.4580  14.9015  15.2903  15.7486  16.2828  16.5067

          k = 0.2778-0.4170 0.0000 (  4462 PWs)   bands (ev):

   -38.5848 -38.5714 -38.5598 -38.5335 -38.5027 -38.4401 -38.3903 -38.3374
   -38.3305 -38.3099 -38.2718 -38.2559 -38.2180 -38.1988 -38.1314 -38.0801
   -38.0797 -37.9037 -37.9036 -37.7332 -37.7332   3.1933   3.3288   3.4254
     3.5672   3.7067   3.7867   3.9505   4.1575   4.2507   4.3090   4.5581
     4.7125   4.7622   4.8621   5.2164   5.2711   5.5861   5.7851   6.0162
     6.0933   6.2478   6.3245   6.5432   6.8235   7.0421   7.2675   7.4291
     7.5568   7.6566   8.0084   8.5237   8.8873   8.9166   9.0136   9.2041
    11.3161  11.4718  11.8243  12.4725  13.4771  14.7319  16.0638  17.2278

          k = 0.2778-0.2887 0.0000 (  4463 PWs)   bands (ev):

   -38.5641 -38.5539 -38.5371 -38.5155 -38.4627 -38.4419 -38.3659 -38.2784
   -38.2606 -38.2503 -38.2104 -38.1913 -38.1829 -38.1361 -38.1059 -38.0496
   -38.0487 -37.8142 -37.8139 -37.7402 -37.7402   2.9576   3.0730   3.2226
     3.2720   3.3817   3.5128   3.6434   3.8715   4.0633   4.1998   4.5503
     4.7995   5.1443   5.2006   5.4002   5.5393   5.6455   5.7914   5.9797
     6.1695   6.3482   6.5726   6.6955   6.8321   7.1284   7.3230   7.4655
     7.5820   7.8242   8.1265   8.3591   8.4509   8.6474   8.6651   8.9117
     9.1340   9.3158   9.4012  10.0423  11.3023  12.7778  14.2814  15.5595

          k = 0.2778-0.1604 0.0000 (  4458 PWs)   bands (ev):

   -38.5573 -38.5269 -38.4895 -38.4566 -38.4099 -38.3740 -38.3316 -38.2581
   -38.2095 -38.2034 -38.1888 -38.1573 -38.1238 -38.1018 -38.0791 -37.9804
   -37.9801 -37.7654 -37.7653 -37.7470 -37.7467   2.5728   2.8462   3.0403
     3.1533   3.4277   3.5239   3.7958   3.8657   4.1148   4.2851   4.7035
     4.9385   5.1519   5.3331   5.5426   5.6730   5.7926   5.8349   6.0772
     6.1548   6.4251   6.5347   6.5592   6.7187   6.8689   7.0955   7.2580
     7.3369   7.4009   7.4764   7.6621   7.8368   7.8616   7.9587   8.0973
     8.3238   8.7161   8.8995   8.9606  10.2396  11.7038  13.1299  14.2614

          k = 0.3889 0.6736 0.0000 (  4511 PWs)   bands (ev):

   -38.6095 -38.5895 -38.5646 -38.5454 -38.5249 -38.4188 -38.4121 -38.3779
   -38.3703 -38.3351 -38.2901 -38.2792 -38.2279 -38.1956 -38.1555 -38.0965
   -38.0963 -37.9398 -37.9394 -37.7308 -37.7306   3.0336   3.3588   3.4096
     3.6059   3.6539   3.8058   3.8151   4.0956   4.1922   4.2530   4.5063
     4.5224   4.7007   4.9483   5.3167   5.5109   5.7281   5.9054   5.9298
     6.2642   6.3395   6.7198   6.7320   6.8142   7.1525   7.4839   7.7029
     7.8363   8.2611   8.3743   8.4383   8.6199   8.6953   8.9096   8.9152
    13.2327  13.5368  13.8440  14.1464  14.5053  14.9003  15.2357  16.6238

          k = 0.3889-0.3528 0.0000 (  4485 PWs)   bands (ev):

   -38.6507 -38.6309 -38.6114 -38.5802 -38.5587 -38.3932 -38.3709 -38.3064
   -38.2993 -38.2783 -38.2508 -38.2177 -38.2150 -38.1573 -38.1414 -38.1219
   -38.1181 -37.8469 -37.8468 -37.7347 -37.7344   2.6460   2.8347   2.9373
     2.9923   3.1662   3.2745   3.3550   3.6769   3.8028   3.8990   4.4217
     4.7426   5.0171   5.3788   5.4884   5.6927   5.8376   5.9291   6.4309
     6.5861   6.6464   7.1918   7.2987   7.6491   7.7833   7.9017   8.2498
     8.3779   8.3869   8.4638   8.6101   8.8008   8.8925   9.0353   9.2122
    10.7702  11.2614  11.6498  11.9987  12.7410  13.7168  14.5426  16.4199

          k = 0.3889-0.2245 0.0000 (  4444 PWs)   bands (ev):

   -38.6263 -38.6093 -38.5937 -38.5664 -38.5266 -38.4168 -38.3713 -38.2823
   -38.2511 -38.2433 -38.2290 -38.1946 -38.1568 -38.1401 -38.1095 -38.1044
   -38.0982 -37.8009 -37.8007 -37.7385 -37.7381   2.5951   2.6493   2.8209
     2.9249   2.9913   3.1704   3.2477   3.5623   3.6524   3.8650   4.5188
     4.9480   5.3089   5.3867   5.5466   5.8663   5.8775   5.9524   6.4589
     6.6717   6.8175   7.1410   7.5379   7.8045   8.0657   8.1967   8.2756
     8.4279   8.5022   8.5464   8.5737   8.6874   8.7342   8.8647   8.9671
     9.0798   9.1870   9.4313   9.9624  11.3747  12.9514  14.5241  16.0607

          k =-0.5000-0.8660 0.0000 (  4492 PWs)   bands (ev):

   -38.6829 -38.6635 -38.6438 -38.6069 -38.5903 -38.3814 -38.3791 -38.2747
   -38.2685 -38.2611 -38.2592 -38.2092 -38.1703 -38.1701 -38.1470 -38.1285
   -38.1217 -37.8151 -37.8149 -37.7357 -37.7356   2.3692   2.5566   2.6506
     2.7212   2.8881   3.0194   3.0564   3.4076   3.4648   3.7092   4.4098
     4.8918   5.1311   5.2724   5.4396   5.7866   6.1825   6.2295   6.4016
     7.0894   7.1400   7.2169   7.8996   8.1521   8.3562   8.4921   8.7844
     8.9002   8.9211   8.9930   8.9988   9.0666   9.1911   9.3797   9.3851
     9.7350  10.8386  11.7369  11.9303  12.3268  12.4744  12.6116  16.1014

 ------ SPIN DOWN ----------


          k = 0.0556 0.0962 0.0000 (  4451 PWs)   bands (ev):

   -38.6430 -38.5730 -38.4152 -38.2638 -38.1694 -38.1626 -38.1401 -38.1378
   -38.1201 -38.1158 -38.0900 -38.0780 -38.0652 -38.0563 -38.0318 -37.7665
   -37.7656 -37.7379 -37.7378 -37.7061 -37.7060   1.0360   1.5212   2.2180
     2.7229   2.7265   3.0624   3.1040   4.9117   4.9197   5.1259   5.1800
     5.2882   5.3578   5.5604   5.5816   5.6047   5.6487   5.6703   5.7049
     5.8000   5.8402   5.8926   5.9650   6.0852   6.2156   6.2202   6.7554
     7.0512   7.0835   7.2868   7.3376   7.5134   7.5602   7.6702   7.7575
     8.0714   8.0998   8.5836   8.6188   8.8008   9.3676  10.2760  10.8263

          k = 0.0556 0.2245 0.0000 (  4420 PWs)   bands (ev):

   -38.5919 -38.5431 -38.4292 -38.3463 -38.2993 -38.2629 -38.2377 -38.2145
   -38.1733 -38.1712 -38.1501 -38.1251 -38.1012 -38.0806 -38.0586 -37.8643
   -37.8642 -37.7544 -37.7540 -37.7393 -37.7388   1.9494   2.3518   2.9382
     3.2845   3.4231   3.7112   3.7993   4.2230   4.5043   4.6045   4.6548
     4.8554   4.8771   5.3550   5.4725   5.6208   5.7119   5.7932   5.8562
     5.9135   6.0648   6.1817   6.2987   6.4471   6.5274   6.6450   6.7209
     6.7692   6.9282   7.0524   7.1670   7.3367   7.6217   7.7108   7.9659
     8.0931   8.5047   8.6511   8.8057   9.5315  10.7292  11.9423  12.8435

          k = 0.0556 0.3528 0.0000 (  4467 PWs)   bands (ev):

   -38.5562 -38.5336 -38.5160 -38.4926 -38.4388 -38.4160 -38.3533 -38.2689
   -38.2288 -38.2212 -38.1975 -38.1729 -38.1456 -38.1102 -38.0930 -38.0186
   -38.0180 -37.7830 -37.7830 -37.7443 -37.7442   2.7424   3.0161   3.0308
     3.1499   3.3739   3.4339   3.6759   3.8270   4.0894   4.1579   4.6475
     4.9483   5.1463   5.3593   5.5536   5.6554   5.6817   5.7880   6.0547
     6.1802   6.4480   6.6095   6.7521   6.8173   7.0530   7.3062   7.4556
     7.5251   7.7262   7.8365   7.9822   8.1022   8.2824   8.3518   8.4809
     8.4920   8.6500   8.8970   9.2978  10.6408  12.1420  13.6262  14.8373

          k = 0.0556 0.4811 0.0000 (  4463 PWs)   bands (ev):

   -38.6465 -38.6274 -38.6102 -38.5801 -38.5503 -38.4039 -38.3720 -38.2860
   -38.2691 -38.2584 -38.2377 -38.2047 -38.1799 -38.1427 -38.1284 -38.1171
   -38.1107 -37.8161 -37.8160 -37.7370 -37.7367   2.5616   2.6787   2.8151
     2.8890   3.0200   3.1847   3.2000   3.5655   3.6457   3.8274   4.4611
     4.8765   5.2004   5.3727   5.5126   5.7680   5.9482   5.9834   6.5017
     6.6833   6.8281   7.2347   7.5175   7.8556   8.0510   8.0889   8.3742
     8.4723   8.5818   8.6172   8.7063   8.7301   8.8826   8.9861   9.1363
     9.5830  10.1180  10.4381  10.7691  11.8536  13.2473  14.6118  16.3561

          k = 0.0556-0.5453 0.0000 (  4486 PWs)   bands (ev):

   -38.6748 -38.6546 -38.6346 -38.6004 -38.5815 -38.3844 -38.3757 -38.2847
   -38.2791 -38.2643 -38.2541 -38.2119 -38.1895 -38.1556 -38.1447 -38.1280
   -38.1253 -37.8238 -37.8235 -37.7356 -37.7353   2.4445   2.6280   2.7296
     2.7848   2.9627   3.1057   3.1107   3.4845   3.5538   3.7525   4.4182
     4.8479   5.1057   5.3231   5.4503   5.7994   5.9839   6.1342   6.5082
     6.8193   7.0650   7.2904   7.7168   8.0727   8.1924   8.4386   8.4888
     8.6917   8.7936   8.8622   8.8918   8.9569   9.0371   9.1478   9.2579
    10.2104  11.0038  11.7247  11.8907  12.1854  12.8909  13.4710  16.1886

          k = 0.0556-0.4170 0.0000 (  4465 PWs)   bands (ev):

   -38.5956 -38.5834 -38.5669 -38.5426 -38.4945 -38.4307 -38.3691 -38.2796
   -38.2520 -38.2432 -38.2183 -38.1913 -38.1647 -38.1262 -38.1111 -38.0791
   -38.0764 -37.8022 -37.8021 -37.7402 -37.7397   2.7483   2.7744   2.9708
     3.0619   3.1112   3.3053   3.3911   3.6894   3.8325   3.9658   4.5518
     4.9174   5.3281   5.4573   5.5887   5.6475   5.7105   5.9909   6.2723
     6.3876   6.6169   6.9986   7.1895   7.3884   7.5764   7.6951   7.9952
     8.0839   8.1258   8.2594   8.3594   8.5127   8.6188   8.7138   8.8898
     9.0064   9.2017   9.2722   9.9021  11.2605  12.8168  14.3844  15.7580

          k = 0.0556-0.2887 0.0000 (  4439 PWs)   bands (ev):

   -38.5625 -38.5303 -38.4633 -38.4197 -38.3786 -38.3369 -38.3070 -38.2491
   -38.2015 -38.1957 -38.1760 -38.1496 -38.1236 -38.0940 -38.0751 -37.9436
   -37.9431 -37.7610 -37.7609 -37.7490 -37.7487   2.4658   2.7634   3.1307
     3.2963   3.5367   3.7174   3.9141   4.0523   4.2336   4.3958   4.6393
     4.7060   4.9999   5.1319   5.4923   5.6697   5.7576   5.8142   5.9103
     6.0491   6.1154   6.2711   6.3868   6.7017   6.7315   6.8327   6.9951
     7.1510   7.2279   7.3410   7.5906   7.6947   7.8302   7.9612   8.0712
     8.2544   8.5568   8.8412   8.9119  10.0660  11.4364  12.7943  13.8613

          k = 0.0556-0.1604 0.0000 (  4443 PWs)   bands (ev):

   -38.6213 -38.5595 -38.4176 -38.2922 -38.2254 -38.2045 -38.1777 -38.1680
   -38.1501 -38.1425 -38.1166 -38.1032 -38.0787 -38.0712 -38.0440 -37.7946
   -37.7945 -37.7589 -37.7586 -37.7201 -37.7201   1.4297   1.8910   2.5631
     3.0203   3.0585   3.3827   3.4251   4.5905   4.7190   4.8735   4.9529
     5.0771   5.1090   5.4320   5.5587   5.6701   5.7501   5.7822   5.8722
     5.9010   5.9458   6.0041   6.0266   6.2061   6.2632   6.4511   6.5158
     6.8860   6.9735   7.0537   7.1187   7.3107   7.4996   7.6387   7.8624
     8.0148   8.3663   8.5510   8.7857   9.0433  10.0287  11.0878  11.8071

          k = 0.0556-0.0321 0.0000 (  4465 PWs)   bands (ev):

   -38.6546 -38.5808 -38.4159 -38.2545 -38.1400 -38.1375 -38.1295 -38.1267
   -38.0977 -38.0905 -38.0852 -38.0624 -38.0620 -38.0365 -38.0248 -37.7686
   -37.7674 -37.7099 -37.7098 -37.6988 -37.6985   0.8273   1.3206   2.0237
     2.5370   2.5559   2.8793   2.9207   5.0745   5.1008   5.2737   5.3446
     5.3969   5.4090   5.4292   5.4984   5.5416   5.6021   5.6575   5.6732
     5.6973   5.7315   5.9305   5.9891   6.0618   6.0735   6.2902   7.1567
     7.1857   7.2481   7.3696   7.3807   7.5210   7.5607   7.8164   7.9252
     8.1361   8.2517   8.2674   8.6511   8.8329   8.8455   9.6456  10.0788

          k = 0.1667 0.2887 0.0000 (  4425 PWs)   bands (ev):

   -38.5400 -38.5283 -38.4797 -38.4469 -38.4165 -38.3768 -38.3377 -38.2688
   -38.2251 -38.2250 -38.1785 -38.1783 -38.1519 -38.1337 -38.0854 -37.9752
   -37.9751 -37.7939 -37.7938 -37.7452 -37.7447   2.9342   3.0969   3.3781
     3.7161   3.8931   3.8952   4.0290   4.0561   4.1072   4.2878   4.4047
     4.5379   4.9921   5.0277   5.1136   5.3163   5.4901   5.5123   5.5464
     5.6435   6.1943   6.2382   6.4505   6.5742   6.6609   7.1139   7.1541
     7.3207   7.5599   7.7304   7.9525   8.1848   8.3072   8.4383   8.4387
     8.5618   8.6268   8.7121   9.3963  10.6177  11.9969  13.3966  14.5455

          k = 0.1667 0.4170 0.0000 (  4459 PWs)   bands (ev):

   -38.5801 -38.5636 -38.5564 -38.5269 -38.4927 -38.4386 -38.3738 -38.2993
   -38.2980 -38.2815 -38.2335 -38.2277 -38.2022 -38.1760 -38.1170 -38.0707
   -38.0699 -37.8563 -37.8562 -37.7369 -37.7368   3.1125   3.1772   3.3310
     3.4877   3.5351   3.6094   3.8241   3.9048   4.1222   4.3047   4.5639
     4.6873   4.9395   5.0980   5.1981   5.4469   5.5314   5.8906   5.9585
     6.1256   6.2128   6.4485   6.5756   6.8399   7.1309   7.2760   7.4029
     7.6342   7.7619   7.9984   8.4782   8.7734   8.8646   8.9377   9.1075
    10.1755  10.3258  10.5442  11.1585  12.2651  13.6434  15.0973  16.3900

          k = 0.1667 0.5453 0.0000 (  4490 PWs)   bands (ev):

   -38.6376 -38.6181 -38.5954 -38.5674 -38.5484 -38.3937 -38.3743 -38.3488
   -38.3317 -38.3081 -38.2686 -38.2437 -38.2320 -38.1826 -38.1451 -38.1158
   -38.1153 -37.8902 -37.8901 -37.7326 -37.7325   2.8085   3.0942   3.1386
     3.2364   3.4063   3.4907   3.6172   3.8543   4.0542   4.1064   4.4466
     4.5640   4.7822   5.1842   5.4876   5.6569   5.7215   5.9389   6.2131
     6.3186   6.5412   6.8287   7.1973   7.2511   7.3473   7.7211   8.0083
     8.1540   8.2846   8.3967   8.5734   8.7066   8.7908   8.9877   9.1145
    12.0358  12.4633  12.8790  13.2772  13.7786  14.2469  14.5029  16.4934

          k = 0.1667-0.4811 0.0000 (  4476 PWs)   bands (ev):

   -38.6170 -38.5979 -38.5823 -38.5527 -38.5295 -38.4134 -38.3739 -38.3290
   -38.3194 -38.2975 -38.2553 -38.2438 -38.2187 -38.1821 -38.1337 -38.1007
   -38.0997 -37.8784 -37.8782 -37.7341 -37.7339   2.9162   3.1251   3.1987
     3.3458   3.4447   3.5342   3.6883   3.8924   4.0605   4.1920   4.4611
     4.6666   4.8928   5.0630   5.4562   5.5486   5.7535   5.9546   6.0485
     6.1738   6.5303   6.6768   6.9397   7.0705   7.1967   7.6137   7.8083
     7.8215   7.9756   8.1230   8.5334   8.8281   8.8788   9.0384   9.2043
    11.1429  11.4115  11.7241  12.2927  13.2238  14.3911  15.5427  16.7308

          k = 0.1667-0.3528 0.0000 (  4458 PWs)   bands (ev):

   -38.5443 -38.5336 -38.5180 -38.4931 -38.4522 -38.4404 -38.3654 -38.2818
   -38.2620 -38.2576 -38.2099 -38.1904 -38.1884 -38.1606 -38.1003 -38.0278
   -38.0276 -37.8267 -37.8266 -37.7411 -37.7409   3.2013   3.2955   3.4170
     3.5476   3.6677   3.7679   3.8697   4.0210   4.2623   4.3046   4.4995
     4.6711   4.8605   4.9722   5.2367   5.3556   5.3881   5.5991   5.7985
     5.8740   6.1138   6.1641   6.4605   6.7157   6.8830   7.0554   7.3241
     7.4876   7.6938   7.8670   8.3334   8.5290   8.6404   8.6727   8.8815
     9.2813   9.3498   9.4868  10.1341  11.3530  12.7746  14.2315  15.4672

          k = 0.1667-0.2245 0.0000 (  4433 PWs)   bands (ev):

   -38.5666 -38.5326 -38.4491 -38.3948 -38.3568 -38.3125 -38.2929 -38.2476
   -38.1955 -38.1942 -38.1676 -38.1474 -38.1244 -38.1003 -38.0737 -37.9186
   -37.9185 -37.7636 -37.7636 -37.7499 -37.7495   2.4180   2.7404   3.2198
     3.5726   3.7098   3.8677   3.9885   4.1593   4.2833   4.3434   4.5089
     4.6711   4.7984   5.1052   5.2851   5.4444   5.5144   5.6266   5.7667
     5.8258   6.0610   6.2234   6.5408   6.5713   6.6085   6.8221   6.9353
     7.1719   7.1900   7.2734   7.5936   7.6941   7.8834   8.0291   8.0422
     8.1470   8.4524   8.6750   8.9450  10.0316  11.3178  12.6266  13.6585

          k = 0.1667-0.0962 0.0000 (  4427 PWs)   bands (ev):

   -38.6118 -38.5536 -38.4203 -38.3104 -38.2537 -38.2254 -38.1961 -38.1799
   -38.1612 -38.1570 -38.1243 -38.1137 -38.0859 -38.0756 -38.0452 -37.8203
   -37.8202 -37.7576 -37.7571 -37.7249 -37.7247   1.6079   2.0511   2.6953
     3.0953   3.1929   3.5010   3.5641   4.4050   4.6917   4.7683   4.8428
     5.0027   5.0216   5.5062   5.5461   5.6918   5.7877   5.7912   5.9017
     6.0075   6.0364   6.0878   6.1290   6.1382   6.3272   6.4634   6.6177
     6.7085   6.9187   6.9622   7.1385   7.2917   7.5119   7.5941   7.8688
     8.1708   8.2884   8.6819   8.8959   9.1248  10.2675  11.3988  12.1867

          k = 0.2778 0.4811 0.0000 (  4485 PWs)   bands (ev):

   -38.5765 -38.5731 -38.5488 -38.5382 -38.4887 -38.4601 -38.4234 -38.3789
   -38.3536 -38.3426 -38.2980 -38.2829 -38.2184 -38.2062 -38.1490 -38.0788
   -38.0787 -37.9496 -37.9495 -37.7314 -37.7313   3.3385   3.3520   3.5220
     3.6177   3.8589   3.9869   4.1155   4.1541   4.2812   4.3628   4.4212
     4.4963   4.8289   4.9668   5.1539   5.3385   5.5971   5.6939   6.0292
     6.0372   6.2573   6.2587   6.7399   6.8445   6.9961   7.2476   7.3984
     7.4684   7.8075   8.1527   8.5202   8.7896   8.8296   8.8891   9.0983
    12.4901  12.7255  13.1818  13.8616  14.7867  15.8810  16.8165  16.9313

          k = 0.2778 0.6094 0.0000 (  4491 PWs)   bands (ev):

   -38.5728 -38.5576 -38.5346 -38.5287 -38.4995 -38.4599 -38.4470 -38.4115
   -38.3903 -38.3635 -38.3000 -38.2937 -38.2160 -38.2046 -38.1639 -38.0707
   -38.0706 -37.9819 -37.9817 -37.7300 -37.7297   3.3075   3.5569   3.5909
     3.7456   3.8567   4.0101   4.0408   4.1358   4.2215   4.3426   4.4150
     4.5794   4.7351   5.0939   5.2112   5.4196   5.5390   5.6864   5.9469
     5.9991   6.3004   6.3201   6.7103   6.9017   7.0885   7.2440   7.4329
     7.5002   8.1044   8.3117   8.4580   8.6155   8.6809   8.7328   8.8755
    13.7022  14.0032  14.4579  14.9015  15.2902  15.7486  16.2827  16.5067

          k = 0.2778-0.4170 0.0000 (  4462 PWs)   bands (ev):

   -38.5849 -38.5715 -38.5598 -38.5335 -38.5027 -38.4402 -38.3903 -38.3375
   -38.3306 -38.3099 -38.2718 -38.2559 -38.2180 -38.1988 -38.1314 -38.0803
   -38.0799 -37.9039 -37.9038 -37.7335 -37.7334   3.1933   3.3288   3.4254
     3.5672   3.7066   3.7867   3.9504   4.1575   4.2506   4.3089   4.5581
     4.7124   4.7621   4.8621   5.2163   5.2710   5.5861   5.7850   6.0161
     6.0931   6.2478   6.3244   6.5431   6.8234   7.0420   7.2675   7.4290
     7.5567   7.6565   8.0082   8.5236   8.8872   8.9166   9.0135   9.2040
    11.3161  11.4717  11.8242  12.4724  13.4770  14.7318  16.0638  17.2278

          k = 0.2778-0.2887 0.0000 (  4463 PWs)   bands (ev):

   -38.5642 -38.5540 -38.5371 -38.5155 -38.4627 -38.4419 -38.3659 -38.2784
   -38.2606 -38.2504 -38.2104 -38.1913 -38.1829 -38.1360 -38.1059 -38.0498
   -38.0489 -37.8144 -37.8141 -37.7405 -37.7404   2.9576   3.0730   3.2226
     3.2719   3.3817   3.5127   3.6434   3.8714   4.0632   4.1997   4.5503
     4.7995   5.1442   5.2005   5.4002   5.5393   5.6455   5.7913   5.9796
     6.1694   6.3481   6.5725   6.6954   6.8320   7.1283   7.3230   7.4655
     7.5819   7.8241   8.1264   8.3590   8.4509   8.6473   8.6650   8.9116
     9.1339   9.3158   9.4011  10.0422  11.3023  12.7778  14.2814  15.5595

          k = 0.2778-0.1604 0.0000 (  4458 PWs)   bands (ev):

   -38.5574 -38.5269 -38.4895 -38.4567 -38.4100 -38.3740 -38.3316 -38.2581
   -38.2096 -38.2035 -38.1888 -38.1573 -38.1238 -38.1018 -38.0790 -37.9806
   -37.9803 -37.7656 -37.7655 -37.7473 -37.7470   2.5728   2.8462   3.0403
     3.1533   3.4277   3.5238   3.7958   3.8656   4.1148   4.2850   4.7035
     4.9385   5.1518   5.3331   5.5426   5.6730   5.7926   5.8348   6.0771
     6.1547   6.4250   6.5347   6.5591   6.7186   6.8689   7.0954   7.2579
     7.3368   7.4009   7.4764   7.6620   7.8367   7.8615   7.9586   8.0972
     8.3237   8.7160   8.8994   8.9606  10.2395  11.7037  13.1298  14.2614

          k = 0.3889 0.6736 0.0000 (  4511 PWs)   bands (ev):

   -38.6096 -38.5896 -38.5647 -38.5454 -38.5249 -38.4188 -38.4122 -38.3779
   -38.3704 -38.3351 -38.2902 -38.2792 -38.2279 -38.1956 -38.1554 -38.0967
   -38.0965 -37.9400 -37.9396 -37.7311 -37.7308   3.0336   3.3587   3.4096
     3.6059   3.6539   3.8058   3.8151   4.0955   4.1922   4.2529   4.5063
     4.5224   4.7006   4.9483   5.3166   5.5109   5.7280   5.9053   5.9297
     6.2642   6.3395   6.7198   6.7319   6.8141   7.1524   7.4838   7.7027
     7.8362   8.2610   8.3741   8.4383   8.6199   8.6952   8.9095   8.9152
    13.2327  13.5367  13.8440  14.1464  14.5053  14.9002  15.2357  16.6243

          k = 0.3889-0.3528 0.0000 (  4485 PWs)   bands (ev):

   -38.6507 -38.6310 -38.6114 -38.5802 -38.5587 -38.3932 -38.3710 -38.3065
   -38.2994 -38.2783 -38.2508 -38.2177 -38.2150 -38.1573 -38.1414 -38.1221
   -38.1182 -37.8471 -37.8470 -37.7350 -37.7347   2.6460   2.8346   2.9372
     2.9923   3.1661   3.2745   3.3550   3.6769   3.8027   3.8989   4.4216
     4.7426   5.0171   5.3788   5.4883   5.6926   5.8376   5.9291   6.4308
     6.5860   6.6464   7.1917   7.2986   7.6490   7.7832   7.9016   8.2496
     8.3778   8.3868   8.4637   8.6100   8.8008   8.8924   9.0352   9.2122
    10.7701  11.2614  11.6498  11.9986  12.7409  13.7168  14.5426  16.4197

          k = 0.3889-0.2245 0.0000 (  4444 PWs)   bands (ev):

   -38.6263 -38.6094 -38.5937 -38.5665 -38.5266 -38.4168 -38.3713 -38.2823
   -38.2511 -38.2434 -38.2290 -38.1946 -38.1568 -38.1401 -38.1094 -38.1046
   -38.0984 -37.8011 -37.8009 -37.7387 -37.7383   2.5951   2.6493   2.8209
     2.9248   2.9913   3.1704   3.2476   3.5622   3.6523   3.8650   4.5188
     4.9480   5.3088   5.3867   5.5466   5.8662   5.8774   5.9524   6.4588
     6.6717   6.8174   7.1410   7.5378   7.8044   8.0656   8.1967   8.2755
     8.4279   8.5021   8.5463   8.5737   8.6874   8.7341   8.8646   8.9670
     9.0797   9.1870   9.4313   9.9623  11.3747  12.9514  14.5240  16.0607

          k =-0.5000-0.8660 0.0000 (  4492 PWs)   bands (ev):

   -38.6830 -38.6636 -38.6438 -38.6069 -38.5903 -38.3815 -38.3792 -38.2747
   -38.2686 -38.2611 -38.2593 -38.2092 -38.1704 -38.1701 -38.1472 -38.1285
   -38.1216 -37.8153 -37.8151 -37.7360 -37.7359   2.3692   2.5566   2.6505
     2.7212   2.8881   3.0194   3.0563   3.4075   3.4647   3.7091   4.4098
     4.8917   5.1310   5.2723   5.4396   5.7865   6.1824   6.2295   6.4015
     7.0893   7.1400   7.2168   7.8995   8.1520   8.3561   8.4920   8.7843
     8.9002   8.9210   8.9930   8.9987   9.0665   9.1911   9.3795   9.3849
     9.7349  10.8386  11.7369  11.9302  12.3267  12.4744  12.6116  16.1014

     the Fermi energy is     8.3427 ev

!    total energy              =   -1198.23232528 Ry
     estimated scf accuracy    <       0.00000008 Ry
     smearing contrib. (-TS)   =      -0.03044150 Ry
     internal energy E=F+TS    =   -1198.20188377 Ry

     The total energy is F=E-TS. E is the sum of the following terms:
     one-electron contribution =  -13445.71375676 Ry
     hartree contribution      =    6768.64299422 Ry
     xc contribution           =    -209.35529315 Ry
     ewald contribution        =    5688.22417193 Ry

     total magnetization       =    -0.00 Bohr mag/cell
     absolute magnetization    =     0.00 Bohr mag/cell

     convergence has been achieved in  10 iterations

     negative rho (up, down):  2.017E-01 2.017E-01

     Forces acting on atoms (cartesian axes, Ry/au):

     atom    1 type  1   force =     0.00000000    0.00000000    0.00649727
     atom    2 type  1   force =     0.00000000    0.00000000   -0.00210296
     atom    3 type  1   force =     0.00000000    0.00000000   -0.00403919
     atom    4 type  1   force =     0.00000000    0.00000000    0.00000987
     atom    5 type  1   force =     0.00000000    0.00000000    0.00404479
     atom    6 type  1   force =     0.00000000    0.00000000    0.00208990
     atom    7 type  1   force =     0.00000000    0.00000000   -0.00649967

     Total force =     0.011222     Total SCF correction =     0.001584
     SCF correction compared to forces is large: reduce conv_thr to get better values
     Energy error            =      3.4E-04
     Gradient error          =      6.5E-03

     number of scf cycles    =   3
     number of bfgs steps    =   2

     energy   old            =   -1198.2319888655 Ry
     energy   new            =   -1198.2323252753 Ry

     CASE: energy  _new < energy  _old

     new trust radius        =       0.0201260940 bohr
     new conv_thr            =       0.0000003364 Ry


ATOMIC_POSITIONS (angstrom)
Rh            0.0000000000        0.0000000000        0.0241885452
Rh            1.3554284000       -0.7825569000        2.2019313144
Rh            1.3554284000        0.7825569000        4.4126451145
Rh            0.0000000000        0.0000000000        6.6402367178
Rh            1.3554284000       -0.7825569000        8.8678022583
Rh            1.3554284000        0.7825569000       11.0784806095
Rh            0.0000000000        0.0000000000       13.2562265403



     Writing output data file /home/STUDENTI/leonardo.razzai/Rh_work/surf_111/7-L.save/
     NEW-OLD atomic charge density approx. for the potential

     negative rho (up, down):  2.003E-01 2.003E-01
     Generating pointlists ...
     new r_m :   0.4081 (alat units)  2.0905 (a.u.) for type    1

     total cpu time spent up to now is      324.9 secs

     Self-consistent Calculation

     iteration #  1     ecut=    35.00 Ry     beta= 0.40
     Davidson diagonalization with overlap
     ethr =  1.00E-06,  avg # of iterations =  6.1

     negative rho (up, down):  2.003E-01 2.003E-01

     total cpu time spent up to now is      342.9 secs

     total energy              =   -1198.23170633 Ry
     estimated scf accuracy    <       0.03010183 Ry

     total magnetization       =    -0.00 Bohr mag/cell
     absolute magnetization    =     0.00 Bohr mag/cell

     iteration #  2     ecut=    35.00 Ry     beta= 0.40
     Davidson diagonalization with overlap
     ethr =  2.87E-05,  avg # of iterations =  1.0

     negative rho (up, down):  2.003E-01 2.003E-01

     total cpu time spent up to now is      350.7 secs

     total energy              =   -1198.23240644 Ry
     estimated scf accuracy    <       0.01477178 Ry

     total magnetization       =    -0.00 Bohr mag/cell
     absolute magnetization    =     0.00 Bohr mag/cell

     iteration #  3     ecut=    35.00 Ry     beta= 0.40
     Davidson diagonalization with overlap
     ethr =  1.41E-05,  avg # of iterations =  1.0

     negative rho (up, down):  2.003E-01 2.003E-01

     total cpu time spent up to now is      358.4 secs

     total energy              =   -1198.23258936 Ry
     estimated scf accuracy    <       0.00079627 Ry

     total magnetization       =    -0.00 Bohr mag/cell
     absolute magnetization    =     0.00 Bohr mag/cell

     iteration #  4     ecut=    35.00 Ry     beta= 0.40
     Davidson diagonalization with overlap
     ethr =  7.58E-07,  avg # of iterations =  1.0

     negative rho (up, down):  2.004E-01 2.004E-01

     total cpu time spent up to now is      366.1 secs

     total energy              =   -1198.23255900 Ry
     estimated scf accuracy    <       0.00035052 Ry

     total magnetization       =    -0.00 Bohr mag/cell
     absolute magnetization    =     0.00 Bohr mag/cell

     iteration #  5     ecut=    35.00 Ry     beta= 0.40
     Davidson diagonalization with overlap
     ethr =  3.34E-07,  avg # of iterations =  1.0

     negative rho (up, down):  2.004E-01 2.004E-01

     total cpu time spent up to now is      373.9 secs

     total energy              =   -1198.23257548 Ry
     estimated scf accuracy    <       0.00000664 Ry

     total magnetization       =    -0.00 Bohr mag/cell
     absolute magnetization    =     0.00 Bohr mag/cell

     iteration #  6     ecut=    35.00 Ry     beta= 0.40
     Davidson diagonalization with overlap
     ethr =  6.33E-09,  avg # of iterations =  2.0

     negative rho (up, down):  2.004E-01 2.004E-01

     total cpu time spent up to now is      382.8 secs

     total energy              =   -1198.23257571 Ry
     estimated scf accuracy    <       0.00000631 Ry

     total magnetization       =    -0.00 Bohr mag/cell
     absolute magnetization    =     0.00 Bohr mag/cell

     iteration #  7     ecut=    35.00 Ry     beta= 0.40
     Davidson diagonalization with overlap
     ethr =  6.01E-09,  avg # of iterations =  1.0

     negative rho (up, down):  2.004E-01 2.004E-01

     total cpu time spent up to now is      390.6 secs

     total energy              =   -1198.23257551 Ry
     estimated scf accuracy    <       0.00000811 Ry

     total magnetization       =    -0.00 Bohr mag/cell
     absolute magnetization    =     0.00 Bohr mag/cell

     iteration #  8     ecut=    35.00 Ry     beta= 0.40
     Davidson diagonalization with overlap
     ethr =  6.01E-09,  avg # of iterations =  1.0

     negative rho (up, down):  2.004E-01 2.004E-01

     total cpu time spent up to now is      398.3 secs

     total energy              =   -1198.23257560 Ry
     estimated scf accuracy    <       0.00000799 Ry

     total magnetization       =    -0.00 Bohr mag/cell
     absolute magnetization    =     0.00 Bohr mag/cell

     iteration #  9     ecut=    35.00 Ry     beta= 0.40
     Davidson diagonalization with overlap
     ethr =  6.01E-09,  avg # of iterations =  1.1

     negative rho (up, down):  2.004E-01 2.004E-01

     total cpu time spent up to now is      406.1 secs

     total energy              =   -1198.23257612 Ry
     estimated scf accuracy    <       0.00000061 Ry

     total magnetization       =    -0.00 Bohr mag/cell
     absolute magnetization    =     0.00 Bohr mag/cell

     iteration # 10     ecut=    35.00 Ry     beta= 0.40
     Davidson diagonalization with overlap
     ethr =  5.84E-10,  avg # of iterations =  1.5

     negative rho (up, down):  2.004E-01 2.004E-01
 
     Magnetic moment per site:
     atom:    1    charge:   13.1045    magn:   -0.0000    constr:    0.0000
     atom:    2    charge:   13.1585    magn:   -0.0000    constr:    0.0000
     atom:    3    charge:   13.1558    magn:    0.0000    constr:    0.0000
     atom:    4    charge:   13.1524    magn:    0.0000    constr:    0.0000
     atom:    5    charge:   13.1559    magn:    0.0000    constr:    0.0000
     atom:    6    charge:   13.1585    magn:   -0.0000    constr:    0.0000
     atom:    7    charge:   13.1043    magn:   -0.0000    constr:    0.0000

     total cpu time spent up to now is      413.9 secs

     End of self-consistent calculation

 ------ SPIN UP ------------


          k = 0.0556 0.0962 0.0000 (  4451 PWs)   bands (ev):

   -38.6402 -38.5833 -38.4177 -38.2656 -38.1763 -38.1667 -38.1444 -38.1431
   -38.1136 -38.1119 -38.0834 -38.0711 -38.0588 -38.0479 -38.0218 -37.7780
   -37.7770 -37.7468 -37.7467 -37.7151 -37.7150   1.0413   1.5075   2.2103
     2.7205   2.7369   3.0400   3.0856   4.9110   4.9234   5.1254   5.1821
     5.2779   5.3519   5.5567   5.5811   5.6121   5.6510   5.6596   5.6944
     5.7943   5.8408   5.8929   5.9579   6.0868   6.1995   6.2035   6.7502
     7.0541   7.0924   7.2826   7.3301   7.5149   7.5525   7.6708   7.7617
     8.0647   8.1009   8.5913   8.6187   8.8076   9.3692  10.2916  10.8363

          k = 0.0556 0.2245 0.0000 (  4420 PWs)   bands (ev):

   -38.5899 -38.5519 -38.4303 -38.3518 -38.3054 -38.2590 -38.2339 -38.2116
   -38.1775 -38.1763 -38.1450 -38.1186 -38.0958 -38.0728 -38.0491 -37.8731
   -37.8729 -37.7661 -37.7657 -37.7482 -37.7477   1.9550   2.3394   2.9300
     3.2885   3.4159   3.6916   3.7861   4.2238   4.4993   4.5979   4.6478
     4.8404   4.8745   5.3527   5.4662   5.6158   5.7132   5.7961   5.8559
     5.9176   6.0496   6.1803   6.2993   6.4346   6.5182   6.6382   6.7224
     6.7677   6.9215   7.0548   7.1622   7.3340   7.6254   7.7121   7.9646
     8.0942   8.5119   8.6573   8.8131   9.5367  10.7364  11.9583  12.8529

          k = 0.0556 0.3528 0.0000 (  4467 PWs)   bands (ev):

   -38.5553 -38.5343 -38.5196 -38.5005 -38.4397 -38.4099 -38.3544 -38.2687
   -38.2323 -38.2272 -38.1936 -38.1674 -38.1406 -38.1015 -38.0842 -38.0262
   -38.0253 -37.7919 -37.7919 -37.7570 -37.7569   2.7476   3.0026   3.0411
     3.1373   3.3709   3.4220   3.6603   3.8131   4.0808   4.1458   4.6383
     4.9475   5.1371   5.3554   5.5517   5.6615   5.6837   5.7850   6.0435
     6.1667   6.4433   6.5981   6.7411   6.8162   7.0446   7.3050   7.4631
     7.5232   7.7266   7.8356   7.9862   8.0986   8.2808   8.3556   8.4822
     8.4923   8.6617   8.9039   9.3045  10.6508  12.1545  13.6374  14.8463

          k = 0.0556 0.4811 0.0000 (  4463 PWs)   bands (ev):

   -38.6477 -38.6346 -38.6070 -38.5796 -38.5418 -38.4112 -38.3837 -38.2839
   -38.2716 -38.2621 -38.2312 -38.2003 -38.1754 -38.1393 -38.1295 -38.1164
   -38.1081 -37.8248 -37.8247 -37.7506 -37.7502   2.5662   2.6834   2.7989
     2.8895   3.0084   3.1774   3.1841   3.5488   3.6345   3.8127   4.4538
     4.8725   5.2080   5.3748   5.5121   5.7547   5.9343   5.9844   6.4874
     6.6727   6.8312   7.2274   7.5113   7.8549   8.0464   8.0925   8.3822
     8.4744   8.5792   8.6204   8.7141   8.7338   8.8837   8.9847   9.1402
     9.5845  10.1150  10.4410  10.7729  11.8628  13.2607  14.6158  16.3610

          k = 0.0556-0.5453 0.0000 (  4486 PWs)   bands (ev):

   -38.6761 -38.6623 -38.6315 -38.5990 -38.5719 -38.3962 -38.3890 -38.2842
   -38.2802 -38.2624 -38.2481 -38.2075 -38.1857 -38.1552 -38.1496 -38.1236
   -38.1189 -37.8326 -37.8322 -37.7493 -37.7490   2.4491   2.6325   2.7102
     2.7891   2.9475   3.0945   3.1019   3.4705   3.5395   3.7370   4.4095
     4.8441   5.1147   5.3268   5.4493   5.7748   5.9816   6.1351   6.4935
     6.8096   7.0681   7.2824   7.7143   8.0734   8.1929   8.4465   8.4911
     8.6951   8.7894   8.8661   8.8974   8.9610   9.0374   9.1451   9.2588
    10.2124  10.9997  11.7284  11.8934  12.1937  12.9023  13.4753  16.1814

          k = 0.0556-0.4170 0.0000 (  4465 PWs)   bands (ev):

   -38.5963 -38.5865 -38.5668 -38.5458 -38.4874 -38.4332 -38.3767 -38.2792
   -38.2551 -38.2487 -38.2131 -38.1867 -38.1598 -38.1181 -38.1036 -38.0857
   -38.0811 -37.8110 -37.8109 -37.7533 -37.7529   2.7526   2.7794   2.9576
     3.0510   3.1120   3.2944   3.3749   3.6719   3.8232   3.9526   4.5457
     4.9135   5.3282   5.4602   5.5878   5.6436   5.7102   5.9697   6.2683
     6.3838   6.6051   6.9934   7.1793   7.3819   7.5748   7.6931   8.0016
     8.0874   8.1278   8.2565   8.3659   8.5137   8.6191   8.7224   8.8919
     9.0112   9.2008   9.2733   9.9071  11.2711  12.8306  14.3922  15.7667

          k = 0.0556-0.2887 0.0000 (  4439 PWs)   bands (ev):

   -38.5610 -38.5369 -38.4636 -38.4270 -38.3829 -38.3314 -38.3031 -38.2479
   -38.2051 -38.2018 -38.1725 -38.1433 -38.1184 -38.0857 -38.0660 -37.9518
   -37.9512 -37.7700 -37.7699 -37.7611 -37.7608   2.4716   2.7531   3.1251
     3.2954   3.5213   3.7128   3.9035   4.0425   4.2288   4.3846   4.6279
     4.6914   5.0009   5.1295   5.4932   5.6703   5.7556   5.8143   5.9050
     6.0365   6.1079   6.2724   6.3767   6.6869   6.7309   6.8326   6.9885
     7.1558   7.2281   7.3419   7.5824   7.6924   7.8312   7.9623   8.0732
     8.2576   8.5679   8.8493   8.9177  10.0738  11.4464  12.8084  13.8703

          k = 0.0556-0.1604 0.0000 (  4443 PWs)   bands (ev):

   -38.6189 -38.5693 -38.4196 -38.2955 -38.2322 -38.2057 -38.1751 -38.1664
   -38.1527 -38.1453 -38.1081 -38.0965 -38.0727 -38.0641 -38.0341 -37.8039
   -37.8038 -37.7700 -37.7696 -37.7291 -37.7291   1.4351   1.8777   2.5551
     3.0262   3.0582   3.3605   3.4069   4.5911   4.7156   4.8776   4.9551
     5.0606   5.0968   5.4248   5.5576   5.6676   5.7508   5.7905   5.8739
     5.8934   5.9388   5.9943   6.0236   6.2079   6.2645   6.4323   6.5026
     6.8874   6.9777   7.0485   7.1182   7.3080   7.5021   7.6378   7.8642
     8.0103   8.3673   8.5589   8.7919   9.0467  10.0329  11.1043  11.8168

          k = 0.0556-0.0321 0.0000 (  4465 PWs)   bands (ev):

   -38.6517 -38.5913 -38.4186 -38.2557 -38.1458 -38.1432 -38.1347 -38.1332
   -38.0905 -38.0843 -38.0780 -38.0570 -38.0566 -38.0264 -38.0148 -37.7800
   -37.7786 -37.7189 -37.7188 -37.7078 -37.7075   0.8326   1.3067   2.0162
     2.5352   2.5666   2.8568   2.9024   5.0761   5.1049   5.2739   5.3436
     5.3948   5.4057   5.4309   5.5015   5.5279   5.6123   5.6488   5.6669
     5.7007   5.7346   5.9183   5.9754   6.0431   6.0564   6.2936   7.1541
     7.1910   7.2495   7.3682   7.3771   7.5185   7.5562   7.8078   7.9191
     8.1413   8.2576   8.2642   8.6597   8.8318   8.8510   9.6596  10.0890

          k = 0.1667 0.2887 0.0000 (  4425 PWs)   bands (ev):

   -38.5392 -38.5325 -38.4801 -38.4552 -38.4204 -38.3707 -38.3342 -38.2680
   -38.2316 -38.2311 -38.1765 -38.1717 -38.1462 -38.1223 -38.0772 -37.9831
   -37.9830 -37.8028 -37.8027 -37.7576 -37.7571   2.9413   3.0906   3.3702
     3.7027   3.8879   3.9008   4.0159   4.0592   4.0860   4.2665   4.3898
     4.5394   4.9842   5.0244   5.1054   5.3123   5.4832   5.4920   5.5341
     5.6597   6.1971   6.2384   6.4500   6.5583   6.6655   7.1125   7.1622
     7.3082   7.5605   7.7266   7.9554   8.1835   8.3133   8.4386   8.4467
     8.5628   8.6265   8.7162   9.4029  10.6275  12.0086  13.4085  14.5542

          k = 0.1667 0.4170 0.0000 (  4459 PWs)   bands (ev):

   -38.5817 -38.5699 -38.5531 -38.5297 -38.4844 -38.4410 -38.3796 -38.3062
   -38.3038 -38.2814 -38.2273 -38.2205 -38.1993 -38.1666 -38.1083 -38.0777
   -38.0763 -37.8649 -37.8648 -37.7502 -37.7501   3.1181   3.1831   3.3221
     3.4730   3.5286   3.5934   3.8103   3.8960   4.1111   4.2952   4.5546
     4.6732   4.9250   5.1023   5.1957   5.4359   5.5321   5.8856   5.9584
     6.1210   6.2029   6.4415   6.5685   6.8356   7.1337   7.2761   7.4108
     7.6339   7.7691   8.0057   8.4854   8.7774   8.8668   8.9408   9.1113
    10.1793  10.3262  10.5413  11.1605  12.2738  13.6557  15.1044  16.3981

          k = 0.1667 0.5453 0.0000 (  4490 PWs)   bands (ev):

   -38.6388 -38.6257 -38.5929 -38.5664 -38.5384 -38.4020 -38.3838 -38.3533
   -38.3391 -38.3019 -38.2636 -38.2398 -38.2258 -38.1750 -38.1357 -38.1220
   -38.1210 -37.8987 -37.8985 -37.7463 -37.7462   2.8136   3.0994   3.1191
     3.2397   3.3877   3.4765   3.6049   3.8477   4.0408   4.0890   4.4348
     4.5518   4.7926   5.1720   5.4783   5.6559   5.7214   5.9305   6.2045
     6.3240   6.5364   6.8221   7.1928   7.2458   7.3427   7.7258   8.0133
     8.1588   8.2894   8.4043   8.5812   8.7099   8.7962   8.9924   9.1191
    12.0390  12.4618  12.8793  13.2784  13.7832  14.2555  14.5068  16.4900

          k = 0.1667-0.4811 0.0000 (  4476 PWs)   bands (ev):

   -38.6183 -38.6055 -38.5791 -38.5527 -38.5202 -38.4182 -38.3827 -38.3355
   -38.3269 -38.2930 -38.2488 -38.2388 -38.2143 -38.1738 -38.1248 -38.1073
   -38.1054 -37.8870 -37.8868 -37.7477 -37.7475   2.9215   3.1305   3.1850
     3.3436   3.4279   3.5179   3.6765   3.8844   4.0470   4.1789   4.4509
     4.6522   4.9038   5.0488   5.4564   5.5345   5.7518   5.9519   6.0479
     6.1681   6.5261   6.6696   6.9295   7.0658   7.1966   7.6177   7.8112
     7.8273   7.9827   8.1317   8.5403   8.8322   8.8831   9.0421   9.2085
    11.1464  11.4103  11.7234  12.2945  13.2307  14.4013  15.5467  16.7355

          k = 0.1667-0.3528 0.0000 (  4458 PWs)   bands (ev):

   -38.5453 -38.5351 -38.5183 -38.5007 -38.4543 -38.4331 -38.3664 -38.2822
   -38.2687 -38.2639 -38.2032 -38.1868 -38.1829 -38.1498 -38.0919 -38.0352
   -38.0348 -37.8355 -37.8354 -37.7539 -37.7538   3.2066   3.3037   3.4051
     3.5380   3.6567   3.7581   3.8591   4.0088   4.2457   4.3030   4.4769
     4.6703   4.8517   4.9669   5.2302   5.3488   5.3874   5.5944   5.7874
     5.8676   6.1142   6.1647   6.4509   6.7178   6.8834   7.0548   7.3300
     7.4838   7.6960   7.8698   8.3390   8.5327   8.6477   8.6714   8.8851
     9.2855   9.3520   9.4816  10.1377  11.3630  12.7875  14.2409  15.4756

          k = 0.1667-0.2245 0.0000 (  4433 PWs)   bands (ev):

   -38.5650 -38.5398 -38.4496 -38.4017 -38.3621 -38.3076 -38.2880 -38.2457
   -38.2005 -38.1992 -38.1653 -38.1410 -38.1185 -38.0906 -38.0652 -37.9270
   -37.9269 -37.7727 -37.7727 -37.7618 -37.7614   2.4239   2.7298   3.2116
     3.5745   3.6995   3.8551   3.9802   4.1526   4.2818   4.3286   4.4946
     4.6692   4.7916   5.0983   5.2800   5.4369   5.5122   5.6212   5.7553
     5.8345   6.0605   6.2258   6.5245   6.5687   6.6045   6.8311   6.9263
     7.1672   7.1926   7.2709   7.5870   7.6895   7.8842   8.0310   8.0448
     8.1503   8.4627   8.6800   8.9522  10.0395  11.3275  12.6408  13.6675

          k = 0.1667-0.0962 0.0000 (  4427 PWs)   bands (ev):

   -38.6094 -38.5631 -38.4220 -38.3146 -38.2600 -38.2245 -38.1918 -38.1757
   -38.1655 -38.1632 -38.1160 -38.1070 -38.0813 -38.0680 -38.0356 -37.8293
   -37.8292 -37.7690 -37.7684 -37.7338 -37.7336   1.6133   2.0381   2.6873
     3.1005   3.1897   3.4796   3.5481   4.4068   4.6822   4.7747   4.8375
     4.9899   5.0094   5.5009   5.5470   5.6878   5.7915   5.8000   5.8996
     5.9997   6.0264   6.0886   6.1259   6.1319   6.3289   6.4452   6.6046
     6.7077   6.9138   6.9633   7.1442   7.2876   7.5155   7.5926   7.8664
     8.1726   8.2886   8.6933   8.9020   9.1269  10.2724  11.4155  12.1962

          k = 0.2778 0.4811 0.0000 (  4485 PWs)   bands (ev):

   -38.5806 -38.5769 -38.5477 -38.5347 -38.4844 -38.4601 -38.4279 -38.3844
   -38.3600 -38.3393 -38.2959 -38.2834 -38.2097 -38.2005 -38.1380 -38.0861
   -38.0860 -37.9577 -37.9576 -37.7451 -37.7450   3.3421   3.3573   3.5188
     3.5953   3.8366   3.9772   4.1153   4.1652   4.2535   4.3400   4.4048
     4.4895   4.8203   4.9621   5.1402   5.3373   5.5948   5.6958   6.0216
     6.0314   6.2461   6.2468   6.7397   6.8481   7.0005   7.2511   7.4081
     7.4779   7.8142   8.1594   8.5270   8.7941   8.8335   8.8968   9.1021
    12.4945  12.7236  13.1815  13.8638  14.7921  15.8887  16.8211  16.9335

          k = 0.2778 0.6094 0.0000 (  4491 PWs)   bands (ev):

   -38.5739 -38.5641 -38.5328 -38.5273 -38.4960 -38.4660 -38.4458 -38.4133
   -38.3853 -38.3638 -38.3036 -38.2985 -38.2085 -38.1980 -38.1514 -38.0783
   -38.0781 -37.9897 -37.9895 -37.7439 -37.7435   3.3126   3.5504   3.5866
     3.7340   3.8513   3.9996   4.0435   4.1086   4.1887   4.3492   4.4019
     4.5682   4.7195   5.0889   5.1988   5.4167   5.5420   5.6844   5.9379
     5.9931   6.2888   6.3102   6.7096   6.9064   7.0920   7.2476   7.4466
     7.5114   8.1097   8.3184   8.4654   8.6196   8.6886   8.7367   8.8796
    13.7065  14.0018  14.4588  14.9031  15.2915  15.7535  16.2844  16.5100

          k = 0.2778-0.4170 0.0000 (  4462 PWs)   bands (ev):

   -38.5875 -38.5781 -38.5566 -38.5324 -38.4959 -38.4418 -38.3957 -38.3458
   -38.3393 -38.3072 -38.2659 -38.2519 -38.2095 -38.1929 -38.1215 -38.0874
   -38.0868 -37.9124 -37.9122 -37.7470 -37.7469   3.1986   3.3327   3.4163
     3.5575   3.6855   3.7810   3.9363   4.1433   4.2437   4.2998   4.5416
     4.7001   4.7554   4.8580   5.2035   5.2705   5.5887   5.7784   6.0122
     6.0874   6.2385   6.3166   6.5388   6.8261   7.0442   7.2710   7.4336
     7.5613   7.6656   8.0160   8.5306   8.8916   8.9204   9.0190   9.2077
    11.3207  11.4701  11.8225  12.4742  13.4840  14.7421  16.0696  17.2346

          k = 0.2778-0.2887 0.0000 (  4463 PWs)   bands (ev):

   -38.5647 -38.5547 -38.5391 -38.5214 -38.4569 -38.4420 -38.3701 -38.2791
   -38.2650 -38.2563 -38.2029 -38.1887 -38.1772 -38.1267 -38.0977 -38.0570
   -38.0555 -37.8232 -37.8229 -37.7535 -37.7534   2.9629   3.0783   3.2177
     3.2570   3.3772   3.4967   3.6309   3.8565   4.0522   4.1905   4.5438
     4.7883   5.1464   5.1837   5.4068   5.5376   5.6365   5.7932   5.9789
     6.1509   6.3442   6.5643   6.6917   6.8223   7.1263   7.3267   7.4720
     7.5803   7.8272   8.1262   8.3653   8.4554   8.6487   8.6698   8.9161
     9.1366   9.3184   9.3971  10.0462  11.3125  12.7910  14.2903  15.5681

          k = 0.2778-0.1604 0.0000 (  4458 PWs)   bands (ev):

   -38.5562 -38.5319 -38.4902 -38.4645 -38.4127 -38.3682 -38.3296 -38.2576
   -38.2129 -38.2094 -38.1852 -38.1513 -38.1195 -38.0930 -38.0699 -37.9885
   -37.9881 -37.7745 -37.7744 -37.7597 -37.7594   2.5783   2.8363   3.0418
     3.1449   3.4124   3.5238   3.7809   3.8541   4.1080   4.2717   4.6904
     4.9364   5.1463   5.3299   5.5467   5.6761   5.7969   5.8369   6.0513
     6.1526   6.4174   6.5204   6.5503   6.7181   6.8603   7.0835   7.2634
     7.3354   7.4090   7.4792   7.6541   7.8312   7.8677   7.9572   8.0994
     8.3272   8.7306   8.9055   8.9670  10.2480  11.7148  13.1429  14.2705

          k = 0.3889 0.6736 0.0000 (  4511 PWs)   bands (ev):

   -38.6105 -38.5971 -38.5630 -38.5445 -38.5151 -38.4244 -38.4189 -38.3763
   -38.3755 -38.3365 -38.2917 -38.2758 -38.2199 -38.1888 -38.1439 -38.1038
   -38.1036 -37.9482 -37.9478 -37.7449 -37.7446   3.0388   3.3376   3.4157
     3.6102   3.6424   3.7946   3.7970   4.0769   4.1720   4.2412   4.4933
     4.5285   4.6924   4.9381   5.3099   5.4987   5.7202   5.9130   5.9261
     6.2628   6.3342   6.7180   6.7211   6.8088   7.1561   7.4885   7.7106
     7.8428   8.2662   8.3811   8.4470   8.6236   8.7022   8.9143   8.9195
    13.2361  13.5379  13.8439  14.1449  14.5059  14.9095  15.2395  16.6249

          k = 0.3889-0.3528 0.0000 (  4485 PWs)   bands (ev):

   -38.6519 -38.6386 -38.6084 -38.5793 -38.5492 -38.4021 -38.3830 -38.3106
   -38.3030 -38.2738 -38.2427 -38.2144 -38.2111 -38.1507 -38.1384 -38.1265
   -38.1176 -37.8558 -37.8557 -37.7486 -37.7483   2.6510   2.8394   2.9227
     2.9914   3.1482   3.2609   3.3476   3.6647   3.7904   3.8820   4.4131
     4.7340   5.0281   5.3670   5.4853   5.6945   5.8395   5.9112   6.4213
     6.5742   6.6514   7.1868   7.2930   7.6423   7.7779   7.9085   8.2561
     8.3814   8.3886   8.4694   8.6158   8.8056   8.8956   9.0368   9.2167
    10.7728  11.2585  11.6513  12.0012  12.7478  13.7273  14.5463  16.4196

          k = 0.3889-0.2245 0.0000 (  4444 PWs)   bands (ev):

   -38.6273 -38.6153 -38.5912 -38.5673 -38.5189 -38.4217 -38.3815 -38.2799
   -38.2537 -38.2491 -38.2242 -38.1892 -38.1529 -38.1342 -38.1112 -38.1007
   -38.1006 -37.8099 -37.8097 -37.7521 -37.7517   2.5992   2.6543   2.8047
     2.9223   2.9862   3.1623   3.2301   3.5442   3.6422   3.8511   4.5119
     4.9460   5.3133   5.3905   5.5510   5.8503   5.8628   5.9534   6.4416
     6.6638   6.8202   7.1297   7.5322   7.8007   8.0686   8.1945   8.2758
     8.4336   8.5001   8.5514   8.5734   8.6926   8.7405   8.8584   8.9663
     9.0844   9.1865   9.4355   9.9686  11.3855  12.9657  14.5298  16.0686

          k =-0.5000-0.8660 0.0000 (  4492 PWs)   bands (ev):

   -38.6843 -38.6713 -38.6405 -38.6056 -38.5805 -38.3936 -38.3933 -38.2708
   -38.2650 -38.2636 -38.2564 -38.2040 -38.1704 -38.1662 -38.1536 -38.1247
   -38.1129 -37.8241 -37.8239 -37.7497 -37.7496   2.3736   2.5611   2.6306
     2.7261   2.8738   3.0148   3.0409   3.3933   3.4497   3.6939   4.4012
     4.8895   5.1381   5.2769   5.4440   5.7589   6.1807   6.2316   6.3842
     7.0804   7.1295   7.2200   7.8992   8.1536   8.3566   8.5029   8.7872
     8.9034   8.9170   8.9975   9.0022   9.0690   9.1940   9.3725   9.3791
     9.7369  10.8345  11.7413  11.9351  12.3410  12.4769  12.6190  16.0935

 ------ SPIN DOWN ----------


          k = 0.0556 0.0962 0.0000 (  4451 PWs)   bands (ev):

   -38.6402 -38.5833 -38.4177 -38.2656 -38.1763 -38.1667 -38.1444 -38.1431
   -38.1136 -38.1119 -38.0834 -38.0711 -38.0588 -38.0479 -38.0218 -37.7780
   -37.7770 -37.7468 -37.7467 -37.7151 -37.7150   1.0413   1.5075   2.2103
     2.7205   2.7369   3.0400   3.0856   4.9110   4.9234   5.1254   5.1821
     5.2779   5.3519   5.5567   5.5811   5.6121   5.6510   5.6596   5.6944
     5.7943   5.8408   5.8929   5.9579   6.0868   6.1995   6.2035   6.7502
     7.0541   7.0924   7.2826   7.3301   7.5149   7.5525   7.6708   7.7617
     8.0647   8.1009   8.5913   8.6186   8.8076   9.3692  10.2916  10.8363

          k = 0.0556 0.2245 0.0000 (  4420 PWs)   bands (ev):

   -38.5899 -38.5519 -38.4303 -38.3518 -38.3054 -38.2590 -38.2339 -38.2116
   -38.1775 -38.1763 -38.1450 -38.1186 -38.0958 -38.0728 -38.0491 -37.8731
   -37.8729 -37.7661 -37.7657 -37.7482 -37.7477   1.9550   2.3394   2.9300
     3.2885   3.4159   3.6916   3.7861   4.2238   4.4993   4.5979   4.6478
     4.8404   4.8745   5.3527   5.4662   5.6158   5.7132   5.7961   5.8559
     5.9176   6.0496   6.1803   6.2993   6.4346   6.5182   6.6382   6.7224
     6.7677   6.9215   7.0548   7.1621   7.3340   7.6254   7.7121   7.9646
     8.0942   8.5119   8.6573   8.8131   9.5367  10.7364  11.9583  12.8528

          k = 0.0556 0.3528 0.0000 (  4467 PWs)   bands (ev):

   -38.5553 -38.5343 -38.5196 -38.5005 -38.4397 -38.4099 -38.3544 -38.2687
   -38.2323 -38.2272 -38.1936 -38.1674 -38.1406 -38.1015 -38.0842 -38.0262
   -38.0254 -37.7919 -37.7919 -37.7571 -37.7569   2.7476   3.0026   3.0411
     3.1373   3.3709   3.4220   3.6603   3.8131   4.0808   4.1458   4.6383
     4.9475   5.1371   5.3554   5.5517   5.6615   5.6837   5.7850   6.0435
     6.1667   6.4433   6.5981   6.7411   6.8162   7.0446   7.3050   7.4631
     7.5232   7.7266   7.8356   7.9862   8.0986   8.2808   8.3556   8.4822
     8.4923   8.6617   8.9039   9.3045  10.6508  12.1545  13.6374  14.8463

          k = 0.0556 0.4811 0.0000 (  4463 PWs)   bands (ev):

   -38.6477 -38.6346 -38.6070 -38.5796 -38.5418 -38.4112 -38.3837 -38.2839
   -38.2716 -38.2621 -38.2312 -38.2004 -38.1754 -38.1393 -38.1295 -38.1164
   -38.1081 -37.8248 -37.8248 -37.7506 -37.7503   2.5662   2.6834   2.7989
     2.8895   3.0084   3.1774   3.1841   3.5488   3.6345   3.8127   4.4538
     4.8725   5.2080   5.3748   5.5121   5.7547   5.9343   5.9844   6.4874
     6.6727   6.8312   7.2274   7.5113   7.8549   8.0464   8.0925   8.3822
     8.4744   8.5792   8.6204   8.7141   8.7338   8.8837   8.9847   9.1402
     9.5845  10.1150  10.4410  10.7729  11.8628  13.2607  14.6158  16.3610

          k = 0.0556-0.5453 0.0000 (  4486 PWs)   bands (ev):

   -38.6761 -38.6623 -38.6315 -38.5990 -38.5719 -38.3962 -38.3890 -38.2842
   -38.2802 -38.2624 -38.2481 -38.2075 -38.1857 -38.1552 -38.1496 -38.1236
   -38.1189 -37.8326 -37.8322 -37.7493 -37.7490   2.4491   2.6325   2.7102
     2.7891   2.9475   3.0945   3.1019   3.4705   3.5395   3.7370   4.4095
     4.8441   5.1146   5.3268   5.4493   5.7748   5.9816   6.1351   6.4935
     6.8095   7.0681   7.2824   7.7143   8.0733   8.1929   8.4465   8.4911
     8.6951   8.7894   8.8661   8.8974   8.9610   9.0374   9.1451   9.2588
    10.2124  10.9997  11.7284  11.8934  12.1937  12.9023  13.4753  16.1827

          k = 0.0556-0.4170 0.0000 (  4465 PWs)   bands (ev):

   -38.5963 -38.5865 -38.5668 -38.5458 -38.4874 -38.4332 -38.3767 -38.2792
   -38.2551 -38.2487 -38.2131 -38.1867 -38.1598 -38.1181 -38.1036 -38.0857
   -38.0811 -37.8110 -37.8110 -37.7533 -37.7529   2.7526   2.7794   2.9576
     3.0510   3.1120   3.2944   3.3749   3.6719   3.8232   3.9526   4.5457
     4.9135   5.3282   5.4602   5.5878   5.6436   5.7102   5.9697   6.2683
     6.3838   6.6051   6.9934   7.1793   7.3819   7.5748   7.6931   8.0016
     8.0874   8.1278   8.2565   8.3659   8.5137   8.6191   8.7224   8.8919
     9.0112   9.2008   9.2733   9.9071  11.2711  12.8306  14.3922  15.7667

          k = 0.0556-0.2887 0.0000 (  4439 PWs)   bands (ev):

   -38.5610 -38.5369 -38.4636 -38.4270 -38.3829 -38.3314 -38.3031 -38.2479
   -38.2051 -38.2018 -38.1725 -38.1433 -38.1184 -38.0857 -38.0660 -37.9518
   -37.9513 -37.7700 -37.7699 -37.7611 -37.7608   2.4716   2.7531   3.1251
     3.2954   3.5213   3.7128   3.9035   4.0425   4.2288   4.3846   4.6279
     4.6913   5.0009   5.1295   5.4932   5.6703   5.7556   5.8143   5.9050
     6.0364   6.1079   6.2724   6.3767   6.6869   6.7309   6.8326   6.9885
     7.1558   7.2281   7.3419   7.5824   7.6924   7.8312   7.9623   8.0732
     8.2576   8.5679   8.8493   8.9177  10.0738  11.4464  12.8084  13.8703

          k = 0.0556-0.1604 0.0000 (  4443 PWs)   bands (ev):

   -38.6189 -38.5693 -38.4196 -38.2955 -38.2322 -38.2057 -38.1751 -38.1664
   -38.1527 -38.1453 -38.1081 -38.0965 -38.0727 -38.0641 -38.0341 -37.8039
   -37.8038 -37.7700 -37.7696 -37.7291 -37.7291   1.4351   1.8777   2.5551
     3.0262   3.0582   3.3605   3.4069   4.5911   4.7156   4.8776   4.9551
     5.0606   5.0968   5.4248   5.5576   5.6676   5.7508   5.7905   5.8739
     5.8934   5.9388   5.9943   6.0236   6.2079   6.2645   6.4323   6.5026
     6.8874   6.9777   7.0485   7.1182   7.3080   7.5021   7.6378   7.8642
     8.0103   8.3673   8.5589   8.7919   9.0467  10.0329  11.1043  11.8168

          k = 0.0556-0.0321 0.0000 (  4465 PWs)   bands (ev):

   -38.6517 -38.5913 -38.4186 -38.2557 -38.1459 -38.1432 -38.1347 -38.1332
   -38.0905 -38.0843 -38.0780 -38.0570 -38.0566 -38.0264 -38.0147 -37.7800
   -37.7786 -37.7189 -37.7188 -37.7078 -37.7076   0.8326   1.3067   2.0162
     2.5352   2.5666   2.8568   2.9024   5.0761   5.1049   5.2739   5.3436
     5.3948   5.4057   5.4309   5.5015   5.5279   5.6123   5.6488   5.6669
     5.7007   5.7346   5.9183   5.9754   6.0431   6.0564   6.2936   7.1541
     7.1910   7.2495   7.3682   7.3771   7.5185   7.5562   7.8078   7.9191
     8.1413   8.2576   8.2642   8.6597   8.8318   8.8510   9.6596  10.0889

          k = 0.1667 0.2887 0.0000 (  4425 PWs)   bands (ev):

   -38.5392 -38.5325 -38.4801 -38.4552 -38.4204 -38.3707 -38.3342 -38.2680
   -38.2316 -38.2311 -38.1765 -38.1717 -38.1462 -38.1223 -38.0772 -37.9831
   -37.9830 -37.8028 -37.8028 -37.7576 -37.7571   2.9413   3.0906   3.3702
     3.7027   3.8879   3.9008   4.0159   4.0592   4.0860   4.2665   4.3898
     4.5394   4.9842   5.0244   5.1054   5.3123   5.4832   5.4920   5.5341
     5.6597   6.1971   6.2384   6.4500   6.5583   6.6655   7.1125   7.1622
     7.3082   7.5605   7.7266   7.9554   8.1835   8.3133   8.4386   8.4467
     8.5628   8.6265   8.7162   9.4029  10.6275  12.0086  13.4085  14.5542

          k = 0.1667 0.4170 0.0000 (  4459 PWs)   bands (ev):

   -38.5817 -38.5699 -38.5531 -38.5297 -38.4844 -38.4410 -38.3796 -38.3062
   -38.3038 -38.2814 -38.2273 -38.2205 -38.1993 -38.1666 -38.1083 -38.0777
   -38.0763 -37.8649 -37.8649 -37.7502 -37.7501   3.1181   3.1831   3.3221
     3.4730   3.5286   3.5934   3.8103   3.8960   4.1111   4.2952   4.5546
     4.6732   4.9250   5.1023   5.1957   5.4359   5.5321   5.8856   5.9584
     6.1210   6.2029   6.4415   6.5685   6.8356   7.1337   7.2761   7.4108
     7.6339   7.7691   8.0057   8.4854   8.7774   8.8668   8.9408   9.1113
    10.1793  10.3262  10.5413  11.1605  12.2738  13.6557  15.1044  16.3981

          k = 0.1667 0.5453 0.0000 (  4490 PWs)   bands (ev):

   -38.6388 -38.6257 -38.5929 -38.5664 -38.5384 -38.4020 -38.3838 -38.3533
   -38.3391 -38.3019 -38.2636 -38.2398 -38.2258 -38.1750 -38.1357 -38.1220
   -38.1210 -37.8987 -37.8986 -37.7463 -37.7463   2.8136   3.0994   3.1191
     3.2397   3.3877   3.4765   3.6049   3.8477   4.0408   4.0890   4.4348
     4.5518   4.7926   5.1720   5.4783   5.6559   5.7214   5.9305   6.2045
     6.3240   6.5364   6.8221   7.1928   7.2458   7.3427   7.7258   8.0133
     8.1588   8.2894   8.4043   8.5812   8.7099   8.7962   8.9924   9.1191
    12.0390  12.4618  12.8793  13.2784  13.7832  14.2555  14.5068  16.4909

          k = 0.1667-0.4811 0.0000 (  4476 PWs)   bands (ev):

   -38.6183 -38.6055 -38.5791 -38.5527 -38.5202 -38.4182 -38.3827 -38.3355
   -38.3269 -38.2930 -38.2488 -38.2388 -38.2143 -38.1738 -38.1248 -38.1073
   -38.1054 -37.8870 -37.8868 -37.7477 -37.7475   2.9215   3.1305   3.1850
     3.3436   3.4279   3.5179   3.6765   3.8844   4.0470   4.1789   4.4509
     4.6522   4.9038   5.0488   5.4564   5.5345   5.7518   5.9518   6.0479
     6.1681   6.5261   6.6696   6.9295   7.0658   7.1966   7.6177   7.8112
     7.8273   7.9827   8.1317   8.5403   8.8322   8.8831   9.0421   9.2085
    11.1464  11.4103  11.7234  12.2945  13.2307  14.4013  15.5467  16.7354

          k = 0.1667-0.3528 0.0000 (  4458 PWs)   bands (ev):

   -38.5453 -38.5351 -38.5183 -38.5007 -38.4543 -38.4331 -38.3664 -38.2822
   -38.2687 -38.2639 -38.2032 -38.1868 -38.1828 -38.1498 -38.0919 -38.0352
   -38.0348 -37.8355 -37.8354 -37.7539 -37.7538   3.2066   3.3037   3.4051
     3.5380   3.6567   3.7581   3.8591   4.0088   4.2457   4.3030   4.4769
     4.6703   4.8517   4.9669   5.2302   5.3488   5.3874   5.5944   5.7874
     5.8676   6.1142   6.1647   6.4509   6.7178   6.8834   7.0548   7.3300
     7.4838   7.6960   7.8698   8.3390   8.5327   8.6477   8.6713   8.8851
     9.2855   9.3520   9.4816  10.1376  11.3630  12.7875  14.2409  15.4756

          k = 0.1667-0.2245 0.0000 (  4433 PWs)   bands (ev):

   -38.5650 -38.5398 -38.4496 -38.4017 -38.3621 -38.3076 -38.2880 -38.2457
   -38.2006 -38.1992 -38.1653 -38.1410 -38.1184 -38.0906 -38.0652 -37.9270
   -37.9269 -37.7727 -37.7727 -37.7618 -37.7614   2.4239   2.7298   3.2116
     3.5745   3.6995   3.8551   3.9802   4.1526   4.2818   4.3286   4.4946
     4.6692   4.7916   5.0983   5.2800   5.4369   5.5122   5.6212   5.7553
     5.8345   6.0605   6.2258   6.5245   6.5687   6.6045   6.8311   6.9263
     7.1671   7.1926   7.2709   7.5870   7.6895   7.8842   8.0310   8.0448
     8.1503   8.4627   8.6800   8.9522  10.0395  11.3275  12.6408  13.6675

          k = 0.1667-0.0962 0.0000 (  4427 PWs)   bands (ev):

   -38.6094 -38.5631 -38.4220 -38.3146 -38.2600 -38.2245 -38.1918 -38.1757
   -38.1655 -38.1632 -38.1160 -38.1070 -38.0813 -38.0680 -38.0356 -37.8293
   -37.8292 -37.7690 -37.7685 -37.7339 -37.7336   1.6133   2.0381   2.6873
     3.1005   3.1897   3.4796   3.5481   4.4068   4.6821   4.7747   4.8375
     4.9899   5.0094   5.5009   5.5470   5.6878   5.7915   5.8000   5.8996
     5.9997   6.0264   6.0886   6.1259   6.1319   6.3289   6.4452   6.6046
     6.7077   6.9138   6.9633   7.1442   7.2876   7.5155   7.5926   7.8664
     8.1726   8.2886   8.6933   8.9019   9.1269  10.2724  11.4155  12.1962

          k = 0.2778 0.4811 0.0000 (  4485 PWs)   bands (ev):

   -38.5806 -38.5769 -38.5477 -38.5347 -38.4844 -38.4601 -38.4279 -38.3844
   -38.3600 -38.3393 -38.2959 -38.2834 -38.2097 -38.2005 -38.1380 -38.0861
   -38.0860 -37.9577 -37.9576 -37.7451 -37.7450   3.3421   3.3573   3.5188
     3.5953   3.8366   3.9772   4.1153   4.1652   4.2535   4.3400   4.4048
     4.4895   4.8203   4.9621   5.1402   5.3373   5.5948   5.6958   6.0216
     6.0314   6.2461   6.2468   6.7397   6.8481   7.0005   7.2511   7.4081
     7.4779   7.8142   8.1594   8.5270   8.7941   8.8335   8.8968   9.1020
    12.4945  12.7236  13.1815  13.8638  14.7921  15.8887  16.8211  16.9335

          k = 0.2778 0.6094 0.0000 (  4491 PWs)   bands (ev):

   -38.5739 -38.5641 -38.5328 -38.5273 -38.4960 -38.4660 -38.4458 -38.4133
   -38.3853 -38.3638 -38.3036 -38.2985 -38.2085 -38.1980 -38.1514 -38.0783
   -38.0781 -37.9897 -37.9895 -37.7439 -37.7435   3.3126   3.5504   3.5866
     3.7340   3.8513   3.9996   4.0435   4.1086   4.1887   4.3492   4.4019
     4.5682   4.7195   5.0889   5.1988   5.4167   5.5420   5.6844   5.9379
     5.9931   6.2888   6.3102   6.7096   6.9064   7.0920   7.2476   7.4466
     7.5114   8.1097   8.3184   8.4654   8.6196   8.6886   8.7367   8.8796
    13.7065  14.0018  14.4588  14.9031  15.2915  15.7535  16.2844  16.5100

          k = 0.2778-0.4170 0.0000 (  4462 PWs)   bands (ev):

   -38.5875 -38.5781 -38.5566 -38.5324 -38.4959 -38.4418 -38.3957 -38.3458
   -38.3393 -38.3072 -38.2659 -38.2519 -38.2095 -38.1929 -38.1214 -38.0874
   -38.0868 -37.9124 -37.9122 -37.7470 -37.7469   3.1986   3.3327   3.4163
     3.5575   3.6855   3.7810   3.9363   4.1433   4.2437   4.2998   4.5416
     4.7001   4.7554   4.8580   5.2035   5.2705   5.5887   5.7784   6.0122
     6.0874   6.2385   6.3166   6.5388   6.8261   7.0442   7.2710   7.4336
     7.5613   7.6656   8.0160   8.5306   8.8916   8.9204   9.0190   9.2077
    11.3207  11.4701  11.8225  12.4742  13.4840  14.7421  16.0696  17.2346

          k = 0.2778-0.2887 0.0000 (  4463 PWs)   bands (ev):

   -38.5647 -38.5547 -38.5391 -38.5214 -38.4569 -38.4420 -38.3701 -38.2791
   -38.2650 -38.2564 -38.2029 -38.1887 -38.1772 -38.1267 -38.0977 -38.0570
   -38.0555 -37.8232 -37.8229 -37.7535 -37.7534   2.9629   3.0783   3.2177
     3.2570   3.3772   3.4967   3.6309   3.8565   4.0522   4.1905   4.5438
     4.7883   5.1464   5.1837   5.4068   5.5376   5.6365   5.7932   5.9789
     6.1509   6.3441   6.5643   6.6917   6.8223   7.1263   7.3267   7.4720
     7.5803   7.8272   8.1262   8.3653   8.4554   8.6487   8.6698   8.9161
     9.1366   9.3184   9.3971  10.0462  11.3125  12.7910  14.2903  15.5681

          k = 0.2778-0.1604 0.0000 (  4458 PWs)   bands (ev):

   -38.5562 -38.5319 -38.4902 -38.4645 -38.4127 -38.3682 -38.3296 -38.2576
   -38.2129 -38.2094 -38.1852 -38.1513 -38.1195 -38.0930 -38.0699 -37.9885
   -37.9881 -37.7745 -37.7744 -37.7598 -37.7594   2.5783   2.8363   3.0418
     3.1449   3.4124   3.5238   3.7809   3.8541   4.1080   4.2716   4.6904
     4.9364   5.1463   5.3299   5.5467   5.6761   5.7969   5.8369   6.0513
     6.1526   6.4174   6.5204   6.5503   6.7181   6.8603   7.0835   7.2634
     7.3354   7.4090   7.4792   7.6541   7.8312   7.8677   7.9572   8.0994
     8.3272   8.7306   8.9055   8.9670  10.2480  11.7148  13.1429  14.2705

          k = 0.3889 0.6736 0.0000 (  4511 PWs)   bands (ev):

   -38.6105 -38.5971 -38.5630 -38.5445 -38.5151 -38.4244 -38.4189 -38.3763
   -38.3755 -38.3365 -38.2917 -38.2758 -38.2199 -38.1888 -38.1439 -38.1038
   -38.1036 -37.9482 -37.9478 -37.7449 -37.7447   3.0388   3.3376   3.4157
     3.6102   3.6424   3.7946   3.7970   4.0769   4.1720   4.2412   4.4933
     4.5285   4.6924   4.9381   5.3099   5.4987   5.7202   5.9130   5.9261
     6.2628   6.3342   6.7180   6.7211   6.8088   7.1560   7.4885   7.7106
     7.8427   8.2662   8.3811   8.4470   8.6236   8.7022   8.9143   8.9195
    13.2361  13.5379  13.8439  14.1449  14.5059  14.9095  15.2395  16.6253

          k = 0.3889-0.3528 0.0000 (  4485 PWs)   bands (ev):

   -38.6519 -38.6386 -38.6084 -38.5793 -38.5492 -38.4021 -38.3830 -38.3106
   -38.3030 -38.2738 -38.2427 -38.2144 -38.2111 -38.1507 -38.1384 -38.1265
   -38.1176 -37.8558 -37.8557 -37.7486 -37.7484   2.6510   2.8394   2.9227
     2.9914   3.1482   3.2609   3.3476   3.6647   3.7904   3.8820   4.4131
     4.7340   5.0281   5.3670   5.4853   5.6945   5.8395   5.9112   6.4213
     6.5742   6.6514   7.1868   7.2930   7.6423   7.7779   7.9085   8.2561
     8.3814   8.3886   8.4694   8.6158   8.8056   8.8956   9.0368   9.2167
    10.7728  11.2585  11.6513  12.0012  12.7478  13.7273  14.5463  16.4195

          k = 0.3889-0.2245 0.0000 (  4444 PWs)   bands (ev):

   -38.6273 -38.6153 -38.5912 -38.5673 -38.5189 -38.4217 -38.3815 -38.2799
   -38.2537 -38.2491 -38.2242 -38.1892 -38.1529 -38.1342 -38.1112 -38.1007
   -38.1006 -37.8099 -37.8097 -37.7521 -37.7517   2.5992   2.6543   2.8047
     2.9223   2.9862   3.1623   3.2301   3.5442   3.6422   3.8511   4.5119
     4.9460   5.3133   5.3905   5.5510   5.8503   5.8628   5.9534   6.4416
     6.6638   6.8202   7.1297   7.5322   7.8007   8.0686   8.1945   8.2758
     8.4336   8.5001   8.5514   8.5734   8.6926   8.7405   8.8584   8.9663
     9.0844   9.1865   9.4355   9.9686  11.3855  12.9657  14.5298  16.0686

          k =-0.5000-0.8660 0.0000 (  4492 PWs)   bands (ev):

   -38.6843 -38.6713 -38.6405 -38.6056 -38.5805 -38.3937 -38.3933 -38.2708
   -38.2650 -38.2636 -38.2564 -38.2040 -38.1704 -38.1662 -38.1536 -38.1247
   -38.1129 -37.8241 -37.8239 -37.7497 -37.7496   2.3736   2.5611   2.6306
     2.7261   2.8738   3.0148   3.0409   3.3933   3.4497   3.6939   4.4012
     4.8895   5.1380   5.2769   5.4440   5.7589   6.1807   6.2316   6.3842
     7.0804   7.1295   7.2200   7.8992   8.1536   8.3566   8.5029   8.7872
     8.9034   8.9169   8.9975   9.0022   9.0690   9.1940   9.3725   9.3791
     9.7369  10.8345  11.7413  11.9351  12.3410  12.4769  12.6190  16.0936

     the Fermi energy is     8.3466 ev

!    total energy              =   -1198.23257689 Ry
     estimated scf accuracy    <       0.00000014 Ry
     smearing contrib. (-TS)   =      -0.03027307 Ry
     internal energy E=F+TS    =   -1198.20230382 Ry

     The total energy is F=E-TS. E is the sum of the following terms:
     one-electron contribution =  -13461.37324914 Ry
     hartree contribution      =    6776.46596506 Ry
     xc contribution           =    -209.36488794 Ry
     ewald contribution        =    5696.06986820 Ry

     total magnetization       =    -0.00 Bohr mag/cell
     absolute magnetization    =     0.00 Bohr mag/cell

     convergence has been achieved in  10 iterations

     negative rho (up, down):  2.004E-01 2.004E-01

     Forces acting on atoms (cartesian axes, Ry/au):

     atom    1 type  1   force =     0.00000000    0.00000000    0.00216213
     atom    2 type  1   force =     0.00000000    0.00000000    0.00138288
     atom    3 type  1   force =     0.00000000    0.00000000   -0.00142898
     atom    4 type  1   force =     0.00000000    0.00000000    0.00000621
     atom    5 type  1   force =     0.00000000    0.00000000    0.00143458
     atom    6 type  1   force =     0.00000000    0.00000000   -0.00138864
     atom    7 type  1   force =     0.00000000    0.00000000   -0.00216817

     Total force =     0.004161     Total SCF correction =     0.000916
     SCF correction compared to forces is large: reduce conv_thr to get better values
     Energy error            =      2.5E-04
     Gradient error          =      2.2E-03

     number of scf cycles    =   4
     number of bfgs steps    =   3

     energy   old            =   -1198.2323252753 Ry
     energy   new            =   -1198.2325768923 Ry

     CASE: energy  _new < energy  _old

     new trust radius        =       0.0082607900 bohr
     new conv_thr            =       0.0000002168 Ry


ATOMIC_POSITIONS (angstrom)
Rh            0.0000000000        0.0000000000        0.0285538008
Rh            1.3554284000       -0.7825569000        2.2017164556
Rh            1.3554284000        0.7825569000        4.4099385876
Rh            0.0000000000        0.0000000000        6.6402443417
Rh            1.3554284000       -0.7825569000        8.8705149401
Rh            1.3554284000        0.7825569000       11.0786878559
Rh            0.0000000000        0.0000000000       13.2518551185



     Writing output data file /home/STUDENTI/leonardo.razzai/Rh_work/surf_111/7-L.save/
     NEW-OLD atomic charge density approx. for the potential

     negative rho (up, down):  2.000E-01 2.000E-01
     Generating pointlists ...

     total cpu time spent up to now is      416.0 secs

     Self-consistent Calculation

     iteration #  1     ecut=    35.00 Ry     beta= 0.40
     Davidson diagonalization with overlap
     ethr =  1.00E-06,  avg # of iterations =  5.0

     negative rho (up, down):  2.000E-01 2.000E-01

     total cpu time spent up to now is      430.8 secs

     total energy              =   -1198.23250900 Ry
     estimated scf accuracy    <       0.00233598 Ry

     total magnetization       =    -0.00 Bohr mag/cell
     absolute magnetization    =     0.00 Bohr mag/cell

     iteration #  2     ecut=    35.00 Ry     beta= 0.40
     Davidson diagonalization with overlap
     ethr =  2.22E-06,  avg # of iterations =  1.0

     negative rho (up, down):  2.000E-01 2.000E-01

     total cpu time spent up to now is      438.6 secs

     total energy              =   -1198.23259523 Ry
     estimated scf accuracy    <       0.00041358 Ry

     total magnetization       =    -0.00 Bohr mag/cell
     absolute magnetization    =     0.00 Bohr mag/cell

     iteration #  3     ecut=    35.00 Ry     beta= 0.40
     Davidson diagonalization with overlap
     ethr =  3.94E-07,  avg # of iterations =  1.0

     negative rho (up, down):  2.000E-01 2.000E-01

     total cpu time spent up to now is      446.4 secs

     total energy              =   -1198.23261154 Ry
     estimated scf accuracy    <       0.00013155 Ry

     total magnetization       =    -0.00 Bohr mag/cell
     absolute magnetization    =     0.00 Bohr mag/cell

     iteration #  4     ecut=    35.00 Ry     beta= 0.40
     Davidson diagonalization with overlap
     ethr =  1.25E-07,  avg # of iterations =  1.0

     negative rho (up, down):  2.000E-01 2.000E-01

     total cpu time spent up to now is      454.1 secs

     total energy              =   -1198.23260576 Ry
     estimated scf accuracy    <       0.00005756 Ry

     total magnetization       =    -0.00 Bohr mag/cell
     absolute magnetization    =     0.00 Bohr mag/cell

     iteration #  5     ecut=    35.00 Ry     beta= 0.40
     Davidson diagonalization with overlap
     ethr =  5.48E-08,  avg # of iterations =  1.0

     negative rho (up, down):  2.000E-01 2.000E-01

     total cpu time spent up to now is      461.9 secs

     total energy              =   -1198.23260833 Ry
     estimated scf accuracy    <       0.00000188 Ry

     total magnetization       =    -0.00 Bohr mag/cell
     absolute magnetization    =     0.00 Bohr mag/cell

     iteration #  6     ecut=    35.00 Ry     beta= 0.40
     Davidson diagonalization with overlap
     ethr =  1.79E-09,  avg # of iterations =  2.0

     negative rho (up, down):  2.000E-01 2.000E-01

     total cpu time spent up to now is      470.3 secs

     total energy              =   -1198.23260830 Ry
     estimated scf accuracy    <       0.00000128 Ry

     total magnetization       =    -0.00 Bohr mag/cell
     absolute magnetization    =     0.00 Bohr mag/cell

     iteration #  7     ecut=    35.00 Ry     beta= 0.40
     Davidson diagonalization with overlap
     ethr =  1.21E-09,  avg # of iterations =  1.1

     negative rho (up, down):  2.000E-01 2.000E-01

     total cpu time spent up to now is      478.1 secs

     total energy              =   -1198.23260826 Ry
     estimated scf accuracy    <       0.00000080 Ry

     total magnetization       =    -0.00 Bohr mag/cell
     absolute magnetization    =     0.00 Bohr mag/cell

     iteration #  8     ecut=    35.00 Ry     beta= 0.40
     Davidson diagonalization with overlap
     ethr =  7.63E-10,  avg # of iterations =  1.2

     negative rho (up, down):  2.000E-01 2.000E-01

     total cpu time spent up to now is      485.9 secs

     total energy              =   -1198.23260839 Ry
     estimated scf accuracy    <       0.00000115 Ry

     total magnetization       =    -0.00 Bohr mag/cell
     absolute magnetization    =     0.00 Bohr mag/cell

     iteration #  9     ecut=    35.00 Ry     beta= 0.40
     Davidson diagonalization with overlap
     ethr =  7.63E-10,  avg # of iterations =  1.2

     negative rho (up, down):  2.000E-01 2.000E-01

     total cpu time spent up to now is      493.8 secs

     total energy              =   -1198.23260855 Ry
     estimated scf accuracy    <       0.00000048 Ry

     total magnetization       =    -0.00 Bohr mag/cell
     absolute magnetization    =     0.00 Bohr mag/cell

     iteration # 10     ecut=    35.00 Ry     beta= 0.40
     Davidson diagonalization with overlap
     ethr =  4.61E-10,  avg # of iterations =  1.0

     negative rho (up, down):  2.000E-01 2.000E-01
 
     Magnetic moment per site:
     atom:    1    charge:   13.1060    magn:   -0.0000    constr:    0.0000
     atom:    2    charge:   13.1606    magn:   -0.0000    constr:    0.0000
     atom:    3    charge:   13.1559    magn:    0.0000    constr:    0.0000
     atom:    4    charge:   13.1511    magn:    0.0000    constr:    0.0000
     atom:    5    charge:   13.1559    magn:   -0.0000    constr:    0.0000
     atom:    6    charge:   13.1607    magn:   -0.0000    constr:    0.0000
     atom:    7    charge:   13.1060    magn:   -0.0000    constr:    0.0000

     total cpu time spent up to now is      501.5 secs

     End of self-consistent calculation

 ------ SPIN UP ------------


          k = 0.0556 0.0962 0.0000 (  4451 PWs)   bands (ev):

   -38.6393 -38.5871 -38.4159 -38.2648 -38.1775 -38.1672 -38.1452 -38.1442
   -38.1099 -38.1083 -38.0792 -38.0673 -38.0548 -38.0427 -38.0158 -37.7794
   -37.7783 -37.7473 -37.7472 -37.7157 -37.7156   1.0441   1.5031   2.2101
     2.7199   2.7413   3.0345   3.0820   4.9106   4.9269   5.1258   5.1833
     5.2745   5.3528   5.5583   5.5810   5.6149   5.6512   5.6574   5.6932
     5.7921   5.8435   5.8961   5.9582   6.0897   6.1969   6.2010   6.7504
     7.0563   7.0974   7.2822   7.3294   7.5178   7.5528   7.6731   7.7645
     8.0646   8.1035   8.5961   8.6208   8.8124   9.3715  10.2994  10.8425

          k = 0.0556 0.2245 0.0000 (  4420 PWs)   bands (ev):

   -38.5893 -38.5551 -38.4285 -38.3527 -38.3060 -38.2557 -38.2312 -38.2092
   -38.1783 -38.1770 -38.1408 -38.1142 -38.0925 -38.0681 -38.0435 -37.8735
   -37.8734 -37.7675 -37.7671 -37.7488 -37.7482   1.9579   2.3355   2.9294
     3.2902   3.4138   3.6866   3.7839   4.2251   4.4975   4.5968   4.6470
     4.8364   4.8761   5.3539   5.4665   5.6161   5.7156   5.7990   5.8557
     5.9212   6.0443   6.1822   6.3001   6.4307   6.5176   6.6392   6.7251
     6.7692   6.9214   7.0584   7.1626   7.3344   7.6280   7.7150   7.9664
     8.0963   8.5161   8.6619   8.8181   9.5412  10.7410  11.9665  12.8590

          k = 0.0556 0.3528 0.0000 (  4467 PWs)   bands (ev):

   -38.5551 -38.5351 -38.5200 -38.5026 -38.4374 -38.4052 -38.3530 -38.2667
   -38.2328 -38.2285 -38.1907 -38.1631 -38.1375 -38.0963 -38.0789 -38.0263
   -38.0254 -37.7924 -37.7924 -37.7587 -37.7585   2.7500   2.9977   3.0456
     3.1335   3.3694   3.4199   3.6556   3.8112   4.0802   4.1444   4.6369
     4.9490   5.1343   5.3555   5.5523   5.6643   5.6868   5.7847   6.0400
     6.1640   6.4445   6.5971   6.7399   6.8177   7.0434   7.3060   7.4676
     7.5245   7.7279   7.8378   7.9890   8.0996   8.2827   8.3580   8.4846
     8.4947   8.6681   8.9088   9.3092  10.6567  12.1616  13.6441  14.8523

          k = 0.0556 0.4811 0.0000 (  4463 PWs)   bands (ev):

   -38.6477 -38.6364 -38.6050 -38.5788 -38.5360 -38.4125 -38.3861 -38.2820
   -38.2718 -38.2619 -38.2275 -38.1966 -38.1724 -38.1370 -38.1289 -38.1128
   -38.1039 -37.8253 -37.8252 -37.7524 -37.7521   2.5680   2.6856   2.7927
     2.8899   3.0046   3.1752   3.1813   3.5460   3.6334   3.8109   4.4535
     4.8725   5.2123   5.3776   5.5120   5.7500   5.9312   5.9856   6.4861
     6.6704   6.8339   7.2272   7.5114   7.8560   8.0471   8.0955   8.3868
     8.4765   8.5798   8.6234   8.7192   8.7368   8.8861   8.9865   9.1440
     9.5869  10.1159  10.4443  10.7765  11.8679  13.2683  14.6198  16.3650

          k = 0.0556-0.5453 0.0000 (  4486 PWs)   bands (ev):

   -38.6762 -38.6642 -38.6294 -38.5979 -38.5657 -38.3989 -38.3919 -38.2842
   -38.2800 -38.2595 -38.2440 -38.2038 -38.1829 -38.1537 -38.1494 -38.1192
   -38.1139 -37.8330 -37.8327 -37.7512 -37.7510   2.4509   2.6346   2.7031
     2.7909   2.9422   3.0892   3.1032   3.4687   3.5374   3.7349   4.4088
     4.8438   5.1196   5.3303   5.4488   5.7656   5.9834   6.1363   6.4920
     6.8079   7.0706   7.2816   7.7150   8.0756   8.1954   8.4515   8.4935
     8.6981   8.7891   8.8698   8.9012   8.9646   9.0397   9.1463   9.2614
    10.2148  11.0002  11.7323  11.8965  12.1983  12.9087  13.4790  16.1815

          k = 0.0556-0.4170 0.0000 (  4465 PWs)   bands (ev):

   -38.5963 -38.5875 -38.5658 -38.5464 -38.4824 -38.4323 -38.3776 -38.2770
   -38.2555 -38.2496 -38.2100 -38.1827 -38.1567 -38.1133 -38.0991 -38.0856
   -38.0799 -37.8115 -37.8115 -37.7551 -37.7547   2.7546   2.7813   2.9526
     3.0476   3.1127   3.2929   3.3700   3.6688   3.8227   3.9511   4.5457
     4.9139   5.3296   5.4630   5.5877   5.6426   5.7117   5.9628   6.2677
     6.3853   6.6042   6.9942   7.1780   7.3820   7.5759   7.6936   8.0058
     8.0899   8.1303   8.2569   8.3704   8.5154   8.6214   8.7279   8.8948
     9.0153   9.2025   9.2760   9.9112  11.2769  12.8385  14.3977  15.7725

          k = 0.0556-0.2887 0.0000 (  4439 PWs)   bands (ev):

   -38.5608 -38.5395 -38.4623 -38.4287 -38.3822 -38.3270 -38.3003 -38.2458
   -38.2057 -38.2030 -38.1695 -38.1390 -38.1152 -38.0807 -38.0605 -37.9522
   -37.9516 -37.7705 -37.7704 -37.7626 -37.7623   2.4744   2.7498   3.1245
     3.2958   3.5164   3.7113   3.9025   4.0404   4.2291   4.3824   4.6250
     4.6877   5.0032   5.1305   5.4955   5.6727   5.7569   5.8143   5.9048
     6.0327   6.1076   6.2758   6.3746   6.6841   6.7320   6.8343   6.9878
     7.1599   7.2304   7.3440   7.5820   7.6936   7.8332   7.9648   8.0760
     8.2600   8.5740   8.8545   8.9223  10.0791  11.4524  12.8159  13.8764

          k = 0.0556-0.1604 0.0000 (  4443 PWs)   bands (ev):

   -38.6180 -38.5728 -38.4177 -38.2954 -38.2334 -38.2048 -38.1733 -38.1656
   -38.1518 -38.1444 -38.1030 -38.0922 -38.0691 -38.0597 -38.0283 -37.8046
   -37.8044 -37.7712 -37.7708 -37.7296 -37.7296   1.4379   1.8735   2.5547
     3.0280   3.0590   3.3550   3.4032   4.5924   4.7145   4.8803   4.9563
     5.0569   5.0940   5.4252   5.5594   5.6682   5.7508   5.7957   5.8763
     5.8905   5.9376   5.9915   6.0248   6.2117   6.2667   6.4290   6.5009
     6.8896   6.9809   7.0491   7.1202   7.3084   7.5043   7.6399   7.8667
     8.0109   8.3697   8.5638   8.7964   9.0505  10.0362  11.1125  11.8230

          k = 0.0556-0.0321 0.0000 (  4465 PWs)   bands (ev):

   -38.6507 -38.5951 -38.4168 -38.2547 -38.1471 -38.1442 -38.1358 -38.1345
   -38.0862 -38.0803 -38.0735 -38.0539 -38.0530 -38.0204 -38.0088 -37.7813
   -37.7799 -37.7195 -37.7193 -37.7084 -37.7081   0.8354   1.3023   2.0161
     2.5349   2.5711   2.8512   2.8988   5.0772   5.1089   5.2742   5.3438
     5.3913   5.4105   5.4317   5.5021   5.5239   5.6182   5.6465   5.6646
     5.7039   5.7390   5.9170   5.9735   6.0396   6.0534   6.2976   7.1543
     7.1941   7.2524   7.3685   7.3768   7.5202   7.5574   7.8074   7.9193
     8.1453   8.2621   8.2645   8.6650   8.8331   8.8554   9.6668  10.0951

          k = 0.1667 0.2887 0.0000 (  4425 PWs)   bands (ev):

   -38.5394 -38.5342 -38.4792 -38.4572 -38.4193 -38.3663 -38.3312 -38.2657
   -38.2328 -38.2321 -38.1741 -38.1677 -38.1430 -38.1157 -38.0722 -37.9834
   -37.9832 -37.8033 -37.8033 -37.7592 -37.7587   2.9446   3.0888   3.3685
     3.6990   3.8851   3.9038   4.0108   4.0618   4.0788   4.2619   4.3878
     4.5425   4.9838   5.0250   5.1049   5.3128   5.4824   5.4869   5.5308
     5.6670   6.2004   6.2404   6.4523   6.5543   6.6699   7.1129   7.1661
     7.3064   7.5616   7.7275   7.9582   8.1852   8.3174   8.4406   8.4519
     8.5652   8.6287   8.7197   9.4074  10.6333  12.0155  13.4153  14.5602

          k = 0.1667 0.4170 0.0000 (  4459 PWs)   bands (ev):

   -38.5819 -38.5716 -38.5514 -38.5304 -38.4788 -38.4405 -38.3802 -38.3074
   -38.3047 -38.2789 -38.2237 -38.2164 -38.1967 -38.1609 -38.1032 -38.0778
   -38.0761 -37.8654 -37.8653 -37.7520 -37.7519   3.1202   3.1856   3.3185
     3.4678   3.5262   3.5885   3.8080   3.8953   4.1105   4.2941   4.5533
     4.6700   4.9210   5.1045   5.1958   5.4334   5.5336   5.8862   5.9607
     6.1220   6.2021   6.4415   6.5681   6.8372   7.1365   7.2781   7.4153
     7.6352   7.7726   8.0103   8.4902   8.7809   8.8698   8.9437   9.1147
    10.1823  10.3281  10.5426  11.1634  12.2790  13.6630  15.1096  16.4037

          k = 0.1667 0.5453 0.0000 (  4490 PWs)   bands (ev):

   -38.6388 -38.6276 -38.5911 -38.5656 -38.5321 -38.4039 -38.3861 -38.3541
   -38.3404 -38.2972 -38.2599 -38.2371 -38.2221 -38.1703 -38.1308 -38.1218
   -38.1201 -37.8991 -37.8990 -37.7482 -37.7482   2.8156   3.1016   3.1118
     3.2411   3.3811   3.4712   3.6039   3.8485   4.0388   4.0861   4.4327
     4.5477   4.7972   5.1693   5.4767   5.6561   5.7237   5.9304   6.2024
     6.3271   6.5385   6.8219   7.1933   7.2462   7.3435   7.7286   8.0171
     8.1625   8.2925   8.4088   8.5861   8.7132   8.8004   8.9961   9.1229
    12.0418  12.4630  12.8815  13.2810  13.7865  14.2610  14.5104  16.4910

          k = 0.1667-0.4811 0.0000 (  4476 PWs)   bands (ev):

   -38.6184 -38.6073 -38.5772 -38.5523 -38.5141 -38.4190 -38.3845 -38.3367
   -38.3282 -38.2891 -38.2447 -38.2358 -38.2111 -38.1687 -38.1198 -38.1073
   -38.1047 -37.8874 -37.8872 -37.7495 -37.7494   2.9236   3.1329   3.1795
     3.3431   3.4220   3.5122   3.6753   3.8845   4.0452   4.1770   4.4493
     4.6479   4.9085   5.0454   5.4575   5.5308   5.7532   5.9531   6.0492
     6.1685   6.5269   6.6704   6.9287   7.0664   7.1984   7.6203   7.8139
     7.8314   7.9864   8.1370   8.5450   8.8357   8.8867   9.0453   9.2121
    11.1493  11.4116  11.7254  12.2974  13.2351  14.4077  15.5505  16.7392

          k = 0.1667-0.3528 0.0000 (  4458 PWs)   bands (ev):

   -38.5455 -38.5359 -38.5180 -38.5030 -38.4525 -38.4281 -38.3651 -38.2806
   -38.2698 -38.2645 -38.1993 -38.1846 -38.1790 -38.1435 -38.0868 -38.0354
   -38.0349 -37.8360 -37.8359 -37.7556 -37.7555   3.2089   3.3071   3.4008
     3.5346   3.6536   3.7544   3.8580   4.0059   4.2419   4.3050   4.4705
     4.6722   4.8509   4.9665   5.2289   5.3464   5.3892   5.5953   5.7864
     5.8676   6.1167   6.1673   6.4494   6.7211   6.8857   7.0567   7.3335
     7.4839   7.6980   7.8723   8.3432   8.5361   8.6518   8.6734   8.8885
     9.2888   9.3546   9.4820  10.1412  11.3688  12.7949  14.2469  15.4815

          k = 0.1667-0.2245 0.0000 (  4433 PWs)   bands (ev):

   -38.5648 -38.5426 -38.4480 -38.4031 -38.3621 -38.3036 -38.2849 -38.2434
   -38.2015 -38.1998 -38.1625 -38.1369 -38.1150 -38.0849 -38.0601 -37.9274
   -37.9272 -37.7733 -37.7733 -37.7632 -37.7628   2.4269   2.7264   3.2106
     3.5756   3.6962   3.8506   3.9790   4.1514   4.2827   4.3251   4.4918
     4.6701   4.7916   5.0978   5.2805   5.4362   5.5134   5.6214   5.7520
     5.8388   6.0624   6.2287   6.5203   6.5701   6.6055   6.8355   6.9233
     7.1682   7.1949   7.2727   7.5870   7.6902   7.8859   8.0337   8.0477
     8.1535   8.4685   8.6840   8.9569  10.0448  11.3333  12.6485  13.6736

          k = 0.1667-0.0962 0.0000 (  4427 PWs)   bands (ev):

   -38.6087 -38.5666 -38.4201 -38.3149 -38.2609 -38.2226 -38.1886 -38.1728
   -38.1664 -38.1644 -38.1108 -38.1026 -38.0783 -38.0634 -38.0299 -37.8299
   -37.8298 -37.7703 -37.7697 -37.7344 -37.7342   1.6162   2.0340   2.6868
     3.1025   3.1891   3.4744   3.5451   4.4085   4.6782   4.7791   4.8360
     4.9876   5.0070   5.5018   5.5494   5.6882   5.7925   5.8053   5.9016
     5.9938   6.0257   6.0908   6.1219   6.1352   6.3324   6.4423   6.6030
     6.7096   6.9145   6.9655   7.1483   7.2876   7.5174   7.5949   7.8680
     8.1755   8.2899   8.6995   8.9065   9.1305  10.2759  11.4238  12.2025

          k = 0.2778 0.4811 0.0000 (  4485 PWs)   bands (ev):

   -38.5815 -38.5781 -38.5461 -38.5330 -38.4806 -38.4596 -38.4283 -38.3848
   -38.3608 -38.3357 -38.2933 -38.2817 -38.2046 -38.1974 -38.1317 -38.0863
   -38.0862 -37.9580 -37.9580 -37.7470 -37.7469   3.3429   3.3592   3.5178
     3.5879   3.8297   3.9734   4.1162   4.1702   4.2460   4.3333   4.4013
     4.4894   4.8195   4.9626   5.1369   5.3385   5.5970   5.6976   6.0213
     6.0318   6.2449   6.2454   6.7417   6.8523   7.0047   7.2539   7.4130
     7.4825   7.8179   8.1638   8.5316   8.7977   8.8367   8.9017   9.1055
    12.4978  12.7246  13.1836  13.8668  14.7962  15.8938  16.8248  16.9361

          k = 0.2778 0.6094 0.0000 (  4491 PWs)   bands (ev):

   -38.5740 -38.5656 -38.5317 -38.5261 -38.4937 -38.4675 -38.4433 -38.4121
   -38.3822 -38.3615 -38.3029 -38.2979 -38.2046 -38.1943 -38.1444 -38.0785
   -38.0783 -37.9899 -37.9898 -37.7458 -37.7454   3.3143   3.5452   3.5873
     3.7301   3.8499   3.9942   4.0472   4.0999   4.1791   4.3531   4.4003
     4.5665   4.7159   5.0894   5.1961   5.4172   5.5454   5.6855   5.9372
     5.9933   6.2874   6.3094   6.7115   6.9115   7.0955   7.2501   7.4527
     7.5170   8.1130   8.3228   8.4701   8.6233   8.6934   8.7402   8.8831
    13.7097  14.0031  14.4613  14.9057  15.2936  15.7575  16.2872  16.5131

          k = 0.2778-0.4170 0.0000 (  4462 PWs)   bands (ev):

   -38.5880 -38.5799 -38.5545 -38.5320 -38.4906 -38.4415 -38.3965 -38.3472
   -38.3408 -38.3037 -38.2625 -38.2491 -38.2045 -38.1890 -38.1157 -38.0875
   -38.0869 -37.9128 -37.9126 -37.7489 -37.7488   3.2005   3.3340   3.4129
     3.5545   3.6790   3.7787   3.9337   4.1398   4.2435   4.2992   4.5367
     4.6973   4.7551   4.8586   5.1999   5.2719   5.5911   5.7785   6.0132
     6.0877   6.2382   6.3165   6.5393   6.8301   7.0471   7.2737   7.4375
     7.5642   7.6697   8.0208   8.5354   8.8952   8.9237   9.0228   9.2110
    11.3241  11.4712  11.8242  12.4771  13.4886  14.7485  16.0742  17.2395

          k = 0.2778-0.2887 0.0000 (  4463 PWs)   bands (ev):

   -38.5647 -38.5551 -38.5390 -38.5231 -38.4529 -38.4393 -38.3698 -38.2776
   -38.2655 -38.2571 -38.1988 -38.1859 -38.1738 -38.1211 -38.0928 -38.0571
   -38.0553 -37.8237 -37.8234 -37.7552 -37.7551   2.9653   3.0803   3.2155
     3.2523   3.3757   3.4922   3.6284   3.8542   4.0513   4.1898   4.5435
     4.7862   5.1474   5.1789   5.4102   5.5379   5.6345   5.7961   5.9808
     6.1465   6.3453   6.5641   6.6925   6.8217   7.1274   7.3300   7.4764
     7.5808   7.8294   8.1278   8.3694   8.4593   8.6514   8.6732   8.9200
     9.1394   9.3211   9.3980  10.0499  11.3183  12.7986  14.2962  15.5740

          k = 0.2778-0.1604 0.0000 (  4458 PWs)   bands (ev):

   -38.5560 -38.5341 -38.4894 -38.4664 -38.4111 -38.3636 -38.3272 -38.2556
   -38.2135 -38.2107 -38.1823 -38.1469 -38.1166 -38.0878 -38.0645 -37.9888
   -37.9884 -37.7750 -37.7749 -37.7613 -37.7610   2.5809   2.8330   3.0431
     3.1430   3.4079   3.5241   3.7775   3.8523   4.1079   4.2695   4.6876
     4.9363   5.1464   5.3301   5.5503   5.6797   5.7978   5.8397   6.0411
     6.1538   6.4172   6.5188   6.5497   6.7198   6.8588   7.0806   7.2673
     7.3372   7.4141   7.4819   7.6537   7.8316   7.8712   7.9587   8.1023
     8.3295   8.7381   8.9099   8.9718  10.2535  11.7213  13.1502  14.2766

          k = 0.3889 0.6736 0.0000 (  4511 PWs)   bands (ev):

   -38.6105 -38.5989 -38.5615 -38.5438 -38.5090 -38.4255 -38.4205 -38.3768
   -38.3745 -38.3335 -38.2901 -38.2730 -38.2158 -38.1847 -38.1374 -38.1040
   -38.1038 -37.9485 -37.9481 -37.7468 -37.7466   3.0407   3.3296   3.4182
     3.6116   3.6382   3.7902   3.7940   4.0720   4.1667   4.2403   4.4901
     4.5316   4.6925   4.9365   5.3091   5.4953   5.7199   5.9172   5.9271
     6.2645   6.3342   6.7200   6.7207   6.8095   7.1591   7.4913   7.7152
     7.8471   8.2692   8.3853   8.4524   8.6271   8.7069   8.9180   8.9231
    13.2391  13.5400  13.8457  14.1465  14.5077  14.9152  15.2434  16.6277

          k = 0.3889-0.3528 0.0000 (  4485 PWs)   bands (ev):

   -38.6520 -38.6404 -38.6064 -38.5785 -38.5431 -38.4040 -38.3856 -38.3113
   -38.3036 -38.2702 -38.2377 -38.2117 -38.2082 -38.1468 -38.1364 -38.1252
   -38.1138 -37.8562 -37.8562 -37.7505 -37.7503   2.6530   2.8416   2.9167
     2.9918   3.1419   3.2559   3.3484   3.6636   3.7889   3.8793   4.4124
     4.7317   5.0331   5.3638   5.4859   5.6968   5.8406   5.9073   6.4193
     6.5736   6.6544   7.1873   7.2929   7.6426   7.7781   7.9124   8.2602
     8.3844   8.3910   8.4735   8.6201   8.8092   8.8990   9.0393   9.2204
    10.7755  11.2594  11.6542  12.0043  12.7521  13.7337  14.5500  16.4216

          k = 0.3889-0.2245 0.0000 (  4444 PWs)   bands (ev):

   -38.6273 -38.6169 -38.5895 -38.5669 -38.5136 -38.4221 -38.3834 -38.2769
   -38.2541 -38.2503 -38.2211 -38.1849 -38.1500 -38.1306 -38.1113 -38.0986
   -38.0953 -37.8104 -37.8102 -37.7539 -37.7535   2.6008   2.6566   2.7987
     2.9212   2.9851   3.1626   3.2240   3.5409   3.6414   3.8495   4.5118
     4.9471   5.3169   5.3941   5.5521   5.8398   5.8629   5.9549   6.4397
     6.6618   6.8233   7.1284   7.5331   7.8004   8.0715   8.1962   8.2774
     8.4371   8.5001   8.5545   8.5753   8.6967   8.7446   8.8585   8.9687
     9.0887   9.1887   9.4392   9.9731  11.3912  12.9737  14.5347  16.0739

          k =-0.5000-0.8660 0.0000 (  4492 PWs)   bands (ev):

   -38.6845 -38.6732 -38.6383 -38.6046 -38.5742 -38.3965 -38.3964 -38.2711
   -38.2662 -38.2580 -38.2536 -38.1998 -38.1688 -38.1634 -38.1538 -38.1205
   -38.1077 -37.8245 -37.8244 -37.7516 -37.7516   2.3754   2.5632   2.6233
     2.7280   2.8689   3.0166   3.0352   3.3914   3.4473   3.6920   4.4007
     4.8901   5.1427   5.2808   5.4451   5.7482   6.1818   6.2331   6.3824
     7.0786   7.1285   7.2228   7.8998   8.1567   8.3594   8.5088   8.7900
     8.9052   8.9163   9.0019   9.0055   9.0716   9.1972   9.3725   9.3796
     9.7393  10.8349  11.7446  11.9401  12.3476  12.4807  12.6232  16.0930

 ------ SPIN DOWN ----------


          k = 0.0556 0.0962 0.0000 (  4451 PWs)   bands (ev):

   -38.6393 -38.5871 -38.4159 -38.2648 -38.1775 -38.1672 -38.1452 -38.1442
   -38.1099 -38.1083 -38.0792 -38.0673 -38.0548 -38.0427 -38.0158 -37.7794
   -37.7783 -37.7473 -37.7472 -37.7157 -37.7156   1.0441   1.5031   2.2101
     2.7199   2.7413   3.0345   3.0820   4.9106   4.9269   5.1258   5.1833
     5.2745   5.3528   5.5583   5.5810   5.6149   5.6512   5.6574   5.6932
     5.7921   5.8435   5.8961   5.9582   6.0897   6.1969   6.2010   6.7504
     7.0563   7.0974   7.2822   7.3294   7.5178   7.5528   7.6731   7.7645
     8.0646   8.1035   8.5961   8.6208   8.8124   9.3715  10.2994  10.8425

          k = 0.0556 0.2245 0.0000 (  4420 PWs)   bands (ev):

   -38.5893 -38.5551 -38.4285 -38.3527 -38.3060 -38.2557 -38.2312 -38.2092
   -38.1783 -38.1770 -38.1408 -38.1142 -38.0925 -38.0681 -38.0435 -37.8735
   -37.8734 -37.7675 -37.7671 -37.7488 -37.7483   1.9579   2.3355   2.9294
     3.2902   3.4138   3.6866   3.7839   4.2251   4.4975   4.5968   4.6470
     4.8364   4.8761   5.3539   5.4665   5.6161   5.7156   5.7990   5.8557
     5.9212   6.0443   6.1822   6.3001   6.4307   6.5176   6.6392   6.7251
     6.7692   6.9214   7.0584   7.1626   7.3344   7.6280   7.7150   7.9664
     8.0963   8.5161   8.6619   8.8181   9.5412  10.7410  11.9665  12.8590

          k = 0.0556 0.3528 0.0000 (  4467 PWs)   bands (ev):

   -38.5551 -38.5351 -38.5200 -38.5026 -38.4374 -38.4052 -38.3530 -38.2667
   -38.2328 -38.2285 -38.1907 -38.1631 -38.1375 -38.0963 -38.0789 -38.0263
   -38.0254 -37.7924 -37.7924 -37.7587 -37.7585   2.7500   2.9977   3.0456
     3.1335   3.3694   3.4199   3.6556   3.8112   4.0802   4.1444   4.6369
     4.9490   5.1343   5.3555   5.5523   5.6643   5.6868   5.7847   6.0400
     6.1640   6.4445   6.5971   6.7399   6.8177   7.0434   7.3060   7.4676
     7.5245   7.7279   7.8378   7.9890   8.0996   8.2827   8.3580   8.4846
     8.4947   8.6681   8.9088   9.3092  10.6567  12.1616  13.6441  14.8523

          k = 0.0556 0.4811 0.0000 (  4463 PWs)   bands (ev):

   -38.6477 -38.6364 -38.6050 -38.5788 -38.5360 -38.4125 -38.3861 -38.2820
   -38.2718 -38.2619 -38.2275 -38.1966 -38.1724 -38.1370 -38.1289 -38.1128
   -38.1039 -37.8253 -37.8252 -37.7524 -37.7521   2.5680   2.6856   2.7927
     2.8899   3.0046   3.1752   3.1813   3.5460   3.6334   3.8109   4.4535
     4.8725   5.2123   5.3776   5.5120   5.7500   5.9312   5.9856   6.4861
     6.6704   6.8339   7.2272   7.5114   7.8560   8.0471   8.0955   8.3868
     8.4765   8.5798   8.6234   8.7192   8.7368   8.8861   8.9865   9.1440
     9.5869  10.1159  10.4443  10.7765  11.8679  13.2683  14.6198  16.3650

          k = 0.0556-0.5453 0.0000 (  4486 PWs)   bands (ev):

   -38.6762 -38.6642 -38.6294 -38.5979 -38.5657 -38.3989 -38.3919 -38.2842
   -38.2800 -38.2595 -38.2440 -38.2038 -38.1829 -38.1537 -38.1494 -38.1192
   -38.1139 -37.8330 -37.8327 -37.7512 -37.7510   2.4509   2.6346   2.7031
     2.7909   2.9422   3.0892   3.1032   3.4687   3.5374   3.7349   4.4088
     4.8438   5.1196   5.3303   5.4488   5.7656   5.9834   6.1363   6.4920
     6.8079   7.0706   7.2816   7.7150   8.0756   8.1954   8.4515   8.4935
     8.6981   8.7891   8.8698   8.9012   8.9646   9.0397   9.1463   9.2614
    10.2148  11.0002  11.7323  11.8965  12.1983  12.9087  13.4790  16.1828

          k = 0.0556-0.4170 0.0000 (  4465 PWs)   bands (ev):

   -38.5963 -38.5875 -38.5658 -38.5464 -38.4824 -38.4323 -38.3776 -38.2770
   -38.2555 -38.2496 -38.2100 -38.1827 -38.1567 -38.1133 -38.0991 -38.0856
   -38.0799 -37.8115 -37.8115 -37.7551 -37.7547   2.7546   2.7813   2.9526
     3.0476   3.1127   3.2929   3.3700   3.6688   3.8227   3.9511   4.5457
     4.9139   5.3296   5.4630   5.5877   5.6426   5.7117   5.9628   6.2677
     6.3853   6.6042   6.9942   7.1780   7.3820   7.5759   7.6936   8.0058
     8.0899   8.1303   8.2569   8.3704   8.5154   8.6214   8.7279   8.8948
     9.0153   9.2025   9.2760   9.9112  11.2769  12.8385  14.3977  15.7725

          k = 0.0556-0.2887 0.0000 (  4439 PWs)   bands (ev):

   -38.5608 -38.5395 -38.4623 -38.4287 -38.3822 -38.3270 -38.3003 -38.2458
   -38.2057 -38.2030 -38.1695 -38.1390 -38.1152 -38.0807 -38.0605 -37.9522
   -37.9516 -37.7705 -37.7704 -37.7626 -37.7623   2.4744   2.7498   3.1245
     3.2958   3.5164   3.7113   3.9025   4.0404   4.2291   4.3824   4.6250
     4.6877   5.0032   5.1305   5.4955   5.6727   5.7569   5.8143   5.9048
     6.0327   6.1076   6.2758   6.3746   6.6841   6.7320   6.8343   6.9878
     7.1599   7.2304   7.3440   7.5820   7.6936   7.8332   7.9648   8.0760
     8.2600   8.5740   8.8545   8.9223  10.0791  11.4524  12.8159  13.8764

          k = 0.0556-0.1604 0.0000 (  4443 PWs)   bands (ev):

   -38.6180 -38.5728 -38.4177 -38.2954 -38.2334 -38.2048 -38.1733 -38.1656
   -38.1518 -38.1444 -38.1030 -38.0922 -38.0691 -38.0597 -38.0283 -37.8046
   -37.8044 -37.7712 -37.7708 -37.7296 -37.7296   1.4379   1.8735   2.5547
     3.0280   3.0590   3.3550   3.4032   4.5924   4.7145   4.8803   4.9563
     5.0569   5.0940   5.4252   5.5594   5.6682   5.7508   5.7957   5.8763
     5.8905   5.9376   5.9915   6.0248   6.2117   6.2667   6.4290   6.5009
     6.8896   6.9809   7.0491   7.1202   7.3084   7.5043   7.6399   7.8667
     8.0109   8.3697   8.5638   8.7964   9.0505  10.0362  11.1125  11.8230

          k = 0.0556-0.0321 0.0000 (  4465 PWs)   bands (ev):

   -38.6507 -38.5951 -38.4168 -38.2547 -38.1471 -38.1442 -38.1358 -38.1345
   -38.0862 -38.0803 -38.0735 -38.0539 -38.0530 -38.0204 -38.0088 -37.7813
   -37.7799 -37.7195 -37.7193 -37.7084 -37.7081   0.8354   1.3023   2.0161
     2.5349   2.5711   2.8512   2.8988   5.0772   5.1089   5.2742   5.3438
     5.3913   5.4105   5.4317   5.5021   5.5239   5.6182   5.6465   5.6646
     5.7039   5.7390   5.9170   5.9735   6.0396   6.0534   6.2976   7.1543
     7.1941   7.2524   7.3685   7.3768   7.5202   7.5574   7.8074   7.9193
     8.1453   8.2621   8.2645   8.6650   8.8331   8.8554   9.6668  10.0951

          k = 0.1667 0.2887 0.0000 (  4425 PWs)   bands (ev):

   -38.5394 -38.5342 -38.4792 -38.4572 -38.4193 -38.3663 -38.3312 -38.2657
   -38.2328 -38.2321 -38.1741 -38.1677 -38.1430 -38.1157 -38.0722 -37.9834
   -37.9832 -37.8033 -37.8033 -37.7592 -37.7587   2.9446   3.0888   3.3685
     3.6990   3.8851   3.9038   4.0108   4.0618   4.0788   4.2619   4.3878
     4.5425   4.9838   5.0250   5.1049   5.3128   5.4824   5.4869   5.5308
     5.6670   6.2004   6.2404   6.4523   6.5543   6.6699   7.1129   7.1661
     7.3064   7.5616   7.7275   7.9582   8.1852   8.3174   8.4406   8.4519
     8.5652   8.6287   8.7197   9.4074  10.6333  12.0155  13.4153  14.5602

          k = 0.1667 0.4170 0.0000 (  4459 PWs)   bands (ev):

   -38.5819 -38.5716 -38.5514 -38.5304 -38.4788 -38.4405 -38.3802 -38.3074
   -38.3047 -38.2789 -38.2237 -38.2164 -38.1967 -38.1609 -38.1032 -38.0778
   -38.0761 -37.8654 -37.8653 -37.7520 -37.7519   3.1202   3.1856   3.3185
     3.4678   3.5262   3.5885   3.8080   3.8953   4.1105   4.2941   4.5533
     4.6700   4.9210   5.1045   5.1958   5.4334   5.5336   5.8862   5.9607
     6.1220   6.2021   6.4415   6.5681   6.8372   7.1365   7.2781   7.4153
     7.6352   7.7726   8.0103   8.4902   8.7809   8.8698   8.9437   9.1147
    10.1823  10.3281  10.5426  11.1634  12.2790  13.6630  15.1096  16.4037

          k = 0.1667 0.5453 0.0000 (  4490 PWs)   bands (ev):

   -38.6388 -38.6276 -38.5911 -38.5656 -38.5321 -38.4039 -38.3861 -38.3541
   -38.3404 -38.2972 -38.2599 -38.2371 -38.2221 -38.1703 -38.1308 -38.1218
   -38.1201 -37.8991 -37.8990 -37.7482 -37.7482   2.8156   3.1016   3.1118
     3.2411   3.3811   3.4712   3.6039   3.8485   4.0388   4.0861   4.4327
     4.5477   4.7972   5.1693   5.4767   5.6561   5.7237   5.9304   6.2024
     6.3271   6.5385   6.8219   7.1933   7.2462   7.3435   7.7286   8.0171
     8.1625   8.2925   8.4088   8.5861   8.7132   8.8004   8.9961   9.1229
    12.0418  12.4630  12.8815  13.2810  13.7865  14.2610  14.5104  16.4920

          k = 0.1667-0.4811 0.0000 (  4476 PWs)   bands (ev):

   -38.6184 -38.6073 -38.5772 -38.5523 -38.5141 -38.4190 -38.3845 -38.3367
   -38.3282 -38.2891 -38.2447 -38.2358 -38.2111 -38.1687 -38.1198 -38.1073
   -38.1047 -37.8874 -37.8872 -37.7495 -37.7494   2.9236   3.1329   3.1795
     3.3431   3.4220   3.5122   3.6753   3.8845   4.0452   4.1770   4.4493
     4.6479   4.9085   5.0454   5.4575   5.5308   5.7532   5.9531   6.0492
     6.1685   6.5269   6.6704   6.9287   7.0664   7.1984   7.6203   7.8139
     7.8314   7.9864   8.1370   8.5450   8.8357   8.8867   9.0453   9.2121
    11.1493  11.4116  11.7254  12.2974  13.2351  14.4077  15.5505  16.7391

          k = 0.1667-0.3528 0.0000 (  4458 PWs)   bands (ev):

   -38.5455 -38.5359 -38.5180 -38.5030 -38.4525 -38.4281 -38.3651 -38.2806
   -38.2698 -38.2645 -38.1993 -38.1846 -38.1790 -38.1435 -38.0868 -38.0354
   -38.0349 -37.8360 -37.8359 -37.7556 -37.7555   3.2089   3.3071   3.4008
     3.5346   3.6536   3.7544   3.8580   4.0059   4.2419   4.3050   4.4705
     4.6722   4.8509   4.9665   5.2289   5.3464   5.3892   5.5953   5.7864
     5.8676   6.1167   6.1673   6.4494   6.7211   6.8857   7.0567   7.3335
     7.4839   7.6980   7.8723   8.3432   8.5361   8.6518   8.6734   8.8885
     9.2888   9.3546   9.4820  10.1412  11.3688  12.7949  14.2469  15.4815

          k = 0.1667-0.2245 0.0000 (  4433 PWs)   bands (ev):

   -38.5648 -38.5426 -38.4480 -38.4031 -38.3621 -38.3036 -38.2849 -38.2434
   -38.2015 -38.1998 -38.1625 -38.1369 -38.1150 -38.0849 -38.0601 -37.9274
   -37.9272 -37.7733 -37.7733 -37.7632 -37.7628   2.4269   2.7264   3.2106
     3.5756   3.6962   3.8506   3.9790   4.1514   4.2827   4.3251   4.4918
     4.6701   4.7916   5.0978   5.2805   5.4362   5.5134   5.6214   5.7520
     5.8388   6.0624   6.2287   6.5203   6.5701   6.6055   6.8355   6.9233
     7.1682   7.1949   7.2727   7.5870   7.6902   7.8859   8.0337   8.0477
     8.1535   8.4685   8.6840   8.9569  10.0448  11.3333  12.6485  13.6736

          k = 0.1667-0.0962 0.0000 (  4427 PWs)   bands (ev):

   -38.6087 -38.5666 -38.4201 -38.3149 -38.2609 -38.2226 -38.1886 -38.1728
   -38.1664 -38.1644 -38.1108 -38.1026 -38.0783 -38.0634 -38.0299 -37.8299
   -37.8298 -37.7703 -37.7697 -37.7344 -37.7342   1.6162   2.0340   2.6868
     3.1025   3.1891   3.4744   3.5451   4.4085   4.6782   4.7791   4.8360
     4.9876   5.0070   5.5018   5.5494   5.6882   5.7925   5.8053   5.9016
     5.9938   6.0257   6.0908   6.1219   6.1352   6.3324   6.4423   6.6030
     6.7096   6.9145   6.9655   7.1483   7.2876   7.5174   7.5949   7.8680
     8.1755   8.2899   8.6995   8.9065   9.1305  10.2759  11.4238  12.2025

          k = 0.2778 0.4811 0.0000 (  4485 PWs)   bands (ev):

   -38.5815 -38.5781 -38.5461 -38.5330 -38.4806 -38.4596 -38.4283 -38.3848
   -38.3608 -38.3357 -38.2933 -38.2817 -38.2046 -38.1974 -38.1317 -38.0863
   -38.0862 -37.9580 -37.9580 -37.7470 -37.7469   3.3429   3.3592   3.5178
     3.5879   3.8297   3.9734   4.1162   4.1702   4.2460   4.3333   4.4013
     4.4894   4.8195   4.9626   5.1369   5.3385   5.5970   5.6976   6.0213
     6.0318   6.2449   6.2454   6.7417   6.8523   7.0047   7.2539   7.4130
     7.4825   7.8179   8.1638   8.5316   8.7977   8.8367   8.9017   9.1055
    12.4978  12.7246  13.1836  13.8668  14.7962  15.8938  16.8248  16.9361

          k = 0.2778 0.6094 0.0000 (  4491 PWs)   bands (ev):

   -38.5740 -38.5656 -38.5317 -38.5261 -38.4937 -38.4675 -38.4433 -38.4121
   -38.3822 -38.3615 -38.3029 -38.2979 -38.2046 -38.1943 -38.1444 -38.0785
   -38.0783 -37.9899 -37.9898 -37.7458 -37.7454   3.3143   3.5452   3.5873
     3.7301   3.8499   3.9942   4.0472   4.0999   4.1791   4.3531   4.4003
     4.5665   4.7159   5.0894   5.1961   5.4172   5.5454   5.6855   5.9372
     5.9933   6.2874   6.3094   6.7115   6.9115   7.0955   7.2501   7.4527
     7.5170   8.1130   8.3228   8.4701   8.6233   8.6934   8.7402   8.8831
    13.7097  14.0031  14.4613  14.9057  15.2936  15.7575  16.2872  16.5131

          k = 0.2778-0.4170 0.0000 (  4462 PWs)   bands (ev):

   -38.5880 -38.5799 -38.5545 -38.5320 -38.4906 -38.4415 -38.3965 -38.3472
   -38.3408 -38.3037 -38.2625 -38.2491 -38.2045 -38.1890 -38.1157 -38.0875
   -38.0869 -37.9128 -37.9126 -37.7489 -37.7488   3.2005   3.3340   3.4129
     3.5545   3.6790   3.7787   3.9337   4.1398   4.2435   4.2992   4.5367
     4.6973   4.7551   4.8586   5.1999   5.2719   5.5911   5.7785   6.0132
     6.0877   6.2382   6.3165   6.5393   6.8301   7.0471   7.2737   7.4375
     7.5642   7.6697   8.0208   8.5354   8.8952   8.9237   9.0228   9.2110
    11.3241  11.4712  11.8242  12.4771  13.4886  14.7485  16.0742  17.2395

          k = 0.2778-0.2887 0.0000 (  4463 PWs)   bands (ev):

   -38.5647 -38.5551 -38.5390 -38.5231 -38.4529 -38.4393 -38.3698 -38.2776
   -38.2655 -38.2571 -38.1988 -38.1859 -38.1738 -38.1211 -38.0928 -38.0571
   -38.0553 -37.8237 -37.8234 -37.7552 -37.7551   2.9653   3.0803   3.2155
     3.2523   3.3757   3.4922   3.6284   3.8542   4.0513   4.1898   4.5435
     4.7862   5.1474   5.1789   5.4102   5.5379   5.6345   5.7961   5.9808
     6.1465   6.3453   6.5641   6.6925   6.8217   7.1274   7.3300   7.4764
     7.5808   7.8294   8.1278   8.3694   8.4593   8.6514   8.6732   8.9200
     9.1394   9.3211   9.3980  10.0499  11.3183  12.7986  14.2962  15.5740

          k = 0.2778-0.1604 0.0000 (  4458 PWs)   bands (ev):

   -38.5560 -38.5341 -38.4894 -38.4664 -38.4111 -38.3636 -38.3272 -38.2556
   -38.2135 -38.2107 -38.1823 -38.1469 -38.1166 -38.0878 -38.0645 -37.9888
   -37.9884 -37.7750 -37.7749 -37.7613 -37.7610   2.5809   2.8330   3.0431
     3.1430   3.4079   3.5241   3.7775   3.8523   4.1079   4.2695   4.6876
     4.9363   5.1464   5.3301   5.5503   5.6797   5.7978   5.8397   6.0411
     6.1538   6.4172   6.5188   6.5497   6.7198   6.8588   7.0806   7.2673
     7.3372   7.4141   7.4819   7.6537   7.8316   7.8712   7.9587   8.1023
     8.3295   8.7381   8.9099   8.9718  10.2535  11.7213  13.1502  14.2766

          k = 0.3889 0.6736 0.0000 (  4511 PWs)   bands (ev):

   -38.6105 -38.5989 -38.5615 -38.5438 -38.5090 -38.4255 -38.4205 -38.3768
   -38.3745 -38.3335 -38.2901 -38.2730 -38.2158 -38.1847 -38.1374 -38.1040
   -38.1038 -37.9485 -37.9481 -37.7468 -37.7466   3.0407   3.3296   3.4182
     3.6116   3.6382   3.7902   3.7940   4.0720   4.1667   4.2403   4.4901
     4.5316   4.6925   4.9365   5.3091   5.4953   5.7199   5.9172   5.9271
     6.2645   6.3342   6.7200   6.7207   6.8095   7.1591   7.4913   7.7152
     7.8471   8.2692   8.3853   8.4524   8.6271   8.7069   8.9180   8.9231
    13.2391  13.5400  13.8457  14.1465  14.5077  14.9152  15.2434  16.6279

          k = 0.3889-0.3528 0.0000 (  4485 PWs)   bands (ev):

   -38.6520 -38.6404 -38.6064 -38.5785 -38.5431 -38.4040 -38.3856 -38.3113
   -38.3036 -38.2702 -38.2377 -38.2117 -38.2082 -38.1468 -38.1364 -38.1252
   -38.1138 -37.8562 -37.8562 -37.7505 -37.7503   2.6530   2.8416   2.9167
     2.9918   3.1419   3.2559   3.3484   3.6636   3.7889   3.8793   4.4124
     4.7317   5.0331   5.3638   5.4859   5.6968   5.8406   5.9073   6.4193
     6.5736   6.6544   7.1873   7.2929   7.6426   7.7781   7.9124   8.2602
     8.3844   8.3910   8.4735   8.6201   8.8092   8.8990   9.0393   9.2204
    10.7755  11.2594  11.6542  12.0043  12.7521  13.7337  14.5500  16.4215

          k = 0.3889-0.2245 0.0000 (  4444 PWs)   bands (ev):

   -38.6273 -38.6169 -38.5895 -38.5669 -38.5136 -38.4221 -38.3834 -38.2769
   -38.2541 -38.2503 -38.2211 -38.1849 -38.1500 -38.1306 -38.1113 -38.0986
   -38.0953 -37.8104 -37.8102 -37.7539 -37.7535   2.6008   2.6566   2.7987
     2.9212   2.9851   3.1626   3.2240   3.5409   3.6414   3.8495   4.5118
     4.9471   5.3169   5.3941   5.5521   5.8398   5.8629   5.9549   6.4397
     6.6618   6.8233   7.1283   7.5331   7.8004   8.0715   8.1962   8.2773
     8.4371   8.5001   8.5545   8.5753   8.6967   8.7446   8.8585   8.9687
     9.0887   9.1887   9.4392   9.9731  11.3912  12.9737  14.5347  16.0739

          k =-0.5000-0.8660 0.0000 (  4492 PWs)   bands (ev):

   -38.6845 -38.6732 -38.6383 -38.6046 -38.5742 -38.3965 -38.3964 -38.2711
   -38.2662 -38.2580 -38.2536 -38.1998 -38.1688 -38.1634 -38.1538 -38.1205
   -38.1077 -37.8245 -37.8244 -37.7516 -37.7516   2.3754   2.5632   2.6233
     2.7280   2.8689   3.0166   3.0352   3.3914   3.4473   3.6920   4.4007
     4.8901   5.1427   5.2808   5.4451   5.7482   6.1818   6.2331   6.3824
     7.0786   7.1285   7.2228   7.8998   8.1567   8.3594   8.5088   8.7900
     8.9052   8.9163   9.0019   9.0055   9.0716   9.1972   9.3725   9.3796
     9.7393  10.8349  11.7446  11.9401  12.3476  12.4807  12.6232  16.0931

     the Fermi energy is     8.3499 ev

!    total energy              =   -1198.23260887 Ry
     estimated scf accuracy    <       0.00000010 Ry
     smearing contrib. (-TS)   =      -0.03020478 Ry
     internal energy E=F+TS    =   -1198.20240409 Ry

     The total energy is F=E-TS. E is the sum of the following terms:
     one-electron contribution =  -13470.38949796 Ry
     hartree contribution      =    6780.98143550 Ry
     xc contribution           =    -209.36910211 Ry
     ewald contribution        =    5700.57476048 Ry

     total magnetization       =    -0.00 Bohr mag/cell
     absolute magnetization    =     0.00 Bohr mag/cell

     convergence has been achieved in  10 iterations

     negative rho (up, down):  2.000E-01 2.000E-01

     Forces acting on atoms (cartesian axes, Ry/au):

     atom    1 type  1   force =     0.00000000    0.00000000    0.00077554
     atom    2 type  1   force =     0.00000000    0.00000000    0.00215778
     atom    3 type  1   force =     0.00000000    0.00000000   -0.00007501
     atom    4 type  1   force =     0.00000000    0.00000000    0.00000089
     atom    5 type  1   force =     0.00000000    0.00000000    0.00008369
     atom    6 type  1   force =     0.00000000    0.00000000   -0.00214266
     atom    7 type  1   force =     0.00000000    0.00000000   -0.00080023

     Total force =     0.003241     Total SCF correction =     0.002342
     SCF correction compared to forces is large: reduce conv_thr to get better values
     Energy error            =      3.2E-05
     Gradient error          =      2.2E-03

     number of scf cycles    =   5
     number of bfgs steps    =   4

     energy   old            =   -1198.2325768923 Ry
     energy   new            =   -1198.2326088653 Ry

     CASE: energy  _new < energy  _old

     new trust radius        =       0.0039166158 bohr
     new conv_thr            =       0.0000001000 Ry


ATOMIC_POSITIONS (angstrom)
Rh            0.0000000000        0.0000000000        0.0306074450
Rh            1.3554284000       -0.7825569000        2.2029672663
Rh            1.3554284000        0.7825569000        4.4089704462
Rh            0.0000000000        0.0000000000        6.6402469344
Rh            1.3554284000       -0.7825569000        8.8714907715
Rh            1.3554284000        0.7825569000       11.0774457019
Rh            0.0000000000        0.0000000000       13.2497825347



     Writing output data file /home/STUDENTI/leonardo.razzai/Rh_work/surf_111/7-L.save/
     NEW-OLD atomic charge density approx. for the potential

     negative rho (up, down):  1.996E-01 1.996E-01
     Generating pointlists ...

     total cpu time spent up to now is      503.8 secs

     Self-consistent Calculation

     iteration #  1     ecut=    35.00 Ry     beta= 0.40
     Davidson diagonalization with overlap
     ethr =  1.00E-06,  avg # of iterations =  5.0

     negative rho (up, down):  1.996E-01 1.996E-01

     total cpu time spent up to now is      517.9 secs

     total energy              =   -1198.23255905 Ry
     estimated scf accuracy    <       0.00358107 Ry

     total magnetization       =    -0.00 Bohr mag/cell
     absolute magnetization    =     0.00 Bohr mag/cell

     iteration #  2     ecut=    35.00 Ry     beta= 0.40
     Davidson diagonalization with overlap
     ethr =  3.41E-06,  avg # of iterations =  1.0

     negative rho (up, down):  1.996E-01 1.996E-01

     total cpu time spent up to now is      525.7 secs

     total energy              =   -1198.23260510 Ry
     estimated scf accuracy    <       0.00174992 Ry

     total magnetization       =    -0.00 Bohr mag/cell
     absolute magnetization    =     0.00 Bohr mag/cell

     iteration #  3     ecut=    35.00 Ry     beta= 0.40
     Davidson diagonalization with overlap
     ethr =  1.67E-06,  avg # of iterations =  1.0

     negative rho (up, down):  1.996E-01 1.996E-01

     total cpu time spent up to now is      533.5 secs

     total energy              =   -1198.23262315 Ry
     estimated scf accuracy    <       0.00014921 Ry

     total magnetization       =    -0.00 Bohr mag/cell
     absolute magnetization    =     0.00 Bohr mag/cell

     iteration #  4     ecut=    35.00 Ry     beta= 0.40
     Davidson diagonalization with overlap
     ethr =  1.42E-07,  avg # of iterations =  1.0

     negative rho (up, down):  1.996E-01 1.996E-01

     total cpu time spent up to now is      541.3 secs

     total energy              =   -1198.23262147 Ry
     estimated scf accuracy    <       0.00007024 Ry

     total magnetization       =    -0.00 Bohr mag/cell
     absolute magnetization    =     0.00 Bohr mag/cell

     iteration #  5     ecut=    35.00 Ry     beta= 0.40
     Davidson diagonalization with overlap
     ethr =  6.69E-08,  avg # of iterations =  1.0

     negative rho (up, down):  1.996E-01 1.996E-01

     total cpu time spent up to now is      549.0 secs

     total energy              =   -1198.23262204 Ry
     estimated scf accuracy    <       0.00000608 Ry

     total magnetization       =    -0.00 Bohr mag/cell
     absolute magnetization    =     0.00 Bohr mag/cell

     iteration #  6     ecut=    35.00 Ry     beta= 0.40
     Davidson diagonalization with overlap
     ethr =  5.79E-09,  avg # of iterations =  1.0

     negative rho (up, down):  1.996E-01 1.996E-01

     total cpu time spent up to now is      556.7 secs

     total energy              =   -1198.23262206 Ry
     estimated scf accuracy    <       0.00000059 Ry

     total magnetization       =    -0.00 Bohr mag/cell
     absolute magnetization    =     0.00 Bohr mag/cell

     iteration #  7     ecut=    35.00 Ry     beta= 0.40
     Davidson diagonalization with overlap
     ethr =  5.61E-10,  avg # of iterations =  1.3

     negative rho (up, down):  1.996E-01 1.996E-01

     total cpu time spent up to now is      564.6 secs

     total energy              =   -1198.23262204 Ry
     estimated scf accuracy    <       0.00000039 Ry

     total magnetization       =    -0.00 Bohr mag/cell
     absolute magnetization    =     0.00 Bohr mag/cell

     iteration #  8     ecut=    35.00 Ry     beta= 0.40
     Davidson diagonalization with overlap
     ethr =  3.68E-10,  avg # of iterations =  1.1

     negative rho (up, down):  1.996E-01 1.996E-01

     total cpu time spent up to now is      572.4 secs

     total energy              =   -1198.23262209 Ry
     estimated scf accuracy    <       0.00000025 Ry

     total magnetization       =    -0.00 Bohr mag/cell
     absolute magnetization    =     0.00 Bohr mag/cell

     iteration #  9     ecut=    35.00 Ry     beta= 0.40
     Davidson diagonalization with overlap
     ethr =  2.42E-10,  avg # of iterations =  1.2

     negative rho (up, down):  1.996E-01 1.996E-01

     total cpu time spent up to now is      580.3 secs

     total energy              =   -1198.23262221 Ry
     estimated scf accuracy    <       0.00000010 Ry

     total magnetization       =    -0.00 Bohr mag/cell
     absolute magnetization    =     0.00 Bohr mag/cell

     iteration # 10     ecut=    35.00 Ry     beta= 0.40
     Davidson diagonalization with overlap
     ethr =  9.63E-11,  avg # of iterations =  1.7

     negative rho (up, down):  1.996E-01 1.996E-01
 
     Magnetic moment per site:
     atom:    1    charge:   13.1065    magn:   -0.0000    constr:    0.0000
     atom:    2    charge:   13.1616    magn:   -0.0000    constr:    0.0000
     atom:    3    charge:   13.1563    magn:    0.0000    constr:    0.0000
     atom:    4    charge:   13.1507    magn:   -0.0000    constr:    0.0000
     atom:    5    charge:   13.1563    magn:   -0.0000    constr:    0.0000
     atom:    6    charge:   13.1616    magn:   -0.0000    constr:    0.0000
     atom:    7    charge:   13.1064    magn:    0.0000    constr:    0.0000

     total cpu time spent up to now is      588.2 secs

     End of self-consistent calculation

 ------ SPIN UP ------------


          k = 0.0556 0.0962 0.0000 (  4451 PWs)   bands (ev):

   -38.6403 -38.5897 -38.4151 -38.2651 -38.1783 -38.1678 -38.1461 -38.1451
   -38.1093 -38.1075 -38.0782 -38.0666 -38.0537 -38.0410 -38.0138 -37.7789
   -37.7779 -37.7466 -37.7465 -37.7150 -37.7149   1.0439   1.5008   2.2105
     2.7183   2.7416   3.0335   3.0816   4.9088   4.9286   5.1251   5.1819
     5.2723   5.3544   5.5597   5.5799   5.6142   5.6502   5.6565   5.6926
     5.7897   5.8448   5.8978   5.9592   6.0910   6.1971   6.2014   6.7507
     7.0563   7.0987   7.2814   7.3293   7.5190   7.5537   7.6739   7.7649
     8.0649   8.1047   8.5977   8.6218   8.8144   9.3722  10.3022  10.8453

          k = 0.0556 0.2245 0.0000 (  4420 PWs)   bands (ev):

   -38.5904 -38.5576 -38.4280 -38.3536 -38.3064 -38.2546 -38.2310 -38.2090
   -38.1791 -38.1777 -38.1395 -38.1131 -38.0921 -38.0667 -38.0416 -37.8728
   -37.8727 -37.7670 -37.7666 -37.7481 -37.7476   1.9577   2.3332   2.9294
     3.2895   3.4120   3.6852   3.7835   4.2248   4.4955   4.5966   4.6464
     4.8348   4.8762   5.3545   5.4673   5.6164   5.7165   5.7999   5.8543
     5.9222   6.0415   6.1830   6.2995   6.4286   6.5178   6.6405   6.7259
     6.7699   6.9218   7.0600   7.1630   7.3342   7.6284   7.7163   7.9673
     8.0968   8.5173   8.6638   8.8201   9.5434  10.7428  11.9697  12.8620

          k = 0.0556 0.3528 0.0000 (  4467 PWs)   bands (ev):

   -38.5563 -38.5366 -38.5211 -38.5040 -38.4366 -38.4036 -38.3528 -38.2662
   -38.2336 -38.2294 -38.1903 -38.1620 -38.1371 -38.0947 -38.0772 -38.0257
   -38.0248 -37.7917 -37.7917 -37.7583 -37.7581   2.7495   2.9948   3.0457
     3.1314   3.3675   3.4189   3.6534   3.8115   4.0805   4.1447   4.6365
     4.9493   5.1323   5.3552   5.5518   5.6640   5.6881   5.7838   6.0382
     6.1631   6.4457   6.5977   6.7401   6.8182   7.0429   7.3060   7.4689
     7.5251   7.7276   7.8391   7.9894   8.1002   8.2837   8.3582   8.4854
     8.4958   8.6704   8.9110   9.3112  10.6591  12.1649  13.6471  14.8551

          k = 0.0556 0.4811 0.0000 (  4463 PWs)   bands (ev):

   -38.6485 -38.6377 -38.6054 -38.5796 -38.5340 -38.4132 -38.3870 -38.2819
   -38.2725 -38.2622 -38.2269 -38.1955 -38.1719 -38.1360 -38.1284 -38.1114
   -38.1024 -37.8246 -37.8246 -37.7520 -37.7517   2.5671   2.6850   2.7894
     2.8884   3.0021   3.1724   3.1818   3.5462   3.6338   3.8114   4.4538
     4.8720   5.2133   5.3787   5.5105   5.7473   5.9300   5.9849   6.4871
     6.6694   6.8343   7.2275   7.5119   7.8560   8.0478   8.0963   8.3881
     8.4768   8.5799   8.6244   8.7212   8.7376   8.8870   8.9876   9.1456
     9.5876  10.1164  10.4458  10.7781  11.8695  13.2716  14.6221  16.3666

          k = 0.0556-0.5453 0.0000 (  4486 PWs)   bands (ev):

   -38.6770 -38.6655 -38.6296 -38.5987 -38.5633 -38.3999 -38.3929 -38.2849
   -38.2806 -38.2590 -38.2433 -38.2028 -38.1824 -38.1531 -38.1490 -38.1178
   -38.1123 -37.8324 -37.8320 -37.7508 -37.7505   2.4500   2.6340   2.6994
     2.7899   2.9392   3.0858   3.1045   3.4692   3.5375   3.7355   4.4091
     4.8431   5.1209   5.3318   5.4471   5.7611   5.9842   6.1356   6.4930
     6.8072   7.0709   7.2815   7.7150   8.0765   8.1967   8.4534   8.4939
     8.6991   8.7885   8.8712   8.9023   8.9660   9.0408   9.1469   9.2626
    10.2154  11.0005  11.7343  11.8978  12.1995  12.9111  13.4807  16.1819

          k = 0.0556-0.4170 0.0000 (  4465 PWs)   bands (ev):

   -38.5971 -38.5885 -38.5666 -38.5476 -38.4807 -38.4324 -38.3781 -38.2765
   -38.2563 -38.2505 -38.2095 -38.1816 -38.1563 -38.1117 -38.0975 -38.0850
   -38.0791 -37.8108 -37.8108 -37.7546 -37.7542   2.7541   2.7804   2.9497
     3.0451   3.1115   3.2926   3.3675   3.6688   3.8231   3.9516   4.5458
     4.9139   5.3297   5.4638   5.5862   5.6412   5.7118   5.9596   6.2666
     6.3863   6.6050   6.9951   7.1780   7.3826   7.5761   7.6932   8.0070
     8.0902   8.1312   8.2569   8.3719   8.5156   8.6224   8.7301   8.8959
     9.0171   9.2032   9.2772   9.9129  11.2791  12.8421  14.4005  15.7750

          k = 0.0556-0.2887 0.0000 (  4439 PWs)   bands (ev):

   -38.5621 -38.5418 -38.4625 -38.4298 -38.3820 -38.3254 -38.3000 -38.2454
   -38.2064 -38.2039 -38.1688 -38.1378 -38.1149 -38.0792 -38.0587 -37.9515
   -37.9509 -37.7698 -37.7698 -37.7622 -37.7618   2.4742   2.7476   3.1239
     3.2949   3.5139   3.7096   3.9029   4.0394   4.2291   4.3818   4.6238
     4.6857   5.0035   5.1309   5.4963   5.6740   5.7576   5.8128   5.9045
     6.0309   6.1075   6.2773   6.3736   6.6840   6.7316   6.8348   6.9872
     7.1615   7.2314   7.3445   7.5825   7.6942   7.8336   7.9658   8.0771
     8.2603   8.5760   8.8566   8.9242  10.0816  11.4550  12.8191  13.8793

          k = 0.0556-0.1604 0.0000 (  4443 PWs)   bands (ev):

   -38.6191 -38.5754 -38.4170 -38.2961 -38.2341 -38.2048 -38.1734 -38.1661
   -38.1519 -38.1445 -38.1014 -38.0911 -38.0684 -38.0585 -38.0263 -37.8039
   -37.8038 -37.7707 -37.7703 -37.7290 -37.7289   1.4378   1.8711   2.5550
     3.0272   3.0581   3.3539   3.4028   4.5922   4.7128   4.8806   4.9552
     5.0561   5.0928   5.4262   5.5602   5.6684   5.7494   5.7973   5.8770
     5.8885   5.9364   5.9897   6.0254   6.2135   6.2673   6.4293   6.5014
     6.8902   6.9816   7.0497   7.1211   7.3079   7.5046   7.6410   7.8674
     8.0115   8.3705   8.5655   8.7982   9.0525  10.0374  11.1156  11.8260

          k = 0.0556-0.0321 0.0000 (  4465 PWs)   bands (ev):

   -38.6517 -38.5978 -38.4160 -38.2548 -38.1479 -38.1450 -38.1366 -38.1355
   -38.0853 -38.0795 -38.0725 -38.0537 -38.0523 -38.0183 -38.0068 -37.7809
   -37.7794 -37.7188 -37.7187 -37.7077 -37.7074   0.8352   1.2999   2.0165
     2.5334   2.5714   2.8502   2.8985   5.0765   5.1109   5.2733   5.3423
     5.3891   5.4129   5.4309   5.5007   5.5216   5.6204   5.6450   5.6622
     5.7046   5.7409   5.9174   5.9739   6.0397   6.0535   6.2996   7.1539
     7.1944   7.2537   7.3677   7.3761   7.5211   7.5584   7.8079   7.9197
     8.1468   8.2640   8.2642   8.6669   8.8335   8.8572   9.6693  10.0978

          k = 0.1667 0.2887 0.0000 (  4425 PWs)   bands (ev):

   -38.5410 -38.5362 -38.4796 -38.4584 -38.4190 -38.3651 -38.3306 -38.2651
   -38.2335 -38.2328 -38.1738 -38.1670 -38.1426 -38.1134 -38.0707 -37.9827
   -37.9826 -37.8027 -37.8026 -37.7587 -37.7583   2.9444   3.0869   3.3671
     3.6972   3.8830   3.9034   4.0073   4.0626   4.0749   4.2613   4.3880
     4.5435   4.9843   5.0253   5.1052   5.3130   5.4828   5.4859   5.5284
     5.6685   6.2019   6.2411   6.4536   6.5532   6.6716   7.1120   7.1663
     7.3066   7.5612   7.7281   7.9589   8.1861   8.3187   8.4414   8.4538
     8.5661   8.6298   8.7210   9.4092  10.6358  12.0186  13.4184  14.5629

          k = 0.1667 0.4170 0.0000 (  4459 PWs)   bands (ev):

   -38.5828 -38.5729 -38.5519 -38.5317 -38.4768 -38.4409 -38.3808 -38.3082
   -38.3054 -38.2782 -38.2233 -38.2156 -38.1964 -38.1590 -38.1016 -38.0772
   -38.0755 -37.8647 -37.8646 -37.7516 -37.7514   3.1194   3.1850   3.3157
     3.4647   3.5240   3.5859   3.8078   3.8952   4.1112   4.2940   4.5531
     4.6689   4.9191   5.1039   5.1947   5.4323   5.5331   5.8870   5.9617
     6.1230   6.2024   6.4422   6.5681   6.8387   7.1372   7.2790   7.4165
     7.6352   7.7730   8.0118   8.4921   8.7821   8.8713   8.9446   9.1160
    10.1831  10.3286  10.5434  11.1647  12.2810  13.6664  15.1123  16.4061

          k = 0.1667 0.5453 0.0000 (  4490 PWs)   bands (ev):

   -38.6396 -38.6288 -38.5914 -38.5665 -38.5298 -38.4048 -38.3871 -38.3551
   -38.3412 -38.2958 -38.2589 -38.2370 -38.2216 -38.1688 -38.1293 -38.1214
   -38.1192 -37.8985 -37.8983 -37.7478 -37.7477   2.8146   3.1008   3.1080
     3.2400   3.3778   3.4679   3.6047   3.8494   4.0389   4.0862   4.4322
     4.5450   4.7974   5.1681   5.4763   5.6549   5.7248   5.9310   6.2012
     6.3272   6.5406   6.8221   7.1940   7.2464   7.3442   7.7290   8.0185
     8.1638   8.2932   8.4102   8.5879   8.7145   8.8022   8.9975   9.1244
    12.0426  12.4634  12.8826  13.2822  13.7874  14.2631  14.5120  16.4916

          k = 0.1667-0.4811 0.0000 (  4476 PWs)   bands (ev):

   -38.6192 -38.6086 -38.5776 -38.5533 -38.5119 -38.4197 -38.3855 -38.3375
   -38.3290 -38.2879 -38.2438 -38.2355 -38.2107 -38.1671 -38.1182 -38.1069
   -38.1040 -37.8868 -37.8865 -37.7491 -37.7490   2.9227   3.1322   3.1762
     3.3414   3.4188   3.5091   3.6757   3.8851   4.0455   4.1772   4.4489
     4.6455   4.9088   5.0440   5.4570   5.5292   5.7537   5.9535   6.0494
     6.1686   6.5274   6.6719   6.9292   7.0670   7.1987   7.6205   7.8147
     7.8330   7.9870   8.1389   8.5469   8.8369   8.8883   9.0465   9.2135
    11.1500  11.4119  11.7265  12.2986  13.2368  14.4105  15.5525  16.7406

          k = 0.1667-0.3528 0.0000 (  4458 PWs)   bands (ev):

   -38.5467 -38.5373 -38.5188 -38.5045 -38.4521 -38.4265 -38.3650 -38.2802
   -38.2705 -38.2649 -38.1988 -38.1845 -38.1785 -38.1412 -38.0853 -38.0348
   -38.0343 -37.8353 -37.8352 -37.7552 -37.7551   3.2083   3.3067   3.3979
     3.5325   3.6516   3.7515   3.8579   4.0046   4.2409   4.3057   4.4683
     4.6728   4.8510   4.9661   5.2279   5.3446   5.3893   5.5960   5.7869
     5.8678   6.1180   6.1685   6.4492   6.7228   6.8868   7.0574   7.3341
     7.4837   7.6980   7.8729   8.3449   8.5373   8.6528   8.6746   8.8899
     9.2898   9.3553   9.4825  10.1427  11.3711  12.7984  14.2498  15.4840

          k = 0.1667-0.2245 0.0000 (  4433 PWs)   bands (ev):

   -38.5661 -38.5449 -38.4479 -38.4042 -38.3622 -38.3024 -38.2844 -38.2431
   -38.2023 -38.2005 -38.1619 -38.1360 -38.1146 -38.0831 -38.0584 -37.9267
   -37.9266 -37.7726 -37.7726 -37.7627 -37.7623   2.4267   2.7242   3.2102
     3.5748   3.6941   3.8479   3.9784   4.1503   4.2824   4.3240   4.4910
     4.6700   4.7917   5.0979   5.2811   5.4362   5.5139   5.6218   5.7500
     5.8390   6.0634   6.2296   6.5191   6.5711   6.6059   6.8362   6.9212
     7.1696   7.1946   7.2739   7.5876   7.6908   7.8860   8.0347   8.0487
     8.1546   8.4705   8.6859   8.9586  10.0473  11.3358  12.6516  13.6765

          k = 0.1667-0.0962 0.0000 (  4427 PWs)   bands (ev):

   -38.6098 -38.5691 -38.4195 -38.3157 -38.2615 -38.2222 -38.1882 -38.1726
   -38.1672 -38.1654 -38.1090 -38.1014 -38.0781 -38.0621 -38.0280 -37.8292
   -37.8291 -37.7698 -37.7693 -37.7337 -37.7335   1.6160   2.0316   2.6870
     3.1018   3.1878   3.4733   3.5448   4.4083   4.6749   4.7810   4.8348
     4.9869   5.0058   5.5029   5.5505   5.6883   5.7910   5.8072   5.9029
     5.9903   6.0241   6.0916   6.1195   6.1366   6.3340   6.4427   6.6034
     6.7104   6.9153   6.9661   7.1497   7.2874   7.5169   7.5964   7.8689
     8.1768   8.2897   8.7017   8.9085   9.1327  10.2772  11.4270  12.2054

          k = 0.2778 0.4811 0.0000 (  4485 PWs)   bands (ev):

   -38.5825 -38.5792 -38.5465 -38.5335 -38.4795 -38.4603 -38.4289 -38.3851
   -38.3613 -38.3343 -38.2929 -38.2816 -38.2031 -38.1972 -38.1295 -38.0858
   -38.0856 -37.9574 -37.9573 -37.7466 -37.7464   3.3411   3.3586   3.5157
     3.5846   3.8269   3.9704   4.1161   4.1712   4.2437   4.3302   4.4006
     4.4893   4.8192   4.9628   5.1355   5.3385   5.5985   5.6974   6.0217
     6.0324   6.2455   6.2458   6.7426   6.8547   7.0067   7.2546   7.4142
     7.4833   7.8187   8.1653   8.5335   8.7991   8.8379   8.9035   9.1070
    12.4986  12.7249  13.1847  13.8680  14.7978  15.8961  16.8261  16.9370

          k = 0.2778 0.6094 0.0000 (  4491 PWs)   bands (ev):

   -38.5748 -38.5668 -38.5323 -38.5268 -38.4935 -38.4688 -38.4425 -38.4120
   -38.3817 -38.3606 -38.3029 -38.2979 -38.2041 -38.1938 -38.1418 -38.0779
   -38.0777 -37.9893 -37.9891 -37.7454 -37.7449   3.3131   3.5416   3.5861
     3.7279   3.8479   3.9910   4.0474   4.0966   4.1763   4.3536   4.4005
     4.5662   4.7148   5.0899   5.1952   5.4170   5.5466   5.6857   5.9376
     5.9938   6.2879   6.3099   6.7126   6.9145   7.0971   7.2504   7.4541
     7.5185   8.1137   8.3242   8.4717   8.6249   8.6951   8.7417   8.8846
    13.7105  14.0035  14.4623  14.9067  15.2941  15.7591  16.2887  16.5140

          k = 0.2778-0.4170 0.0000 (  4462 PWs)   bands (ev):

   -38.5890 -38.5812 -38.5549 -38.5330 -38.4887 -38.4422 -38.3973 -38.3478
   -38.3414 -38.3024 -38.2622 -38.2487 -38.2031 -38.1880 -38.1139 -38.0870
   -38.0864 -37.9121 -37.9120 -37.7485 -37.7483   3.1996   3.3327   3.4103
     3.5520   3.6764   3.7765   3.9330   4.1384   4.2439   4.2994   4.5342
     4.6964   4.7548   4.8586   5.1981   5.2718   5.5913   5.7791   6.0140
     6.0882   6.2391   6.3172   6.5398   6.8325   7.0482   7.2742   7.4390
     7.5646   7.6701   8.0224   8.5373   8.8966   8.9251   9.0242   9.2124
    11.3249  11.4715  11.8252  12.4784  13.4905  14.7515  16.0766  17.2416

          k = 0.2778-0.2887 0.0000 (  4463 PWs)   bands (ev):

   -38.5657 -38.5561 -38.5401 -38.5246 -38.4517 -38.4385 -38.3700 -38.2774
   -38.2662 -38.2577 -38.1979 -38.1853 -38.1734 -38.1193 -38.0913 -38.0565
   -38.0547 -37.8230 -37.8227 -37.7548 -37.7547   2.9648   3.0794   3.2132
     3.2498   3.3738   3.4899   3.6276   3.8543   4.0519   4.1901   4.5434
     4.7855   5.1463   5.1770   5.4103   5.5370   5.6333   5.7974   5.9815
     6.1454   6.3462   6.5647   6.6929   6.8223   7.1276   7.3312   7.4779
     7.5805   7.8294   8.1281   8.3707   8.4609   8.6527   8.6740   8.9218
     9.1403   9.3219   9.3988  10.0515  11.3206  12.8021  14.2991  15.5766

          k = 0.2778-0.1604 0.0000 (  4458 PWs)   bands (ev):

   -38.5573 -38.5362 -38.4899 -38.4677 -38.4105 -38.3620 -38.3269 -38.2551
   -38.2143 -38.2116 -38.1817 -38.1457 -38.1164 -38.0862 -38.0627 -37.9882
   -37.9877 -37.7744 -37.7742 -37.7609 -37.7605   2.5806   2.8307   3.0426
     3.1416   3.4058   3.5230   3.7763   3.8520   4.1082   4.2694   4.6867
     4.9351   5.1465   5.3295   5.5515   5.6813   5.7961   5.8406   6.0358
     6.1544   6.4178   6.5193   6.5501   6.7202   6.8580   7.0792   7.2688
     7.3380   7.4160   7.4826   7.6542   7.8321   7.8718   7.9594   8.1034
     8.3296   8.7407   8.9118   8.9739  10.2560  11.7241  13.1534  14.2794

          k = 0.3889 0.6736 0.0000 (  4511 PWs)   bands (ev):

   -38.6112 -38.6002 -38.5619 -38.5447 -38.5069 -38.4264 -38.4218 -38.3773
   -38.3747 -38.3323 -38.2897 -38.2726 -38.2151 -38.1839 -38.1351 -38.1035
   -38.1033 -37.9479 -37.9475 -37.7463 -37.7461   3.0396   3.3253   3.4176
     3.6105   3.6354   3.7865   3.7946   4.0701   4.1651   4.2410   4.4885
     4.5312   4.6931   4.9360   5.3088   5.4932   5.7204   5.9179   5.9279
     6.2653   6.3345   6.7205   6.7229   6.8102   7.1599   7.4915   7.7167
     7.8487   8.2695   8.3866   8.4546   8.6286   8.7087   8.9195   8.9246
    13.2399  13.5406  13.8463  14.1473  14.5081  14.9175  15.2454  16.6291

          k = 0.3889-0.3528 0.0000 (  4485 PWs)   bands (ev):

   -38.6528 -38.6417 -38.6067 -38.5794 -38.5408 -38.4049 -38.3866 -38.3122
   -38.3044 -38.2693 -38.2364 -38.2114 -38.2079 -38.1454 -38.1356 -38.1245
   -38.1125 -37.8555 -37.8555 -37.7501 -37.7498   2.6520   2.8410   2.9132
     2.9904   3.1388   3.2526   3.3496   3.6642   3.7892   3.8797   4.4124
     4.7299   5.0337   5.3622   5.4861   5.6973   5.8397   5.9062   6.4183
     6.5748   6.6545   7.1878   7.2927   7.6434   7.7784   7.9130   8.2614
     8.3853   8.3916   8.4751   8.6218   8.8104   8.9005   9.0403   9.2219
    10.7762  11.2597  11.6555  12.0057  12.7534  13.7363  14.5517  16.4225

          k = 0.3889-0.2245 0.0000 (  4444 PWs)   bands (ev):

   -38.6281 -38.6180 -38.5900 -38.5678 -38.5118 -38.4225 -38.3841 -38.2761
   -38.2549 -38.2513 -38.2208 -38.1836 -38.1498 -38.1292 -38.1108 -38.0976
   -38.0936 -37.8097 -37.8096 -37.7535 -37.7531   2.5999   2.6559   2.7955
     2.9192   2.9836   3.1634   3.2206   3.5409   3.6418   3.8501   4.5121
     4.9473   5.3182   5.3955   5.5505   5.8345   5.8624   5.9546   6.4407
     6.6603   6.8243   7.1284   7.5343   7.7995   8.0724   8.1972   8.2777
     8.4380   8.4990   8.5551   8.5760   8.6982   8.7457   8.8591   8.9701
     9.0906   9.1898   9.4408   9.9749  11.3931  12.9774  14.5373  16.0761

          k =-0.5000-0.8660 0.0000 (  4492 PWs)   bands (ev):

   -38.6853 -38.6745 -38.6386 -38.6054 -38.5718 -38.3974 -38.3974 -38.2718
   -38.2672 -38.2566 -38.2536 -38.1985 -38.1680 -38.1631 -38.1536 -38.1190
   -38.1060 -37.8239 -37.8237 -37.7512 -37.7511   2.3744   2.5626   2.6196
     2.7271   2.8660   3.0180   3.0317   3.3919   3.4474   3.6925   4.4010
     4.8900   5.1443   5.2825   5.4435   5.7429   6.1820   6.2324   6.3835
     7.0777   7.1288   7.2234   7.8991   8.1583   8.3611   8.5109   8.7911
     8.9050   8.9153   9.0036   9.0067   9.0722   9.1984   9.3733   9.3805
     9.7399  10.8352  11.7455  11.9428  12.3493  12.4829  12.6243  16.0934

 ------ SPIN DOWN ----------


          k = 0.0556 0.0962 0.0000 (  4451 PWs)   bands (ev):

   -38.6403 -38.5897 -38.4151 -38.2651 -38.1783 -38.1678 -38.1461 -38.1451
   -38.1093 -38.1075 -38.0782 -38.0666 -38.0537 -38.0410 -38.0138 -37.7789
   -37.7779 -37.7466 -37.7465 -37.7150 -37.7149   1.0439   1.5008   2.2105
     2.7183   2.7416   3.0335   3.0816   4.9088   4.9286   5.1251   5.1819
     5.2723   5.3544   5.5597   5.5799   5.6142   5.6502   5.6565   5.6926
     5.7897   5.8448   5.8978   5.9592   6.0910   6.1971   6.2014   6.7507
     7.0563   7.0987   7.2814   7.3293   7.5190   7.5537   7.6739   7.7649
     8.0649   8.1047   8.5977   8.6218   8.8144   9.3722  10.3022  10.8453

          k = 0.0556 0.2245 0.0000 (  4420 PWs)   bands (ev):

   -38.5904 -38.5576 -38.4280 -38.3536 -38.3064 -38.2546 -38.2310 -38.2090
   -38.1791 -38.1777 -38.1395 -38.1131 -38.0921 -38.0667 -38.0416 -37.8728
   -37.8727 -37.7670 -37.7666 -37.7481 -37.7476   1.9577   2.3332   2.9294
     3.2895   3.4120   3.6852   3.7835   4.2248   4.4955   4.5966   4.6464
     4.8348   4.8762   5.3545   5.4673   5.6164   5.7165   5.7999   5.8543
     5.9222   6.0415   6.1830   6.2995   6.4286   6.5178   6.6405   6.7259
     6.7699   6.9218   7.0600   7.1630   7.3342   7.6284   7.7163   7.9673
     8.0968   8.5173   8.6638   8.8201   9.5434  10.7428  11.9697  12.8620

          k = 0.0556 0.3528 0.0000 (  4467 PWs)   bands (ev):

   -38.5563 -38.5366 -38.5211 -38.5040 -38.4366 -38.4036 -38.3528 -38.2662
   -38.2336 -38.2294 -38.1903 -38.1620 -38.1371 -38.0947 -38.0772 -38.0257
   -38.0248 -37.7917 -37.7917 -37.7583 -37.7581   2.7495   2.9948   3.0457
     3.1314   3.3675   3.4189   3.6534   3.8115   4.0805   4.1447   4.6365
     4.9493   5.1323   5.3552   5.5518   5.6640   5.6881   5.7838   6.0382
     6.1631   6.4457   6.5977   6.7401   6.8182   7.0429   7.3060   7.4689
     7.5251   7.7276   7.8391   7.9894   8.1002   8.2837   8.3582   8.4854
     8.4958   8.6704   8.9110   9.3112  10.6591  12.1649  13.6471  14.8551

          k = 0.0556 0.4811 0.0000 (  4463 PWs)   bands (ev):

   -38.6485 -38.6377 -38.6054 -38.5796 -38.5340 -38.4132 -38.3870 -38.2819
   -38.2725 -38.2622 -38.2269 -38.1955 -38.1719 -38.1360 -38.1284 -38.1114
   -38.1024 -37.8246 -37.8246 -37.7520 -37.7517   2.5671   2.6850   2.7894
     2.8884   3.0021   3.1724   3.1818   3.5462   3.6338   3.8114   4.4538
     4.8720   5.2133   5.3787   5.5105   5.7473   5.9300   5.9849   6.4871
     6.6694   6.8343   7.2275   7.5119   7.8560   8.0478   8.0963   8.3881
     8.4768   8.5799   8.6244   8.7212   8.7376   8.8870   8.9876   9.1456
     9.5876  10.1164  10.4458  10.7781  11.8695  13.2716  14.6221  16.3666

          k = 0.0556-0.5453 0.0000 (  4486 PWs)   bands (ev):

   -38.6770 -38.6655 -38.6296 -38.5987 -38.5633 -38.3999 -38.3929 -38.2849
   -38.2806 -38.2590 -38.2433 -38.2028 -38.1824 -38.1531 -38.1490 -38.1178
   -38.1123 -37.8324 -37.8320 -37.7508 -37.7505   2.4500   2.6340   2.6994
     2.7899   2.9392   3.0858   3.1045   3.4692   3.5375   3.7355   4.4091
     4.8431   5.1209   5.3318   5.4471   5.7611   5.9842   6.1356   6.4930
     6.8072   7.0709   7.2815   7.7150   8.0765   8.1967   8.4534   8.4939
     8.6991   8.7885   8.8712   8.9023   8.9660   9.0408   9.1469   9.2626
    10.2154  11.0005  11.7343  11.8978  12.1995  12.9111  13.4807  16.1832

          k = 0.0556-0.4170 0.0000 (  4465 PWs)   bands (ev):

   -38.5971 -38.5885 -38.5666 -38.5476 -38.4807 -38.4324 -38.3781 -38.2765
   -38.2563 -38.2505 -38.2095 -38.1816 -38.1563 -38.1117 -38.0975 -38.0850
   -38.0791 -37.8108 -37.8108 -37.7546 -37.7542   2.7541   2.7804   2.9497
     3.0451   3.1115   3.2926   3.3675   3.6688   3.8231   3.9516   4.5458
     4.9139   5.3297   5.4638   5.5862   5.6412   5.7118   5.9596   6.2666
     6.3863   6.6050   6.9951   7.1780   7.3826   7.5761   7.6932   8.0070
     8.0902   8.1312   8.2569   8.3719   8.5156   8.6224   8.7301   8.8959
     9.0171   9.2032   9.2772   9.9129  11.2791  12.8421  14.4005  15.7750

          k = 0.0556-0.2887 0.0000 (  4439 PWs)   bands (ev):

   -38.5621 -38.5418 -38.4625 -38.4298 -38.3820 -38.3254 -38.3000 -38.2454
   -38.2064 -38.2039 -38.1688 -38.1378 -38.1149 -38.0792 -38.0587 -37.9515
   -37.9509 -37.7698 -37.7698 -37.7622 -37.7618   2.4742   2.7476   3.1239
     3.2949   3.5139   3.7096   3.9029   4.0394   4.2291   4.3818   4.6238
     4.6857   5.0035   5.1309   5.4963   5.6740   5.7576   5.8128   5.9045
     6.0309   6.1075   6.2773   6.3736   6.6840   6.7316   6.8348   6.9872
     7.1615   7.2314   7.3445   7.5825   7.6942   7.8336   7.9658   8.0771
     8.2603   8.5760   8.8566   8.9242  10.0816  11.4550  12.8191  13.8793

          k = 0.0556-0.1604 0.0000 (  4443 PWs)   bands (ev):

   -38.6191 -38.5754 -38.4170 -38.2961 -38.2341 -38.2048 -38.1734 -38.1661
   -38.1519 -38.1445 -38.1014 -38.0911 -38.0684 -38.0585 -38.0263 -37.8039
   -37.8038 -37.7707 -37.7703 -37.7290 -37.7289   1.4378   1.8711   2.5550
     3.0272   3.0581   3.3539   3.4028   4.5922   4.7128   4.8806   4.9552
     5.0561   5.0928   5.4262   5.5602   5.6684   5.7494   5.7973   5.8770
     5.8885   5.9364   5.9897   6.0254   6.2135   6.2673   6.4293   6.5014
     6.8902   6.9816   7.0497   7.1211   7.3079   7.5046   7.6410   7.8674
     8.0115   8.3705   8.5655   8.7982   9.0525  10.0374  11.1156  11.8260

          k = 0.0556-0.0321 0.0000 (  4465 PWs)   bands (ev):

   -38.6517 -38.5978 -38.4160 -38.2548 -38.1479 -38.1450 -38.1366 -38.1355
   -38.0853 -38.0795 -38.0725 -38.0537 -38.0523 -38.0183 -38.0068 -37.7809
   -37.7794 -37.7188 -37.7187 -37.7077 -37.7074   0.8352   1.2999   2.0165
     2.5334   2.5714   2.8502   2.8985   5.0765   5.1109   5.2733   5.3423
     5.3891   5.4129   5.4309   5.5007   5.5216   5.6204   5.6450   5.6622
     5.7046   5.7409   5.9174   5.9739   6.0397   6.0535   6.2996   7.1539
     7.1944   7.2537   7.3677   7.3761   7.5211   7.5584   7.8079   7.9197
     8.1468   8.2640   8.2642   8.6669   8.8335   8.8572   9.6693  10.0978

          k = 0.1667 0.2887 0.0000 (  4425 PWs)   bands (ev):

   -38.5410 -38.5362 -38.4796 -38.4584 -38.4190 -38.3651 -38.3306 -38.2651
   -38.2335 -38.2328 -38.1738 -38.1670 -38.1426 -38.1134 -38.0707 -37.9827
   -37.9826 -37.8027 -37.8026 -37.7587 -37.7583   2.9444   3.0869   3.3671
     3.6972   3.8830   3.9034   4.0073   4.0626   4.0749   4.2613   4.3880
     4.5435   4.9843   5.0253   5.1052   5.3130   5.4828   5.4859   5.5284
     5.6685   6.2019   6.2411   6.4536   6.5532   6.6716   7.1120   7.1663
     7.3066   7.5612   7.7281   7.9589   8.1861   8.3187   8.4414   8.4538
     8.5661   8.6298   8.7210   9.4092  10.6358  12.0186  13.4184  14.5629

          k = 0.1667 0.4170 0.0000 (  4459 PWs)   bands (ev):

   -38.5828 -38.5729 -38.5519 -38.5317 -38.4768 -38.4409 -38.3808 -38.3082
   -38.3054 -38.2782 -38.2233 -38.2156 -38.1964 -38.1590 -38.1016 -38.0772
   -38.0755 -37.8647 -37.8646 -37.7516 -37.7514   3.1194   3.1850   3.3157
     3.4647   3.5240   3.5859   3.8078   3.8952   4.1112   4.2940   4.5531
     4.6689   4.9191   5.1039   5.1947   5.4323   5.5331   5.8870   5.9617
     6.1230   6.2024   6.4422   6.5681   6.8387   7.1372   7.2790   7.4165
     7.6352   7.7730   8.0118   8.4921   8.7821   8.8713   8.9446   9.1160
    10.1831  10.3286  10.5434  11.1647  12.2810  13.6664  15.1123  16.4061

          k = 0.1667 0.5453 0.0000 (  4490 PWs)   bands (ev):

   -38.6396 -38.6288 -38.5914 -38.5665 -38.5298 -38.4048 -38.3871 -38.3551
   -38.3412 -38.2958 -38.2589 -38.2370 -38.2216 -38.1688 -38.1293 -38.1214
   -38.1192 -37.8985 -37.8983 -37.7478 -37.7477   2.8146   3.1008   3.1080
     3.2400   3.3778   3.4679   3.6047   3.8494   4.0389   4.0862   4.4322
     4.5450   4.7974   5.1681   5.4763   5.6549   5.7248   5.9310   6.2012
     6.3272   6.5406   6.8221   7.1940   7.2464   7.3442   7.7290   8.0185
     8.1638   8.2932   8.4102   8.5879   8.7145   8.8022   8.9975   9.1244
    12.0426  12.4634  12.8826  13.2822  13.7874  14.2631  14.5120  16.4926

          k = 0.1667-0.4811 0.0000 (  4476 PWs)   bands (ev):

   -38.6192 -38.6086 -38.5776 -38.5533 -38.5119 -38.4197 -38.3855 -38.3375
   -38.3290 -38.2879 -38.2438 -38.2355 -38.2107 -38.1671 -38.1182 -38.1069
   -38.1040 -37.8868 -37.8865 -37.7491 -37.7490   2.9227   3.1322   3.1762
     3.3414   3.4188   3.5091   3.6757   3.8851   4.0455   4.1772   4.4489
     4.6455   4.9088   5.0440   5.4570   5.5292   5.7537   5.9535   6.0494
     6.1686   6.5274   6.6719   6.9292   7.0670   7.1987   7.6205   7.8147
     7.8330   7.9870   8.1389   8.5469   8.8369   8.8883   9.0465   9.2135
    11.1500  11.4119  11.7265  12.2986  13.2368  14.4105  15.5525  16.7406

          k = 0.1667-0.3528 0.0000 (  4458 PWs)   bands (ev):

   -38.5467 -38.5373 -38.5188 -38.5045 -38.4521 -38.4265 -38.3650 -38.2802
   -38.2705 -38.2649 -38.1988 -38.1845 -38.1785 -38.1412 -38.0853 -38.0348
   -38.0343 -37.8353 -37.8352 -37.7552 -37.7551   3.2083   3.3067   3.3979
     3.5325   3.6516   3.7515   3.8579   4.0046   4.2409   4.3057   4.4683
     4.6728   4.8510   4.9661   5.2279   5.3446   5.3893   5.5960   5.7869
     5.8678   6.1180   6.1685   6.4492   6.7228   6.8868   7.0574   7.3341
     7.4837   7.6980   7.8729   8.3449   8.5373   8.6528   8.6746   8.8899
     9.2898   9.3553   9.4825  10.1427  11.3711  12.7984  14.2498  15.4840

          k = 0.1667-0.2245 0.0000 (  4433 PWs)   bands (ev):

   -38.5661 -38.5449 -38.4479 -38.4042 -38.3622 -38.3024 -38.2844 -38.2431
   -38.2023 -38.2005 -38.1619 -38.1360 -38.1146 -38.0831 -38.0584 -37.9267
   -37.9266 -37.7726 -37.7726 -37.7627 -37.7623   2.4267   2.7242   3.2102
     3.5748   3.6941   3.8479   3.9784   4.1503   4.2824   4.3240   4.4910
     4.6700   4.7917   5.0979   5.2811   5.4362   5.5139   5.6218   5.7500
     5.8390   6.0634   6.2296   6.5191   6.5711   6.6059   6.8362   6.9212
     7.1696   7.1946   7.2739   7.5876   7.6908   7.8860   8.0347   8.0487
     8.1546   8.4705   8.6859   8.9586  10.0473  11.3358  12.6516  13.6765

          k = 0.1667-0.0962 0.0000 (  4427 PWs)   bands (ev):

   -38.6098 -38.5691 -38.4195 -38.3157 -38.2615 -38.2222 -38.1882 -38.1726
   -38.1672 -38.1654 -38.1090 -38.1014 -38.0781 -38.0621 -38.0280 -37.8292
   -37.8291 -37.7698 -37.7693 -37.7337 -37.7335   1.6160   2.0316   2.6870
     3.1018   3.1878   3.4733   3.5448   4.4083   4.6749   4.7810   4.8348
     4.9869   5.0058   5.5029   5.5505   5.6883   5.7910   5.8072   5.9029
     5.9903   6.0241   6.0916   6.1195   6.1366   6.3340   6.4427   6.6034
     6.7104   6.9153   6.9661   7.1497   7.2874   7.5169   7.5964   7.8689
     8.1768   8.2897   8.7017   8.9085   9.1327  10.2772  11.4270  12.2054

          k = 0.2778 0.4811 0.0000 (  4485 PWs)   bands (ev):

   -38.5825 -38.5792 -38.5465 -38.5335 -38.4795 -38.4603 -38.4289 -38.3851
   -38.3613 -38.3343 -38.2929 -38.2816 -38.2031 -38.1972 -38.1295 -38.0858
   -38.0856 -37.9574 -37.9573 -37.7466 -37.7464   3.3411   3.3586   3.5157
     3.5846   3.8269   3.9704   4.1161   4.1712   4.2437   4.3302   4.4006
     4.4893   4.8192   4.9628   5.1355   5.3385   5.5985   5.6974   6.0217
     6.0324   6.2455   6.2458   6.7426   6.8547   7.0067   7.2546   7.4142
     7.4833   7.8187   8.1653   8.5335   8.7991   8.8379   8.9035   9.1070
    12.4986  12.7249  13.1847  13.8680  14.7978  15.8961  16.8261  16.9370

          k = 0.2778 0.6094 0.0000 (  4491 PWs)   bands (ev):

   -38.5748 -38.5668 -38.5323 -38.5268 -38.4935 -38.4688 -38.4425 -38.4120
   -38.3817 -38.3606 -38.3029 -38.2979 -38.2041 -38.1938 -38.1418 -38.0779
   -38.0777 -37.9893 -37.9891 -37.7454 -37.7449   3.3131   3.5416   3.5861
     3.7279   3.8479   3.9910   4.0474   4.0966   4.1763   4.3536   4.4005
     4.5662   4.7148   5.0899   5.1952   5.4170   5.5466   5.6857   5.9376
     5.9938   6.2879   6.3099   6.7126   6.9145   7.0971   7.2504   7.4541
     7.5185   8.1137   8.3242   8.4717   8.6249   8.6951   8.7417   8.8846
    13.7105  14.0035  14.4623  14.9067  15.2941  15.7591  16.2887  16.5140

          k = 0.2778-0.4170 0.0000 (  4462 PWs)   bands (ev):

   -38.5890 -38.5812 -38.5549 -38.5330 -38.4887 -38.4422 -38.3973 -38.3478
   -38.3414 -38.3024 -38.2622 -38.2487 -38.2031 -38.1880 -38.1139 -38.0870
   -38.0864 -37.9121 -37.9120 -37.7485 -37.7483   3.1996   3.3327   3.4103
     3.5520   3.6764   3.7765   3.9330   4.1384   4.2439   4.2994   4.5342
     4.6964   4.7548   4.8586   5.1981   5.2718   5.5913   5.7791   6.0140
     6.0882   6.2391   6.3172   6.5398   6.8325   7.0482   7.2742   7.4390
     7.5646   7.6701   8.0224   8.5373   8.8966   8.9251   9.0242   9.2124
    11.3249  11.4715  11.8252  12.4784  13.4905  14.7515  16.0766  17.2416

          k = 0.2778-0.2887 0.0000 (  4463 PWs)   bands (ev):

   -38.5657 -38.5561 -38.5401 -38.5246 -38.4517 -38.4385 -38.3700 -38.2774
   -38.2662 -38.2577 -38.1979 -38.1853 -38.1734 -38.1193 -38.0913 -38.0565
   -38.0547 -37.8230 -37.8227 -37.7548 -37.7547   2.9648   3.0794   3.2132
     3.2498   3.3738   3.4899   3.6276   3.8543   4.0519   4.1901   4.5434
     4.7855   5.1463   5.1770   5.4103   5.5370   5.6333   5.7974   5.9815
     6.1454   6.3462   6.5647   6.6929   6.8223   7.1276   7.3312   7.4779
     7.5805   7.8294   8.1281   8.3707   8.4609   8.6527   8.6740   8.9218
     9.1403   9.3219   9.3988  10.0515  11.3206  12.8021  14.2991  15.5766

          k = 0.2778-0.1604 0.0000 (  4458 PWs)   bands (ev):

   -38.5573 -38.5362 -38.4899 -38.4677 -38.4105 -38.3620 -38.3269 -38.2551
   -38.2143 -38.2116 -38.1817 -38.1457 -38.1164 -38.0862 -38.0627 -37.9882
   -37.9877 -37.7744 -37.7742 -37.7609 -37.7605   2.5806   2.8307   3.0426
     3.1416   3.4058   3.5230   3.7763   3.8520   4.1082   4.2694   4.6867
     4.9351   5.1465   5.3295   5.5515   5.6813   5.7961   5.8406   6.0358
     6.1544   6.4178   6.5193   6.5501   6.7202   6.8580   7.0792   7.2688
     7.3380   7.4160   7.4826   7.6542   7.8321   7.8718   7.9594   8.1034
     8.3296   8.7407   8.9118   8.9739  10.2560  11.7241  13.1534  14.2794

          k = 0.3889 0.6736 0.0000 (  4511 PWs)   bands (ev):

   -38.6112 -38.6002 -38.5619 -38.5447 -38.5069 -38.4264 -38.4218 -38.3773
   -38.3747 -38.3323 -38.2897 -38.2726 -38.2151 -38.1839 -38.1351 -38.1035
   -38.1033 -37.9479 -37.9475 -37.7463 -37.7461   3.0396   3.3253   3.4176
     3.6105   3.6354   3.7865   3.7946   4.0701   4.1651   4.2410   4.4885
     4.5312   4.6931   4.9360   5.3088   5.4932   5.7204   5.9179   5.9279
     6.2653   6.3345   6.7205   6.7229   6.8102   7.1599   7.4915   7.7167
     7.8487   8.2695   8.3866   8.4546   8.6286   8.7087   8.9195   8.9246
    13.2399  13.5406  13.8463  14.1473  14.5081  14.9175  15.2454  16.6293

          k = 0.3889-0.3528 0.0000 (  4485 PWs)   bands (ev):

   -38.6528 -38.6417 -38.6067 -38.5794 -38.5408 -38.4049 -38.3866 -38.3122
   -38.3044 -38.2693 -38.2364 -38.2114 -38.2079 -38.1454 -38.1356 -38.1245
   -38.1125 -37.8555 -37.8555 -37.7501 -37.7498   2.6520   2.8410   2.9132
     2.9904   3.1388   3.2526   3.3496   3.6642   3.7892   3.8797   4.4124
     4.7299   5.0337   5.3622   5.4861   5.6973   5.8397   5.9062   6.4183
     6.5748   6.6545   7.1878   7.2927   7.6434   7.7784   7.9130   8.2614
     8.3853   8.3916   8.4751   8.6218   8.8104   8.9005   9.0403   9.2219
    10.7762  11.2597  11.6555  12.0057  12.7534  13.7363  14.5517  16.4224

          k = 0.3889-0.2245 0.0000 (  4444 PWs)   bands (ev):

   -38.6281 -38.6180 -38.5900 -38.5678 -38.5118 -38.4225 -38.3841 -38.2761
   -38.2549 -38.2513 -38.2208 -38.1836 -38.1498 -38.1292 -38.1108 -38.0976
   -38.0936 -37.8097 -37.8096 -37.7535 -37.7531   2.5999   2.6559   2.7955
     2.9192   2.9836   3.1634   3.2206   3.5409   3.6418   3.8501   4.5121
     4.9473   5.3182   5.3955   5.5505   5.8345   5.8624   5.9546   6.4407
     6.6603   6.8243   7.1284   7.5343   7.7995   8.0724   8.1972   8.2777
     8.4380   8.4990   8.5551   8.5760   8.6982   8.7457   8.8591   8.9701
     9.0906   9.1898   9.4408   9.9749  11.3931  12.9774  14.5373  16.0761

          k =-0.5000-0.8660 0.0000 (  4492 PWs)   bands (ev):

   -38.6853 -38.6745 -38.6386 -38.6054 -38.5718 -38.3974 -38.3974 -38.2718
   -38.2672 -38.2566 -38.2536 -38.1985 -38.1680 -38.1631 -38.1536 -38.1190
   -38.1060 -37.8239 -37.8237 -37.7512 -37.7511   2.3744   2.5626   2.6196
     2.7271   2.8660   3.0180   3.0317   3.3919   3.4474   3.6925   4.4010
     4.8900   5.1443   5.2825   5.4435   5.7429   6.1820   6.2324   6.3835
     7.0777   7.1288   7.2234   7.8991   8.1583   8.3611   8.5109   8.7911
     8.9050   8.9153   9.0036   9.0067   9.0722   9.1984   9.3733   9.3805
     9.7399  10.8352  11.7455  11.9428  12.3493  12.4829  12.6243  16.0935

     the Fermi energy is     8.3510 ev

!    total energy              =   -1198.23262241 Ry
     estimated scf accuracy    <       0.00000004 Ry
     smearing contrib. (-TS)   =      -0.03017494 Ry
     internal energy E=F+TS    =   -1198.20244747 Ry

     The total energy is F=E-TS. E is the sum of the following terms:
     one-electron contribution =  -13477.32620480 Ry
     hartree contribution      =    6784.44466449 Ry
     xc contribution           =    -209.37119439 Ry
     ewald contribution        =    5704.05028723 Ry

     total magnetization       =     0.00 Bohr mag/cell
     absolute magnetization    =     0.00 Bohr mag/cell

     convergence has been achieved in  10 iterations

     negative rho (up, down):  1.996E-01 1.996E-01

     Forces acting on atoms (cartesian axes, Ry/au):

     atom    1 type  1   force =     0.00000000    0.00000000    0.00049471
     atom    2 type  1   force =     0.00000000    0.00000000    0.00187207
     atom    3 type  1   force =     0.00000000    0.00000000    0.00065837
     atom    4 type  1   force =     0.00000000    0.00000000   -0.00000617
     atom    5 type  1   force =     0.00000000    0.00000000   -0.00066591
     atom    6 type  1   force =     0.00000000    0.00000000   -0.00187723
     atom    7 type  1   force =     0.00000000    0.00000000   -0.00047584

     Total force =     0.002894     Total SCF correction =     0.001446
     SCF correction compared to forces is large: reduce conv_thr to get better values
     Energy error            =      1.4E-05
     Gradient error          =      1.9E-03

     number of scf cycles    =   6
     number of bfgs steps    =   5

     energy   old            =   -1198.2326088653 Ry
     energy   new            =   -1198.2326224088 Ry

     CASE: energy  _new < energy  _old

     new trust radius        =       0.0043082773 bohr
     new conv_thr            =       0.0000001000 Ry


ATOMIC_POSITIONS (angstrom)
Rh            0.0000000000        0.0000000000        0.0327739433
Rh            1.3554284000       -0.7825569000        2.2052471085
Rh            1.3554284000        0.7825569000        4.4085812223
Rh            0.0000000000        0.0000000000        6.6402442538
Rh            1.3554284000       -0.7825569000        8.8718791363
Rh            1.3554284000        0.7825569000       11.0751660591
Rh            0.0000000000        0.0000000000       13.2476193767



     Writing output data file /home/STUDENTI/leonardo.razzai/Rh_work/surf_111/7-L.save/
     NEW-OLD atomic charge density approx. for the potential

     negative rho (up, down):  1.990E-01 1.990E-01
     Generating pointlists ...

     total cpu time spent up to now is      590.3 secs

     Self-consistent Calculation

     iteration #  1     ecut=    35.00 Ry     beta= 0.40
     Davidson diagonalization with overlap
     ethr =  1.00E-06,  avg # of iterations =  5.0

     negative rho (up, down):  1.990E-01 1.990E-01

     total cpu time spent up to now is      604.7 secs

     total energy              =   -1198.23235848 Ry
     estimated scf accuracy    <       0.01594612 Ry

     total magnetization       =    -0.00 Bohr mag/cell
     absolute magnetization    =     0.00 Bohr mag/cell

     iteration #  2     ecut=    35.00 Ry     beta= 0.40
     Davidson diagonalization with overlap
     ethr =  1.52E-05,  avg # of iterations =  1.0

     negative rho (up, down):  1.990E-01 1.990E-01

     total cpu time spent up to now is      612.4 secs

     total energy              =   -1198.23254302 Ry
     estimated scf accuracy    <       0.00833219 Ry

     total magnetization       =    -0.00 Bohr mag/cell
     absolute magnetization    =     0.00 Bohr mag/cell

     iteration #  3     ecut=    35.00 Ry     beta= 0.40
     Davidson diagonalization with overlap
     ethr =  7.94E-06,  avg # of iterations =  1.0

     negative rho (up, down):  1.990E-01 1.990E-01

     total cpu time spent up to now is      620.1 secs

     total energy              =   -1198.23263987 Ry
     estimated scf accuracy    <       0.00051266 Ry

     total magnetization       =    -0.00 Bohr mag/cell
     absolute magnetization    =     0.00 Bohr mag/cell

     iteration #  4     ecut=    35.00 Ry     beta= 0.40
     Davidson diagonalization with overlap
     ethr =  4.88E-07,  avg # of iterations =  1.0

     negative rho (up, down):  1.990E-01 1.990E-01

     total cpu time spent up to now is      627.9 secs

     total energy              =   -1198.23263556 Ry
     estimated scf accuracy    <       0.00024622 Ry

     total magnetization       =    -0.00 Bohr mag/cell
     absolute magnetization    =     0.00 Bohr mag/cell

     iteration #  5     ecut=    35.00 Ry     beta= 0.40
     Davidson diagonalization with overlap
     ethr =  2.34E-07,  avg # of iterations =  1.0

     negative rho (up, down):  1.990E-01 1.990E-01

     total cpu time spent up to now is      635.7 secs

     total energy              =   -1198.23263752 Ry
     estimated scf accuracy    <       0.00001378 Ry

     total magnetization       =    -0.00 Bohr mag/cell
     absolute magnetization    =     0.00 Bohr mag/cell

     iteration #  6     ecut=    35.00 Ry     beta= 0.40
     Davidson diagonalization with overlap
     ethr =  1.31E-08,  avg # of iterations =  1.0

     negative rho (up, down):  1.990E-01 1.990E-01

     total cpu time spent up to now is      643.4 secs

     total energy              =   -1198.23263749 Ry
     estimated scf accuracy    <       0.00000133 Ry

     total magnetization       =    -0.00 Bohr mag/cell
     absolute magnetization    =     0.00 Bohr mag/cell

     iteration #  7     ecut=    35.00 Ry     beta= 0.40
     Davidson diagonalization with overlap
     ethr =  1.27E-09,  avg # of iterations =  1.2

     negative rho (up, down):  1.990E-01 1.990E-01

     total cpu time spent up to now is      651.2 secs

     total energy              =   -1198.23263746 Ry
     estimated scf accuracy    <       0.00000102 Ry

     total magnetization       =    -0.00 Bohr mag/cell
     absolute magnetization    =     0.00 Bohr mag/cell

     iteration #  8     ecut=    35.00 Ry     beta= 0.40
     Davidson diagonalization with overlap
     ethr =  9.73E-10,  avg # of iterations =  1.2

     negative rho (up, down):  1.990E-01 1.990E-01

     total cpu time spent up to now is      659.0 secs

     total energy              =   -1198.23263758 Ry
     estimated scf accuracy    <       0.00000047 Ry

     total magnetization       =    -0.00 Bohr mag/cell
     absolute magnetization    =     0.00 Bohr mag/cell

     iteration #  9     ecut=    35.00 Ry     beta= 0.40
     Davidson diagonalization with overlap
     ethr =  4.52E-10,  avg # of iterations =  1.9

     negative rho (up, down):  1.990E-01 1.990E-01

     total cpu time spent up to now is      667.3 secs

     total energy              =   -1198.23263777 Ry
     estimated scf accuracy    <       0.00000045 Ry

     total magnetization       =     0.00 Bohr mag/cell
     absolute magnetization    =     0.00 Bohr mag/cell

     iteration # 10     ecut=    35.00 Ry     beta= 0.40
     Davidson diagonalization with overlap
     ethr =  4.31E-10,  avg # of iterations =  1.0

     negative rho (up, down):  1.990E-01 1.990E-01

     total cpu time spent up to now is      675.1 secs

     total energy              =   -1198.23263789 Ry
     estimated scf accuracy    <       0.00000015 Ry

     total magnetization       =     0.00 Bohr mag/cell
     absolute magnetization    =     0.00 Bohr mag/cell

     iteration # 11     ecut=    35.00 Ry     beta= 0.40
     Davidson diagonalization with overlap
     ethr =  1.44E-10,  avg # of iterations =  1.0

     negative rho (up, down):  1.990E-01 1.990E-01
 
     Magnetic moment per site:
     atom:    1    charge:   13.1066    magn:   -0.0000    constr:    0.0000
     atom:    2    charge:   13.1623    magn:   -0.0000    constr:    0.0000
     atom:    3    charge:   13.1570    magn:    0.0000    constr:    0.0000
     atom:    4    charge:   13.1506    magn:    0.0000    constr:    0.0000
     atom:    5    charge:   13.1570    magn:   -0.0000    constr:    0.0000
     atom:    6    charge:   13.1623    magn:   -0.0000    constr:    0.0000
     atom:    7    charge:   13.1064    magn:    0.0000    constr:    0.0000

     total cpu time spent up to now is      682.7 secs

     End of self-consistent calculation

 ------ SPIN UP ------------


          k = 0.0556 0.0962 0.0000 (  4451 PWs)   bands (ev):

   -38.6426 -38.5928 -38.4149 -38.2662 -38.1794 -38.1688 -38.1473 -38.1464
   -38.1099 -38.1079 -38.0784 -38.0672 -38.0538 -38.0405 -38.0129 -37.7780
   -37.7770 -37.7456 -37.7455 -37.7140 -37.7139   1.0420   1.4979   2.2107
     2.7154   2.7398   3.0333   3.0819   4.9059   4.9296   5.1233   5.1789
     5.2696   5.3562   5.5607   5.5777   5.6116   5.6485   5.6558   5.6916
     5.7862   5.8455   5.8988   5.9603   6.0917   6.1979   6.2026   6.7511
     7.0550   7.0987   7.2801   7.3290   7.5197   7.5548   7.6741   7.7643
     8.0652   8.1053   8.5985   8.6226   8.8159   9.3727  10.3040  10.8478

          k = 0.0556 0.2245 0.0000 (  4420 PWs)   bands (ev):

   -38.5928 -38.5606 -38.4285 -38.3550 -38.3071 -38.2544 -38.2319 -38.2098
   -38.1803 -38.1789 -38.1393 -38.1132 -38.0929 -38.0665 -38.0409 -37.8719
   -37.8718 -37.7661 -37.7657 -37.7471 -37.7466   1.9558   2.3304   2.9290
     3.2871   3.4093   3.6842   3.7832   4.2232   4.4923   4.5961   4.6450
     4.8332   4.8752   5.3546   5.4680   5.6167   5.7169   5.8001   5.8514
     5.9223   6.0386   6.1834   6.2978   6.4264   6.5178   6.6416   6.7260
     6.7702   6.9222   7.0609   7.1633   7.3335   7.6279   7.7172   7.9679
     8.0966   8.5176   8.6652   8.8216   9.5455  10.7443  11.9721  12.8649

          k = 0.0556 0.3528 0.0000 (  4467 PWs)   bands (ev):

   -38.5585 -38.5391 -38.5228 -38.5057 -38.4367 -38.4032 -38.3533 -38.2664
   -38.2348 -38.2307 -38.1909 -38.1619 -38.1379 -38.0944 -38.0766 -38.0249
   -38.0240 -37.7907 -37.7907 -37.7573 -37.7571   2.7473   2.9912   3.0438
     3.1288   3.3643   3.4174   3.6510   3.8122   4.0807   4.1449   4.6359
     4.9490   5.1297   5.3544   5.5505   5.6619   5.6887   5.7821   6.0360
     6.1620   6.4465   6.5986   6.7405   6.8181   7.0421   7.3053   7.4692
     7.5254   7.7265   7.8398   7.9889   8.1007   8.2844   8.3575   8.4859
     8.4964   8.6718   8.9127   9.3126  10.6612  12.1677  13.6500  14.8575

          k = 0.0556 0.4811 0.0000 (  4463 PWs)   bands (ev):

   -38.6500 -38.6393 -38.6070 -38.5814 -38.5331 -38.4143 -38.3879 -38.2827
   -38.2737 -38.2631 -38.2277 -38.1955 -38.1724 -38.1355 -38.1279 -38.1109
   -38.1020 -37.8236 -37.8236 -37.7509 -37.7506   2.5643   2.6826   2.7856
     2.8854   2.9990   3.1685   3.1824   3.5470   3.6343   3.8122   4.4538
     4.8710   5.2130   5.3794   5.5076   5.7440   5.9286   5.9828   6.4884
     6.6681   6.8336   7.2275   7.5124   7.8554   8.0485   8.0963   8.3885
     8.4764   8.5795   8.6246   8.7222   8.7380   8.8875   8.9884   9.1468
     9.5875  10.1167  10.4468  10.7791  11.8703  13.2744  14.6244  16.3677

          k = 0.0556-0.5453 0.0000 (  4486 PWs)   bands (ev):

   -38.6785 -38.6671 -38.6311 -38.6006 -38.5623 -38.4008 -38.3938 -38.2863
   -38.2819 -38.2597 -38.2438 -38.2029 -38.1828 -38.1530 -38.1487 -38.1173
   -38.1118 -37.8314 -37.8310 -37.7497 -37.7494   2.4471   2.6317   2.6954
     2.7870   2.9359   3.0817   3.1055   3.4700   3.5381   3.7363   4.4092
     4.8417   5.1209   5.3329   5.4439   5.7565   5.9842   6.1337   6.4942
     6.8064   7.0702   7.2812   7.7144   8.0769   8.1977   8.4546   8.4935
     8.6995   8.7875   8.8720   8.9024   8.9668   9.0415   9.1473   9.2636
    10.2152  11.0007  11.7358  11.8986  12.1998  12.9126  13.4819  16.1824

          k = 0.0556-0.4170 0.0000 (  4465 PWs)   bands (ev):

   -38.5987 -38.5901 -38.5685 -38.5496 -38.4801 -38.4331 -38.3788 -38.2767
   -38.2575 -38.2518 -38.2102 -38.1816 -38.1570 -38.1112 -38.0969 -38.0844
   -38.0787 -37.8098 -37.8098 -37.7536 -37.7532   2.7518   2.7777   2.9463
     3.0416   3.1088   3.2919   3.3647   3.6695   3.8236   3.9522   4.5457
     4.9134   5.3291   5.4638   5.5832   5.6388   5.7110   5.9564   6.2646
     6.3867   6.6058   6.9958   7.1779   7.3832   7.5758   7.6922   8.0075
     8.0898   8.1315   8.2564   8.3725   8.5152   8.6231   8.7314   8.8964
     9.0185   9.2036   9.2779   9.9142  11.2807  12.8453  14.4034  15.7770

          k = 0.0556-0.2887 0.0000 (  4439 PWs)   bands (ev):

   -38.5645 -38.5447 -38.4636 -38.4313 -38.3824 -38.3249 -38.3006 -38.2459
   -38.2076 -38.2052 -38.1690 -38.1378 -38.1157 -38.0789 -38.0581 -37.9506
   -37.9500 -37.7688 -37.7687 -37.7612 -37.7609   2.4722   2.7447   3.1225
     3.2926   3.5111   3.7069   3.9030   4.0380   4.2287   4.3810   4.6225
     4.6833   5.0025   5.1307   5.4965   5.6750   5.7579   5.8098   5.9037
     6.0290   6.1072   6.2782   6.3724   6.6843   6.7301   6.8348   6.9863
     7.1625   7.2315   7.3441   7.5831   7.6944   7.8334   7.9664   8.0778
     8.2598   8.5771   8.8583   8.9256  10.0838  11.4572  12.8218  13.8821

          k = 0.0556-0.1604 0.0000 (  4443 PWs)   bands (ev):

   -38.6214 -38.5785 -38.4171 -38.2973 -38.2350 -38.2053 -38.1744 -38.1673
   -38.1528 -38.1454 -38.1011 -38.0912 -38.0689 -38.0584 -38.0255 -37.8029
   -37.8028 -37.7698 -37.7694 -37.7279 -37.7279   1.4358   1.8683   2.5550
     3.0246   3.0557   3.3537   3.4028   4.5909   4.7102   4.8796   4.9526
     5.0554   5.0916   5.4271   5.5607   5.6684   5.7464   5.7978   5.8768
     5.8861   5.9347   5.9874   6.0256   6.2144   6.2674   6.4303   6.5023
     6.8900   6.9813   7.0504   7.1216   7.3069   7.5041   7.6417   7.8674
     8.0119   8.3709   8.5664   8.7996   9.0541  10.0383  11.1178  11.8287

          k = 0.0556-0.0321 0.0000 (  4465 PWs)   bands (ev):

   -38.6539 -38.6010 -38.4158 -38.2558 -38.1491 -38.1462 -38.1379 -38.1367
   -38.0855 -38.0799 -38.0726 -38.0546 -38.0526 -38.0175 -38.0060 -37.7800
   -37.7786 -37.7178 -37.7176 -37.7067 -37.7064   0.8333   1.2971   2.0167
     2.5307   2.5697   2.8501   2.8988   5.0749   5.1123   5.2713   5.3393
     5.3864   5.4149   5.4289   5.4979   5.5188   5.6214   5.6430   5.6588
     5.7044   5.7419   5.9183   5.9749   6.0407   6.0544   6.3012   7.1531
     7.1933   7.2545   7.3662   7.3748   7.5216   7.5590   7.8083   7.9201
     8.1477   8.2635   8.2651   8.6680   8.8336   8.8586   9.6708  10.1001

          k = 0.1667 0.2887 0.0000 (  4425 PWs)   bands (ev):

   -38.5435 -38.5390 -38.4809 -38.4599 -38.4194 -38.3650 -38.3309 -38.2654
   -38.2346 -38.2338 -38.1744 -38.1675 -38.1434 -38.1123 -38.0704 -37.9818
   -37.9817 -37.8016 -37.8016 -37.7578 -37.7573   2.9424   3.0840   3.3648
     3.6950   3.8800   3.9011   4.0031   4.0620   4.0709   4.2614   4.3882
     4.5433   4.9847   5.0253   5.1054   5.3129   5.4835   5.4856   5.5251
     5.6676   6.2031   6.2414   6.4547   6.5525   6.6724   7.1103   7.1650
     7.3072   7.5598   7.7284   7.9588   8.1865   8.3193   8.4418   8.4548
     8.5665   8.6305   8.7219   9.4105  10.6378  12.0214  13.4210  14.5654

          k = 0.1667 0.4170 0.0000 (  4459 PWs)   bands (ev):

   -38.5844 -38.5746 -38.5536 -38.5338 -38.4760 -38.4420 -38.3819 -38.3092
   -38.3063 -38.2782 -38.2240 -38.2160 -38.1972 -38.1582 -38.1011 -38.0766
   -38.0749 -37.8637 -37.8636 -37.7505 -37.7504   3.1167   3.1825   3.3120
     3.4610   3.5208   3.5827   3.8076   3.8947   4.1119   4.2938   4.5528
     4.6678   4.9170   5.1016   5.1927   5.4307   5.5315   5.8875   5.9624
     6.1239   6.2029   6.4428   6.5680   6.8401   7.1372   7.2795   7.4167
     7.6346   7.7722   8.0125   8.4933   8.7826   8.8724   8.9449   9.1169
    10.1830  10.3285  10.5441  11.1658  12.2824  13.6694  15.1149  16.4080

          k = 0.1667 0.5453 0.0000 (  4490 PWs)   bands (ev):

   -38.6411 -38.6304 -38.5929 -38.5685 -38.5288 -38.4061 -38.3883 -38.3565
   -38.3423 -38.2956 -38.2590 -38.2379 -38.2223 -38.1684 -38.1287 -38.1209
   -38.1187 -37.8975 -37.8973 -37.7467 -37.7467   2.8116   3.0982   3.1038
     3.2373   3.3742   3.4639   3.6054   3.8499   4.0392   4.0868   4.4316
     4.5416   4.7953   5.1667   5.4760   5.6526   5.7253   5.9318   6.1995
     6.3258   6.5427   6.8222   7.1946   7.2463   7.3448   7.7283   8.0192
     8.1645   8.2931   8.4107   8.5890   8.7153   8.8034   8.9984   9.1254
    12.0424  12.4633  12.8831  13.2829  13.7877  14.2645  14.5132  16.4919

          k = 0.1667-0.4811 0.0000 (  4476 PWs)   bands (ev):

   -38.6207 -38.6102 -38.5791 -38.5553 -38.5109 -38.4210 -38.3867 -38.3387
   -38.3300 -38.2878 -38.2439 -38.2364 -38.2114 -38.1665 -38.1175 -38.1063
   -38.1036 -37.8858 -37.8855 -37.7480 -37.7479   2.9198   3.1298   3.1721
     3.3384   3.4153   3.5054   3.6760   3.8853   4.0459   4.1775   4.4484
     4.6428   4.9069   5.0422   5.4554   5.5275   5.7539   5.9534   6.0492
     6.1682   6.5277   6.6735   6.9301   7.0675   7.1984   7.6199   7.8149
     7.8338   7.9866   8.1400   8.5482   8.8375   8.8894   9.0471   9.2144
    11.1499  11.4118  11.7272  12.2995  13.2379  14.4129  15.5543  16.7415

          k = 0.1667-0.3528 0.0000 (  4458 PWs)   bands (ev):

   -38.5489 -38.5395 -38.5206 -38.5063 -38.4526 -38.4262 -38.3656 -38.2805
   -38.2715 -38.2656 -38.1994 -38.1852 -38.1791 -38.1402 -38.0849 -38.0340
   -38.0335 -37.8343 -37.8342 -37.7542 -37.7541   3.2058   3.3043   3.3942
     3.5298   3.6489   3.7477   3.8574   4.0030   4.2400   4.3056   4.4665
     4.6727   4.8510   4.9652   5.2264   5.3420   5.3882   5.5964   5.7876
     5.8679   6.1190   6.1693   6.4490   6.7241   6.8874   7.0575   7.3334
     7.4831   7.6971   7.8728   8.3459   8.5380   8.6529   8.6758   8.8908
     9.2899   9.3554   9.4831  10.1439  11.3729  12.8015  14.2526  15.4862

          k = 0.1667-0.2245 0.0000 (  4433 PWs)   bands (ev):

   -38.5685 -38.5479 -38.4488 -38.4056 -38.3628 -38.3022 -38.2850 -38.2436
   -38.2034 -38.2015 -38.1621 -38.1363 -38.1153 -38.0824 -38.0580 -37.9258
   -37.9256 -37.7716 -37.7716 -37.7618 -37.7614   2.4248   2.7213   3.2092
     3.5727   3.6912   3.8446   3.9772   4.1484   4.2811   4.3230   4.4901
     4.6688   4.7914   5.0978   5.2817   5.4361   5.5140   5.6222   5.7477
     5.8372   6.0640   6.2298   6.5181   6.5720   6.6057   6.8354   6.9184
     7.1709   7.1932   7.2746   7.5881   7.6913   7.8854   8.0353   8.0491
     8.1550   8.4715   8.6873   8.9597  10.0494  11.3380  12.6542  13.6793

          k = 0.1667-0.0962 0.0000 (  4427 PWs)   bands (ev):

   -38.6121 -38.5722 -38.4196 -38.3170 -38.2624 -38.2224 -38.1888 -38.1734
   -38.1685 -38.1667 -38.1083 -38.1014 -38.0790 -38.0619 -38.0273 -37.8282
   -37.8281 -37.7690 -37.7684 -37.7327 -37.7325   1.6141   2.0288   2.6869
     3.0994   3.1853   3.4729   3.5448   4.4068   4.6708   4.7818   4.8328
     4.9859   5.0040   5.5038   5.5511   5.6882   5.7876   5.8080   5.9040
     5.9865   6.0212   6.0920   6.1168   6.1376   6.3346   6.4437   6.6042
     6.7107   6.9160   6.9658   7.1503   7.2868   7.5153   7.5977   7.8696
     8.1776   8.2888   8.7028   8.9100   9.1347  10.2782  11.4293  12.2083

          k = 0.2778 0.4811 0.0000 (  4485 PWs)   bands (ev):

   -38.5840 -38.5809 -38.5480 -38.5351 -38.4794 -38.4619 -38.4301 -38.3857
   -38.3621 -38.3339 -38.2936 -38.2821 -38.2027 -38.1983 -38.1287 -38.0851
   -38.0849 -37.9564 -37.9564 -37.7455 -37.7453   3.3373   3.3562   3.5120
     3.5813   3.8242   3.9663   4.1148   4.1704   4.2419   4.3269   4.4001
     4.4885   4.8185   4.9626   5.1340   5.3377   5.5995   5.6962   6.0222
     6.0329   6.2464   6.2467   6.7434   6.8568   7.0083   7.2546   7.4144
     7.4830   7.8185   8.1660   8.5347   8.7999   8.8386   8.9046   9.1080
    12.4984  12.7247  13.1855  13.8690  14.7989  15.8979  16.8267  16.9372

          k = 0.2778 0.6094 0.0000 (  4491 PWs)   bands (ev):

   -38.5763 -38.5685 -38.5339 -38.5285 -38.4945 -38.4706 -38.4425 -38.4124
   -38.3822 -38.3604 -38.3035 -38.2984 -38.2048 -38.1944 -38.1406 -38.0771
   -38.0770 -37.9884 -37.9883 -37.7443 -37.7439   3.3100   3.5372   3.5829
     3.7250   3.8446   3.9871   4.0456   4.0939   4.1746   4.3524   4.4003
     4.5655   4.7136   5.0899   5.1941   5.4161   5.5468   5.6854   5.9383
     5.9942   6.2887   6.3107   6.7135   6.9172   7.0983   7.2501   7.4541
     7.5189   8.1136   8.3249   8.4725   8.6260   8.6960   8.7426   8.8856
    13.7104  14.0035  14.4630  14.9071  15.2940  15.7601  16.2898  16.5142

          k = 0.2778-0.4170 0.0000 (  4462 PWs)   bands (ev):

   -38.5905 -38.5829 -38.5563 -38.5350 -38.4880 -38.4436 -38.3987 -38.3485
   -38.3422 -38.3021 -38.2632 -38.2494 -38.2030 -38.1881 -38.1133 -38.0863
   -38.0857 -37.9111 -37.9110 -37.7474 -37.7473   3.1967   3.3296   3.4068
     3.5485   3.6738   3.7732   3.9321   4.1368   4.2439   4.2993   4.5314
     4.6952   4.7539   4.8577   5.1960   5.2707   5.5903   5.7794   6.0146
     6.0888   6.2403   6.3180   6.5402   6.8346   7.0489   7.2738   7.4400
     7.5641   7.6693   8.0232   8.5386   8.8975   8.9258   9.0248   9.2132
    11.3248  11.4713  11.8259  12.4793  13.4918  14.7541  16.0789  17.2433

          k = 0.2778-0.2887 0.0000 (  4463 PWs)   bands (ev):

   -38.5676 -38.5577 -38.5422 -38.5267 -38.4516 -38.4387 -38.3707 -38.2778
   -38.2672 -38.2587 -38.1983 -38.1858 -38.1741 -38.1186 -38.0908 -38.0558
   -38.0540 -37.8220 -37.8217 -37.7538 -37.7537   2.9625   3.0768   3.2097
     3.2468   3.3706   3.4873   3.6265   3.8546   4.0523   4.1903   4.5430
     4.7847   5.1437   5.1752   5.4086   5.5352   5.6315   5.7981   5.9818
     6.1446   6.3468   6.5654   6.6929   6.8230   7.1273   7.3318   7.4784
     7.5796   7.8286   8.1280   8.3712   8.4620   8.6537   8.6740   8.9231
     9.1405   9.3221   9.3994  10.0527  11.3223  12.8052  14.3019  15.5787

          k = 0.2778-0.1604 0.0000 (  4458 PWs)   bands (ev):

   -38.5597 -38.5391 -38.4912 -38.4693 -38.4106 -38.3615 -38.3274 -38.2555
   -38.2156 -38.2130 -38.1821 -38.1456 -38.1172 -38.0859 -38.0621 -37.9873
   -37.9868 -37.7733 -37.7732 -37.7599 -37.7596   2.5785   2.8277   3.0407
     3.1393   3.4034   3.5204   3.7750   3.8518   4.1083   4.2693   4.6856
     4.9329   5.1462   5.3281   5.5520   5.6825   5.7923   5.8408   6.0303
     6.1545   6.4185   6.5198   6.5507   6.7200   6.8568   7.0775   7.2697
     7.3382   7.4171   7.4823   7.6547   7.8326   7.8714   7.9597   8.1041
     8.3288   8.7422   8.9132   8.9757  10.2582  11.7266  13.1561  14.2820

          k = 0.3889 0.6736 0.0000 (  4511 PWs)   bands (ev):

   -38.6127 -38.6018 -38.5634 -38.5467 -38.5062 -38.4277 -38.4234 -38.3780
   -38.3756 -38.3320 -38.2901 -38.2732 -38.2157 -38.1842 -38.1342 -38.1028
   -38.1026 -37.9469 -37.9465 -37.7453 -37.7451   3.0366   3.3206   3.4151
     3.6078   3.6317   3.7825   3.7950   4.0682   4.1639   4.2417   4.4866
     4.5288   4.6937   4.9352   5.3081   5.4906   5.7210   5.9169   5.9284
     6.2657   6.3349   6.7214   6.7250   6.8110   7.1599   7.4908   7.7173
     7.8495   8.2689   8.3871   8.4560   8.6298   8.7099   8.9204   8.9257
    13.2399  13.5406  13.8463  14.1478  14.5080  14.9190  15.2471  16.6304

          k = 0.3889-0.3528 0.0000 (  4485 PWs)   bands (ev):

   -38.6542 -38.6433 -38.6082 -38.5813 -38.5398 -38.4060 -38.3875 -38.3137
   -38.3056 -38.2695 -38.2364 -38.2120 -38.2086 -38.1448 -38.1351 -38.1240
   -38.1121 -37.8546 -37.8545 -37.7490 -37.7487   2.6492   2.8386   2.9092
     2.9875   3.1353   3.2485   3.3505   3.6649   3.7897   3.8805   4.4123
     4.7274   5.0322   5.3603   5.4860   5.6970   5.8375   5.9054   6.4169
     6.5764   6.6533   7.1880   7.2923   7.6443   7.7786   7.9126   8.2617
     8.3855   8.3917   8.4759   8.6229   8.8107   8.9016   9.0408   9.2229
    10.7760  11.2597  11.6563  12.0065  12.7541  13.7383  14.5531  16.4230

          k = 0.3889-0.2245 0.0000 (  4444 PWs)   bands (ev):

   -38.6295 -38.6197 -38.5917 -38.5697 -38.5111 -38.4235 -38.3849 -38.2763
   -38.2562 -38.2527 -38.2217 -38.1834 -38.1506 -38.1284 -38.1103 -38.0973
   -38.0930 -37.8087 -37.8085 -37.7524 -37.7520   2.5972   2.6535   2.7919
     2.9159   2.9809   3.1639   3.2168   3.5417   3.6424   3.8508   4.5122
     4.9469   5.3187   5.3964   5.5467   5.8290   5.8611   5.9531   6.4421
     6.6583   6.8243   7.1285   7.5355   7.7979   8.0728   8.1979   8.2775
     8.4377   8.4970   8.5547   8.5761   8.6990   8.7461   8.8598   8.9712
     9.0923   9.1909   9.4419   9.9762  11.3944  12.9805  14.5402  16.0779

          k =-0.5000-0.8660 0.0000 (  4492 PWs)   bands (ev):

   -38.6867 -38.6761 -38.6400 -38.6073 -38.5707 -38.3984 -38.3982 -38.2732
   -38.2686 -38.2566 -38.2550 -38.1983 -38.1674 -38.1639 -38.1533 -38.1186
   -38.1054 -37.8228 -37.8227 -37.7501 -37.7500   2.3716   2.5603   2.6157
     2.7242   2.8627   3.0190   3.0276   3.3927   3.4480   3.6934   4.4011
     4.8892   5.1451   5.2836   5.4398   5.7375   6.1813   6.2304   6.3851
     7.0766   7.1291   7.2231   7.8976   8.1593   8.3627   8.5120   8.7917
     8.9037   8.9137   9.0045   9.0075   9.0719   9.1991   9.3742   9.3814
     9.7396  10.8354  11.7457  11.9452  12.3497  12.4849  12.6246  16.0939

 ------ SPIN DOWN ----------


          k = 0.0556 0.0962 0.0000 (  4451 PWs)   bands (ev):

   -38.6426 -38.5928 -38.4149 -38.2662 -38.1794 -38.1688 -38.1473 -38.1464
   -38.1099 -38.1079 -38.0784 -38.0672 -38.0538 -38.0405 -38.0129 -37.7780
   -37.7770 -37.7456 -37.7455 -37.7140 -37.7139   1.0420   1.4979   2.2107
     2.7154   2.7398   3.0333   3.0819   4.9059   4.9296   5.1233   5.1789
     5.2696   5.3562   5.5607   5.5777   5.6116   5.6485   5.6558   5.6916
     5.7862   5.8455   5.8988   5.9603   6.0917   6.1979   6.2026   6.7511
     7.0550   7.0987   7.2801   7.3290   7.5197   7.5548   7.6741   7.7643
     8.0652   8.1053   8.5985   8.6226   8.8159   9.3727  10.3040  10.8478

          k = 0.0556 0.2245 0.0000 (  4420 PWs)   bands (ev):

   -38.5928 -38.5606 -38.4285 -38.3550 -38.3071 -38.2544 -38.2319 -38.2098
   -38.1803 -38.1789 -38.1393 -38.1132 -38.0929 -38.0665 -38.0409 -37.8719
   -37.8718 -37.7661 -37.7657 -37.7471 -37.7466   1.9558   2.3304   2.9290
     3.2871   3.4093   3.6842   3.7832   4.2232   4.4923   4.5961   4.6450
     4.8332   4.8752   5.3546   5.4680   5.6167   5.7169   5.8001   5.8514
     5.9223   6.0386   6.1834   6.2978   6.4264   6.5178   6.6416   6.7260
     6.7702   6.9222   7.0609   7.1633   7.3335   7.6279   7.7172   7.9679
     8.0966   8.5176   8.6652   8.8216   9.5455  10.7443  11.9721  12.8649

          k = 0.0556 0.3528 0.0000 (  4467 PWs)   bands (ev):

   -38.5585 -38.5391 -38.5228 -38.5057 -38.4367 -38.4032 -38.3533 -38.2664
   -38.2348 -38.2307 -38.1909 -38.1619 -38.1379 -38.0944 -38.0766 -38.0249
   -38.0240 -37.7907 -37.7907 -37.7573 -37.7571   2.7473   2.9912   3.0438
     3.1288   3.3643   3.4174   3.6510   3.8122   4.0807   4.1449   4.6359
     4.9490   5.1297   5.3544   5.5505   5.6619   5.6887   5.7821   6.0360
     6.1620   6.4465   6.5986   6.7405   6.8181   7.0421   7.3053   7.4692
     7.5254   7.7265   7.8398   7.9889   8.1007   8.2844   8.3575   8.4859
     8.4964   8.6718   8.9127   9.3126  10.6612  12.1677  13.6500  14.8575

          k = 0.0556 0.4811 0.0000 (  4463 PWs)   bands (ev):

   -38.6500 -38.6393 -38.6070 -38.5814 -38.5331 -38.4143 -38.3879 -38.2827
   -38.2737 -38.2631 -38.2277 -38.1955 -38.1724 -38.1355 -38.1279 -38.1109
   -38.1020 -37.8236 -37.8236 -37.7509 -37.7506   2.5643   2.6826   2.7856
     2.8854   2.9990   3.1685   3.1824   3.5470   3.6343   3.8122   4.4538
     4.8710   5.2130   5.3794   5.5076   5.7440   5.9286   5.9828   6.4884
     6.6681   6.8336   7.2275   7.5124   7.8554   8.0485   8.0963   8.3885
     8.4764   8.5795   8.6246   8.7222   8.7380   8.8875   8.9884   9.1468
     9.5875  10.1167  10.4468  10.7791  11.8703  13.2744  14.6244  16.3677

          k = 0.0556-0.5453 0.0000 (  4486 PWs)   bands (ev):

   -38.6785 -38.6671 -38.6311 -38.6006 -38.5623 -38.4008 -38.3938 -38.2863
   -38.2819 -38.2597 -38.2438 -38.2029 -38.1828 -38.1530 -38.1487 -38.1173
   -38.1118 -37.8314 -37.8310 -37.7497 -37.7494   2.4471   2.6317   2.6954
     2.7870   2.9359   3.0817   3.1055   3.4700   3.5381   3.7363   4.4092
     4.8417   5.1209   5.3329   5.4439   5.7565   5.9842   6.1337   6.4942
     6.8064   7.0702   7.2812   7.7144   8.0769   8.1977   8.4546   8.4935
     8.6995   8.7875   8.8720   8.9024   8.9668   9.0415   9.1473   9.2636
    10.2152  11.0007  11.7358  11.8986  12.1998  12.9126  13.4819  16.1837

          k = 0.0556-0.4170 0.0000 (  4465 PWs)   bands (ev):

   -38.5987 -38.5901 -38.5685 -38.5496 -38.4801 -38.4331 -38.3788 -38.2767
   -38.2575 -38.2518 -38.2102 -38.1816 -38.1570 -38.1112 -38.0969 -38.0844
   -38.0787 -37.8098 -37.8098 -37.7536 -37.7532   2.7518   2.7777   2.9463
     3.0416   3.1088   3.2919   3.3647   3.6695   3.8236   3.9522   4.5457
     4.9134   5.3291   5.4638   5.5832   5.6388   5.7110   5.9564   6.2646
     6.3867   6.6058   6.9958   7.1779   7.3832   7.5758   7.6922   8.0075
     8.0898   8.1315   8.2564   8.3725   8.5152   8.6231   8.7314   8.8964
     9.0185   9.2036   9.2779   9.9142  11.2807  12.8453  14.4034  15.7770

          k = 0.0556-0.2887 0.0000 (  4439 PWs)   bands (ev):

   -38.5645 -38.5447 -38.4636 -38.4313 -38.3824 -38.3249 -38.3006 -38.2459
   -38.2076 -38.2052 -38.1690 -38.1378 -38.1157 -38.0789 -38.0581 -37.9506
   -37.9500 -37.7688 -37.7687 -37.7612 -37.7609   2.4722   2.7447   3.1225
     3.2926   3.5111   3.7069   3.9030   4.0380   4.2287   4.3810   4.6225
     4.6833   5.0025   5.1307   5.4965   5.6750   5.7579   5.8098   5.9037
     6.0290   6.1072   6.2782   6.3724   6.6843   6.7301   6.8348   6.9863
     7.1625   7.2315   7.3441   7.5831   7.6944   7.8334   7.9664   8.0778
     8.2598   8.5771   8.8583   8.9256  10.0838  11.4572  12.8218  13.8821

          k = 0.0556-0.1604 0.0000 (  4443 PWs)   bands (ev):

   -38.6214 -38.5785 -38.4171 -38.2973 -38.2350 -38.2053 -38.1744 -38.1673
   -38.1528 -38.1454 -38.1011 -38.0912 -38.0689 -38.0584 -38.0255 -37.8029
   -37.8028 -37.7698 -37.7694 -37.7279 -37.7279   1.4358   1.8683   2.5550
     3.0246   3.0557   3.3537   3.4028   4.5909   4.7102   4.8796   4.9526
     5.0554   5.0916   5.4271   5.5607   5.6684   5.7464   5.7978   5.8768
     5.8861   5.9347   5.9874   6.0256   6.2144   6.2674   6.4303   6.5023
     6.8900   6.9813   7.0504   7.1216   7.3069   7.5041   7.6417   7.8674
     8.0119   8.3709   8.5664   8.7996   9.0541  10.0383  11.1178  11.8287

          k = 0.0556-0.0321 0.0000 (  4465 PWs)   bands (ev):

   -38.6539 -38.6010 -38.4158 -38.2558 -38.1491 -38.1462 -38.1379 -38.1367
   -38.0855 -38.0799 -38.0726 -38.0546 -38.0526 -38.0175 -38.0060 -37.7800
   -37.7786 -37.7178 -37.7176 -37.7067 -37.7064   0.8333   1.2971   2.0167
     2.5307   2.5697   2.8501   2.8988   5.0749   5.1123   5.2713   5.3393
     5.3864   5.4149   5.4289   5.4979   5.5188   5.6214   5.6430   5.6588
     5.7044   5.7419   5.9183   5.9749   6.0407   6.0544   6.3012   7.1531
     7.1933   7.2545   7.3662   7.3748   7.5216   7.5590   7.8083   7.9201
     8.1477   8.2635   8.2651   8.6680   8.8336   8.8586   9.6708  10.1001

          k = 0.1667 0.2887 0.0000 (  4425 PWs)   bands (ev):

   -38.5435 -38.5390 -38.4809 -38.4599 -38.4194 -38.3650 -38.3309 -38.2654
   -38.2346 -38.2338 -38.1744 -38.1675 -38.1434 -38.1123 -38.0704 -37.9818
   -37.9817 -37.8016 -37.8016 -37.7578 -37.7573   2.9424   3.0840   3.3648
     3.6950   3.8800   3.9011   4.0031   4.0620   4.0709   4.2614   4.3882
     4.5433   4.9847   5.0253   5.1054   5.3129   5.4835   5.4856   5.5251
     5.6676   6.2031   6.2414   6.4547   6.5525   6.6724   7.1103   7.1650
     7.3072   7.5598   7.7284   7.9588   8.1865   8.3193   8.4418   8.4548
     8.5665   8.6305   8.7219   9.4105  10.6378  12.0214  13.4210  14.5654

          k = 0.1667 0.4170 0.0000 (  4459 PWs)   bands (ev):

   -38.5844 -38.5746 -38.5536 -38.5338 -38.4760 -38.4420 -38.3819 -38.3092
   -38.3063 -38.2782 -38.2240 -38.2160 -38.1972 -38.1582 -38.1011 -38.0766
   -38.0749 -37.8637 -37.8636 -37.7505 -37.7504   3.1167   3.1825   3.3120
     3.4610   3.5208   3.5827   3.8076   3.8947   4.1119   4.2938   4.5528
     4.6678   4.9170   5.1016   5.1927   5.4307   5.5315   5.8875   5.9624
     6.1239   6.2029   6.4428   6.5680   6.8401   7.1372   7.2795   7.4167
     7.6346   7.7722   8.0125   8.4933   8.7826   8.8724   8.9449   9.1169
    10.1830  10.3285  10.5441  11.1658  12.2824  13.6694  15.1149  16.4080

          k = 0.1667 0.5453 0.0000 (  4490 PWs)   bands (ev):

   -38.6411 -38.6305 -38.5929 -38.5685 -38.5288 -38.4061 -38.3883 -38.3565
   -38.3423 -38.2956 -38.2590 -38.2379 -38.2223 -38.1684 -38.1287 -38.1209
   -38.1187 -37.8975 -37.8973 -37.7467 -37.7467   2.8116   3.0982   3.1038
     3.2373   3.3742   3.4639   3.6054   3.8499   4.0392   4.0868   4.4316
     4.5416   4.7953   5.1667   5.4760   5.6526   5.7253   5.9318   6.1995
     6.3258   6.5427   6.8222   7.1946   7.2463   7.3448   7.7283   8.0192
     8.1645   8.2931   8.4107   8.5890   8.7153   8.8034   8.9984   9.1254
    12.0424  12.4633  12.8831  13.2829  13.7877  14.2645  14.5132  16.4930

          k = 0.1667-0.4811 0.0000 (  4476 PWs)   bands (ev):

   -38.6207 -38.6102 -38.5791 -38.5553 -38.5109 -38.4210 -38.3867 -38.3387
   -38.3300 -38.2878 -38.2439 -38.2364 -38.2114 -38.1665 -38.1175 -38.1063
   -38.1036 -37.8858 -37.8855 -37.7480 -37.7479   2.9198   3.1298   3.1721
     3.3384   3.4153   3.5054   3.6760   3.8853   4.0459   4.1775   4.4484
     4.6428   4.9069   5.0422   5.4554   5.5275   5.7539   5.9534   6.0492
     6.1682   6.5277   6.6735   6.9301   7.0675   7.1984   7.6199   7.8149
     7.8338   7.9866   8.1401   8.5482   8.8375   8.8894   9.0471   9.2144
    11.1499  11.4118  11.7272  12.2995  13.2379  14.4129  15.5543  16.7415

          k = 0.1667-0.3528 0.0000 (  4458 PWs)   bands (ev):

   -38.5489 -38.5395 -38.5206 -38.5063 -38.4526 -38.4262 -38.3656 -38.2805
   -38.2715 -38.2656 -38.1994 -38.1852 -38.1791 -38.1402 -38.0849 -38.0340
   -38.0335 -37.8343 -37.8342 -37.7542 -37.7541   3.2058   3.3043   3.3942
     3.5298   3.6489   3.7477   3.8574   4.0030   4.2400   4.3056   4.4665
     4.6727   4.8510   4.9652   5.2264   5.3420   5.3882   5.5964   5.7876
     5.8679   6.1190   6.1693   6.4490   6.7241   6.8874   7.0575   7.3334
     7.4831   7.6971   7.8728   8.3459   8.5380   8.6529   8.6758   8.8908
     9.2899   9.3554   9.4831  10.1439  11.3729  12.8015  14.2526  15.4862

          k = 0.1667-0.2245 0.0000 (  4433 PWs)   bands (ev):

   -38.5685 -38.5479 -38.4488 -38.4056 -38.3628 -38.3022 -38.2850 -38.2436
   -38.2034 -38.2015 -38.1621 -38.1363 -38.1153 -38.0824 -38.0580 -37.9258
   -37.9256 -37.7716 -37.7716 -37.7618 -37.7614   2.4248   2.7213   3.2092
     3.5727   3.6912   3.8446   3.9772   4.1484   4.2811   4.3230   4.4901
     4.6688   4.7914   5.0978   5.2817   5.4361   5.5140   5.6222   5.7477
     5.8372   6.0640   6.2298   6.5181   6.5720   6.6057   6.8354   6.9184
     7.1709   7.1932   7.2746   7.5881   7.6913   7.8854   8.0353   8.0491
     8.1550   8.4715   8.6873   8.9597  10.0494  11.3380  12.6542  13.6793

          k = 0.1667-0.0962 0.0000 (  4427 PWs)   bands (ev):

   -38.6121 -38.5722 -38.4196 -38.3170 -38.2624 -38.2224 -38.1888 -38.1734
   -38.1685 -38.1667 -38.1083 -38.1014 -38.0790 -38.0619 -38.0273 -37.8282
   -37.8281 -37.7690 -37.7684 -37.7327 -37.7325   1.6141   2.0288   2.6869
     3.0994   3.1853   3.4729   3.5448   4.4068   4.6708   4.7818   4.8328
     4.9859   5.0040   5.5038   5.5511   5.6882   5.7876   5.8080   5.9040
     5.9865   6.0212   6.0920   6.1168   6.1376   6.3346   6.4437   6.6042
     6.7107   6.9160   6.9658   7.1503   7.2868   7.5153   7.5977   7.8696
     8.1776   8.2888   8.7028   8.9100   9.1347  10.2782  11.4293  12.2083

          k = 0.2778 0.4811 0.0000 (  4485 PWs)   bands (ev):

   -38.5840 -38.5809 -38.5480 -38.5351 -38.4794 -38.4619 -38.4301 -38.3857
   -38.3621 -38.3339 -38.2936 -38.2821 -38.2027 -38.1983 -38.1287 -38.0851
   -38.0849 -37.9564 -37.9564 -37.7455 -37.7453   3.3373   3.3562   3.5120
     3.5813   3.8242   3.9663   4.1148   4.1704   4.2419   4.3269   4.4001
     4.4885   4.8185   4.9626   5.1340   5.3377   5.5995   5.6962   6.0222
     6.0329   6.2464   6.2467   6.7434   6.8568   7.0083   7.2546   7.4144
     7.4830   7.8185   8.1660   8.5347   8.7999   8.8386   8.9046   9.1080
    12.4984  12.7247  13.1855  13.8690  14.7989  15.8979  16.8267  16.9372

          k = 0.2778 0.6094 0.0000 (  4491 PWs)   bands (ev):

   -38.5763 -38.5685 -38.5339 -38.5285 -38.4945 -38.4706 -38.4425 -38.4124
   -38.3822 -38.3604 -38.3035 -38.2984 -38.2048 -38.1944 -38.1406 -38.0771
   -38.0770 -37.9884 -37.9883 -37.7443 -37.7439   3.3100   3.5372   3.5829
     3.7250   3.8446   3.9871   4.0456   4.0939   4.1746   4.3524   4.4003
     4.5655   4.7136   5.0899   5.1941   5.4161   5.5468   5.6854   5.9383
     5.9942   6.2887   6.3107   6.7135   6.9172   7.0983   7.2501   7.4541
     7.5189   8.1136   8.3249   8.4725   8.6260   8.6960   8.7426   8.8856
    13.7104  14.0035  14.4630  14.9071  15.2940  15.7601  16.2898  16.5142

          k = 0.2778-0.4170 0.0000 (  4462 PWs)   bands (ev):

   -38.5905 -38.5829 -38.5563 -38.5350 -38.4880 -38.4436 -38.3987 -38.3485
   -38.3422 -38.3021 -38.2632 -38.2494 -38.2030 -38.1881 -38.1133 -38.0863
   -38.0857 -37.9111 -37.9110 -37.7474 -37.7473   3.1967   3.3296   3.4068
     3.5485   3.6738   3.7732   3.9321   4.1368   4.2439   4.2993   4.5314
     4.6952   4.7539   4.8577   5.1960   5.2707   5.5903   5.7794   6.0146
     6.0888   6.2403   6.3180   6.5402   6.8346   7.0489   7.2738   7.4400
     7.5641   7.6693   8.0232   8.5386   8.8975   8.9258   9.0248   9.2132
    11.3248  11.4713  11.8259  12.4793  13.4918  14.7541  16.0789  17.2433

          k = 0.2778-0.2887 0.0000 (  4463 PWs)   bands (ev):

   -38.5676 -38.5577 -38.5422 -38.5267 -38.4516 -38.4387 -38.3707 -38.2778
   -38.2672 -38.2587 -38.1983 -38.1858 -38.1741 -38.1186 -38.0908 -38.0558
   -38.0540 -37.8220 -37.8217 -37.7538 -37.7537   2.9625   3.0768   3.2097
     3.2468   3.3706   3.4873   3.6265   3.8546   4.0523   4.1903   4.5430
     4.7847   5.1437   5.1752   5.4086   5.5352   5.6315   5.7981   5.9818
     6.1446   6.3468   6.5654   6.6929   6.8230   7.1273   7.3318   7.4784
     7.5796   7.8286   8.1280   8.3712   8.4620   8.6537   8.6740   8.9231
     9.1405   9.3221   9.3994  10.0527  11.3223  12.8052  14.3019  15.5787

          k = 0.2778-0.1604 0.0000 (  4458 PWs)   bands (ev):

   -38.5597 -38.5391 -38.4912 -38.4693 -38.4106 -38.3615 -38.3274 -38.2555
   -38.2156 -38.2130 -38.1821 -38.1456 -38.1172 -38.0859 -38.0621 -37.9873
   -37.9868 -37.7733 -37.7732 -37.7599 -37.7596   2.5785   2.8277   3.0407
     3.1393   3.4034   3.5204   3.7750   3.8518   4.1083   4.2693   4.6856
     4.9329   5.1462   5.3281   5.5520   5.6825   5.7923   5.8408   6.0303
     6.1545   6.4185   6.5198   6.5507   6.7200   6.8568   7.0775   7.2697
     7.3382   7.4171   7.4823   7.6547   7.8326   7.8714   7.9597   8.1041
     8.3288   8.7422   8.9132   8.9757  10.2582  11.7266  13.1561  14.2820

          k = 0.3889 0.6736 0.0000 (  4511 PWs)   bands (ev):

   -38.6127 -38.6018 -38.5634 -38.5467 -38.5062 -38.4277 -38.4234 -38.3780
   -38.3756 -38.3320 -38.2901 -38.2732 -38.2157 -38.1842 -38.1342 -38.1028
   -38.1026 -37.9469 -37.9465 -37.7453 -37.7451   3.0366   3.3206   3.4151
     3.6078   3.6317   3.7825   3.7950   4.0682   4.1639   4.2417   4.4866
     4.5288   4.6937   4.9352   5.3081   5.4906   5.7210   5.9169   5.9284
     6.2657   6.3349   6.7214   6.7250   6.8110   7.1599   7.4908   7.7173
     7.8495   8.2689   8.3871   8.4560   8.6298   8.7099   8.9204   8.9257
    13.2399  13.5406  13.8463  14.1478  14.5080  14.9190  15.2471  16.6305

          k = 0.3889-0.3528 0.0000 (  4485 PWs)   bands (ev):

   -38.6542 -38.6433 -38.6082 -38.5813 -38.5398 -38.4060 -38.3875 -38.3137
   -38.3056 -38.2695 -38.2364 -38.2120 -38.2086 -38.1448 -38.1351 -38.1240
   -38.1121 -37.8546 -37.8545 -37.7490 -37.7487   2.6492   2.8386   2.9092
     2.9875   3.1353   3.2485   3.3505   3.6649   3.7897   3.8805   4.4123
     4.7274   5.0322   5.3603   5.4860   5.6970   5.8375   5.9054   6.4169
     6.5764   6.6533   7.1880   7.2923   7.6443   7.7786   7.9126   8.2617
     8.3855   8.3917   8.4759   8.6229   8.8107   8.9016   9.0408   9.2229
    10.7760  11.2597  11.6563  12.0065  12.7541  13.7383  14.5531  16.4230

          k = 0.3889-0.2245 0.0000 (  4444 PWs)   bands (ev):

   -38.6295 -38.6197 -38.5917 -38.5697 -38.5111 -38.4235 -38.3849 -38.2763
   -38.2562 -38.2527 -38.2217 -38.1834 -38.1506 -38.1284 -38.1103 -38.0973
   -38.0930 -37.8087 -37.8085 -37.7524 -37.7520   2.5972   2.6535   2.7919
     2.9159   2.9809   3.1639   3.2168   3.5417   3.6424   3.8508   4.5122
     4.9469   5.3187   5.3964   5.5467   5.8290   5.8611   5.9531   6.4421
     6.6583   6.8243   7.1285   7.5355   7.7979   8.0728   8.1979   8.2775
     8.4377   8.4970   8.5547   8.5761   8.6990   8.7461   8.8598   8.9712
     9.0923   9.1909   9.4419   9.9762  11.3944  12.9805  14.5402  16.0779

          k =-0.5000-0.8660 0.0000 (  4492 PWs)   bands (ev):

   -38.6867 -38.6761 -38.6400 -38.6073 -38.5707 -38.3984 -38.3982 -38.2732
   -38.2686 -38.2566 -38.2550 -38.1983 -38.1674 -38.1639 -38.1533 -38.1186
   -38.1054 -37.8228 -37.8227 -37.7501 -37.7500   2.3716   2.5603   2.6157
     2.7242   2.8627   3.0190   3.0276   3.3927   3.4480   3.6934   4.4011
     4.8892   5.1451   5.2836   5.4398   5.7375   6.1813   6.2304   6.3851
     7.0766   7.1291   7.2231   7.8976   8.1593   8.3627   8.5120   8.7917
     8.9037   8.9137   9.0045   9.0075   9.0719   9.1991   9.3742   9.3814
     9.7396  10.8354  11.7457  11.9452  12.3497  12.4849  12.6246  16.0940

     the Fermi energy is     8.3515 ev

!    total energy              =   -1198.23263814 Ry
     estimated scf accuracy    <       0.00000004 Ry
     smearing contrib. (-TS)   =      -0.03014833 Ry
     internal energy E=F+TS    =   -1198.20248981 Ry

     The total energy is F=E-TS. E is the sum of the following terms:
     one-electron contribution =  -13486.92331280 Ry
     hartree contribution      =    6789.24067610 Ry
     xc contribution           =    -209.37318935 Ry
     ewald contribution        =    5708.85333624 Ry

     total magnetization       =     0.00 Bohr mag/cell
     absolute magnetization    =     0.00 Bohr mag/cell

     convergence has been achieved in  11 iterations

     negative rho (up, down):  1.990E-01 1.990E-01

     Forces acting on atoms (cartesian axes, Ry/au):

     atom    1 type  1   force =     0.00000000    0.00000000    0.00046165
     atom    2 type  1   force =     0.00000000    0.00000000    0.00123638
     atom    3 type  1   force =     0.00000000    0.00000000    0.00133124
     atom    4 type  1   force =     0.00000000    0.00000000   -0.00000616
     atom    5 type  1   force =     0.00000000    0.00000000   -0.00133909
     atom    6 type  1   force =     0.00000000    0.00000000   -0.00123263
     atom    7 type  1   force =     0.00000000    0.00000000   -0.00045139

     Total force =     0.002651     Total SCF correction =     0.001144
     SCF correction compared to forces is large: reduce conv_thr to get better values
     Energy error            =      1.6E-05
     Gradient error          =      1.3E-03

     number of scf cycles    =   7
     number of bfgs steps    =   6

     energy   old            =   -1198.2326224088 Ry
     energy   new            =   -1198.2326381417 Ry

     CASE: energy  _new < energy  _old

     new trust radius        =       0.0064624160 bohr
     new conv_thr            =       0.0000001000 Ry


ATOMIC_POSITIONS (angstrom)
Rh            0.0000000000        0.0000000000        0.0356190326
Rh            1.3554284000       -0.7825569000        2.2086668718
Rh            1.3554284000        0.7825569000        4.4089676045
Rh            0.0000000000        0.0000000000        6.6402392235
Rh            1.3554284000       -0.7825569000        8.8714911015
Rh            1.3554284000        0.7825569000       11.0717566956
Rh            0.0000000000        0.0000000000       13.2447705706



     Writing output data file /home/STUDENTI/leonardo.razzai/Rh_work/surf_111/7-L.save/
     NEW-OLD atomic charge density approx. for the potential

     negative rho (up, down):  1.980E-01 1.980E-01
     Generating pointlists ...

     total cpu time spent up to now is      684.7 secs

     Self-consistent Calculation

     iteration #  1     ecut=    35.00 Ry     beta= 0.40
     Davidson diagonalization with overlap
     ethr =  1.00E-06,  avg # of iterations =  5.0

     negative rho (up, down):  1.980E-01 1.980E-01

     total cpu time spent up to now is      699.6 secs

     total energy              =   -1198.23180347 Ry
     estimated scf accuracy    <       0.04858525 Ry

     total magnetization       =    -0.00 Bohr mag/cell
     absolute magnetization    =     0.00 Bohr mag/cell

     iteration #  2     ecut=    35.00 Ry     beta= 0.40
     Davidson diagonalization with overlap
     ethr =  4.63E-05,  avg # of iterations =  1.0

     negative rho (up, down):  1.980E-01 1.980E-01

     total cpu time spent up to now is      707.3 secs

     total energy              =   -1198.23235887 Ry
     estimated scf accuracy    <       0.02599913 Ry

     total magnetization       =    -0.00 Bohr mag/cell
     absolute magnetization    =     0.00 Bohr mag/cell

     iteration #  3     ecut=    35.00 Ry     beta= 0.40
     Davidson diagonalization with overlap
     ethr =  2.48E-05,  avg # of iterations =  1.0

     negative rho (up, down):  1.980E-01 1.980E-01

     total cpu time spent up to now is      715.0 secs

     total energy              =   -1198.23265717 Ry
     estimated scf accuracy    <       0.00137374 Ry

     total magnetization       =    -0.00 Bohr mag/cell
     absolute magnetization    =     0.00 Bohr mag/cell

     iteration #  4     ecut=    35.00 Ry     beta= 0.40
     Davidson diagonalization with overlap
     ethr =  1.31E-06,  avg # of iterations =  1.0

     negative rho (up, down):  1.980E-01 1.980E-01

     total cpu time spent up to now is      722.9 secs

     total energy              =   -1198.23264882 Ry
     estimated scf accuracy    <       0.00055784 Ry

     total magnetization       =    -0.00 Bohr mag/cell
     absolute magnetization    =     0.00 Bohr mag/cell

     iteration #  5     ecut=    35.00 Ry     beta= 0.40
     Davidson diagonalization with overlap
     ethr =  5.31E-07,  avg # of iterations =  1.0

     negative rho (up, down):  1.980E-01 1.980E-01

     total cpu time spent up to now is      730.7 secs

     total energy              =   -1198.23265474 Ry
     estimated scf accuracy    <       0.00000824 Ry

     total magnetization       =    -0.00 Bohr mag/cell
     absolute magnetization    =     0.00 Bohr mag/cell

     iteration #  6     ecut=    35.00 Ry     beta= 0.40
     Davidson diagonalization with overlap
     ethr =  7.85E-09,  avg # of iterations =  1.1

     negative rho (up, down):  1.980E-01 1.980E-01

     total cpu time spent up to now is      738.5 secs

     total energy              =   -1198.23265459 Ry
     estimated scf accuracy    <       0.00000229 Ry

     total magnetization       =    -0.00 Bohr mag/cell
     absolute magnetization    =     0.00 Bohr mag/cell

     iteration #  7     ecut=    35.00 Ry     beta= 0.40
     Davidson diagonalization with overlap
     ethr =  2.18E-09,  avg # of iterations =  1.1

     negative rho (up, down):  1.980E-01 1.980E-01

     total cpu time spent up to now is      746.3 secs

     total energy              =   -1198.23265452 Ry
     estimated scf accuracy    <       0.00000287 Ry

     total magnetization       =     0.00 Bohr mag/cell
     absolute magnetization    =     0.00 Bohr mag/cell

     iteration #  8     ecut=    35.00 Ry     beta= 0.40
     Davidson diagonalization with overlap
     ethr =  2.18E-09,  avg # of iterations =  1.0

     negative rho (up, down):  1.980E-01 1.980E-01

     total cpu time spent up to now is      754.1 secs

     total energy              =   -1198.23265474 Ry
     estimated scf accuracy    <       0.00000105 Ry

     total magnetization       =     0.00 Bohr mag/cell
     absolute magnetization    =     0.00 Bohr mag/cell

     iteration #  9     ecut=    35.00 Ry     beta= 0.40
     Davidson diagonalization with overlap
     ethr =  1.00E-09,  avg # of iterations =  2.0

     negative rho (up, down):  1.980E-01 1.980E-01

     total cpu time spent up to now is      762.5 secs

     total energy              =   -1198.23265521 Ry
     estimated scf accuracy    <       0.00000235 Ry

     total magnetization       =     0.00 Bohr mag/cell
     absolute magnetization    =     0.00 Bohr mag/cell

     iteration # 10     ecut=    35.00 Ry     beta= 0.40
     Davidson diagonalization with overlap
     ethr =  1.00E-09,  avg # of iterations =  1.0

     negative rho (up, down):  1.980E-01 1.980E-01

     total cpu time spent up to now is      770.3 secs

     total energy              =   -1198.23265544 Ry
     estimated scf accuracy    <       0.00000029 Ry

     total magnetization       =     0.00 Bohr mag/cell
     absolute magnetization    =     0.00 Bohr mag/cell

     iteration # 11     ecut=    35.00 Ry     beta= 0.40
     Davidson diagonalization with overlap
     ethr =  2.72E-10,  avg # of iterations =  1.1

     negative rho (up, down):  1.980E-01 1.980E-01
 
     Magnetic moment per site:
     atom:    1    charge:   13.1066    magn:    0.0000    constr:    0.0000
     atom:    2    charge:   13.1632    magn:    0.0000    constr:    0.0000
     atom:    3    charge:   13.1580    magn:    0.0000    constr:    0.0000
     atom:    4    charge:   13.1510    magn:    0.0000    constr:    0.0000
     atom:    5    charge:   13.1579    magn:   -0.0000    constr:    0.0000
     atom:    6    charge:   13.1631    magn:    0.0000    constr:    0.0000
     atom:    7    charge:   13.1065    magn:    0.0000    constr:    0.0000

     total cpu time spent up to now is      777.9 secs

     End of self-consistent calculation

 ------ SPIN UP ------------


          k = 0.0556 0.0962 0.0000 (  4451 PWs)   bands (ev):

   -38.6461 -38.5966 -38.4157 -38.2680 -38.1808 -38.1702 -38.1489 -38.1480
   -38.1115 -38.1092 -38.0797 -38.0687 -38.0549 -38.0409 -38.0131 -37.7769
   -37.7759 -37.7445 -37.7444 -37.7128 -37.7126   1.0384   1.4947   2.2104
     2.7114   2.7360   3.0336   3.0822   4.9020   4.9298   5.1202   5.1742
     5.2662   5.3583   5.5611   5.5741   5.6069   5.6461   5.6552   5.6902
     5.7816   5.8458   5.8989   5.9614   6.0920   6.1989   6.2040   6.7518
     7.0526   7.0975   7.2783   7.3288   7.5198   7.5559   7.6741   7.7631
     8.0654   8.1055   8.5988   8.6233   8.8173   9.3734  10.3055  10.8508

          k = 0.0556 0.2245 0.0000 (  4420 PWs)   bands (ev):

   -38.5963 -38.5644 -38.4300 -38.3570 -38.3082 -38.2550 -38.2337 -38.2114
   -38.1818 -38.1804 -38.1399 -38.1143 -38.0946 -38.0673 -38.0412 -37.8707
   -37.8706 -37.7650 -37.7646 -37.7459 -37.7454   1.9521   2.3269   2.9280
     3.2830   3.4056   3.6832   3.7824   4.2204   4.4881   4.5951   4.6427
     4.8314   4.8729   5.3543   5.4685   5.6169   5.7170   5.7998   5.8471
     5.9215   6.0352   6.1835   6.2949   6.4237   6.5173   6.6422   6.7253
     6.7704   6.9225   7.0613   7.1633   7.3323   7.6269   7.7178   7.9683
     8.0961   8.5176   8.6664   8.8231   9.5477  10.7462  11.9746  12.8684

          k = 0.0556 0.3528 0.0000 (  4467 PWs)   bands (ev):

   -38.5618 -38.5423 -38.5252 -38.5078 -38.4376 -38.4038 -38.3545 -38.2673
   -38.2365 -38.2324 -38.1924 -38.1629 -38.1395 -38.0950 -38.0770 -38.0240
   -38.0231 -37.7896 -37.7895 -37.7560 -37.7558   2.7433   2.9871   3.0398
     3.1255   3.3597   3.4150   3.6480   3.8127   4.0809   4.1446   4.6346
     4.9480   5.1262   5.3532   5.5481   5.6580   5.6887   5.7797   6.0333
     6.1606   6.4469   6.5993   6.7406   6.8175   7.0408   7.3042   7.4689
     7.5258   7.7248   7.8400   7.9878   8.1008   8.2848   8.3565   8.4860
     8.4970   8.6726   8.9146   9.3141  10.6634  12.1711  13.6534  14.8603

          k = 0.0556 0.4811 0.0000 (  4463 PWs)   bands (ev):

   -38.6521 -38.6413 -38.6097 -38.5842 -38.5335 -38.4158 -38.3889 -38.2842
   -38.2754 -38.2646 -38.2294 -38.1965 -38.1739 -38.1354 -38.1275 -38.1112
   -38.1024 -37.8225 -37.8224 -37.7495 -37.7492   2.5596   2.6784   2.7811
     2.8805   2.9952   3.1638   3.1823   3.5478   3.6348   3.8126   4.4534
     4.8694   5.2116   5.3800   5.5031   5.7400   5.9267   5.9794   6.4893
     6.6664   6.8319   7.2271   7.5126   7.8544   8.0490   8.0959   8.3884
     8.4757   8.5790   8.6244   8.7224   8.7383   8.8875   8.9892   9.1480
     9.5870  10.1171  10.4475  10.7801  11.8712  13.2773  14.6275  16.3688

          k = 0.0556-0.5453 0.0000 (  4486 PWs)   bands (ev):

   -38.6805 -38.6690 -38.6336 -38.6034 -38.5625 -38.4020 -38.3948 -38.2883
   -38.2836 -38.2614 -38.2455 -38.2039 -38.1839 -38.1531 -38.1484 -38.1178
   -38.1122 -37.8302 -37.8299 -37.7482 -37.7480   2.4423   2.6275   2.6909
     2.7821   2.9320   3.0768   3.1056   3.4706   3.5388   3.7369   4.4089
     4.8397   5.1198   5.3339   5.4392   5.7516   5.9831   6.1307   6.4950
     6.8053   7.0686   7.2805   7.7135   8.0769   8.1985   8.4553   8.4926
     8.6997   8.7862   8.8722   8.9020   8.9673   9.0420   9.1475   9.2644
    10.2143  11.0009  11.7372  11.8994  12.1999  12.9137  13.4832  16.1829

          k = 0.0556-0.4170 0.0000 (  4465 PWs)   bands (ev):

   -38.6009 -38.5922 -38.5714 -38.5524 -38.4806 -38.4346 -38.3800 -38.2778
   -38.2592 -38.2534 -38.2119 -38.1825 -38.1585 -38.1116 -38.0970 -38.0838
   -38.0784 -37.8087 -37.8086 -37.7523 -37.7519   2.7477   2.7730   2.9420
     3.0372   3.1046   3.2904   3.3615   3.6703   3.8239   3.9523   4.5451
     4.9123   5.3277   5.4632   5.5789   5.6354   5.7093   5.9529   6.2618
     6.3863   6.6061   6.9960   7.1776   7.3838   7.5750   7.6906   8.0075
     8.0890   8.1316   8.2557   8.3721   8.5146   8.6235   8.7324   8.8966
     9.0200   9.2039   9.2784   9.9155  11.2824  12.8488  14.4072  15.7793

          k = 0.0556-0.2887 0.0000 (  4439 PWs)   bands (ev):

   -38.5681 -38.5484 -38.4656 -38.4332 -38.3833 -38.3254 -38.3022 -38.2470
   -38.2093 -38.2068 -38.1701 -38.1388 -38.1173 -38.0797 -38.0585 -37.9495
   -37.9489 -37.7677 -37.7675 -37.7600 -37.7597   2.4684   2.7410   3.1202
     3.2889   3.5077   3.7030   3.9024   4.0361   4.2276   4.3795   4.6205
     4.6803   5.0002   5.1301   5.4964   5.6758   5.7579   5.8049   5.9023
     6.0269   6.1066   6.2784   6.3709   6.6845   6.7274   6.8344   6.9850
     7.1631   7.2308   7.3431   7.5837   7.6944   7.8328   7.9668   8.0783
     8.2590   8.5777   8.8599   8.9270  10.0863  11.4599  12.8247  13.8854

          k = 0.0556-0.1604 0.0000 (  4443 PWs)   bands (ev):

   -38.6249 -38.5823 -38.4181 -38.2993 -38.2363 -38.2064 -38.1761 -38.1690
   -38.1542 -38.1469 -38.1018 -38.0924 -38.0702 -38.0593 -38.0257 -37.8017
   -37.8015 -37.7687 -37.7684 -37.7268 -37.7267   1.4322   1.8649   2.5545
     3.0205   3.0517   3.3538   3.4028   4.5884   4.7066   4.8770   4.9484
     5.0544   5.0903   5.4276   5.5609   5.6683   5.7417   5.7976   5.8758
     5.8829   5.9326   5.9845   6.0256   6.2143   6.2672   6.4315   6.5034
     6.8890   6.9801   7.0510   7.1217   7.3054   7.5031   7.6421   7.8668
     8.0121   8.3709   8.5670   8.8010   9.0557  10.0395  11.1198  11.8321

          k = 0.0556-0.0321 0.0000 (  4465 PWs)   bands (ev):

   -38.6575 -38.6048 -38.4165 -38.2575 -38.1506 -38.1477 -38.1394 -38.1383
   -38.0868 -38.0812 -38.0738 -38.0565 -38.0539 -38.0177 -38.0062 -37.7789
   -37.7775 -37.7166 -37.7164 -37.7055 -37.7052   0.8296   1.2939   2.0164
     2.5269   2.5660   2.8504   2.8991   5.0725   5.1133   5.2681   5.3348
     5.3831   5.4168   5.4255   5.4935   5.5152   5.6213   5.6407   5.6544
     5.7034   5.7418   5.9193   5.9760   6.0419   6.0556   6.3026   7.1518
     7.1911   7.2551   7.3642   7.3731   7.5214   7.5592   7.8086   7.9205
     8.1483   8.2626   8.2660   8.6687   8.8339   8.8600   9.6720  10.1026

          k = 0.1667 0.2887 0.0000 (  4425 PWs)   bands (ev):

   -38.5471 -38.5426 -38.4829 -38.4617 -38.4205 -38.3660 -38.3320 -38.2664
   -38.2359 -38.2351 -38.1757 -38.1691 -38.1451 -38.1124 -38.0711 -37.9808
   -37.9807 -37.8005 -37.8004 -37.7565 -37.7561   2.9385   3.0800   3.3614
     3.6923   3.8760   3.8968   3.9979   4.0590   4.0673   4.2614   4.3878
     4.5418   4.9850   5.0250   5.1055   5.3125   5.4843   5.4856   5.5210
     5.6643   6.2042   6.2414   6.4559   6.5520   6.6724   7.1079   7.1622
     7.3081   7.5578   7.7284   7.9580   8.1867   8.3196   8.4418   8.4554
     8.5667   8.6311   8.7228   9.4119  10.6401  12.0246  13.4242  14.5684

          k = 0.1667 0.4170 0.0000 (  4459 PWs)   bands (ev):

   -38.5867 -38.5767 -38.5564 -38.5366 -38.4765 -38.4439 -38.3834 -38.3105
   -38.3075 -38.2791 -38.2257 -38.2173 -38.1988 -38.1584 -38.1016 -38.0759
   -38.0743 -37.8626 -37.8625 -37.7492 -37.7490   3.1118   3.1780   3.3071
     3.4566   3.5164   3.5788   3.8068   3.8933   4.1119   4.2931   4.5521
     4.6663   4.9142   5.0975   5.1896   5.4284   5.5289   5.8878   5.9629
     6.1247   6.2033   6.4434   6.5678   6.8414   7.1367   7.2800   7.4163
     7.6337   7.7710   8.0128   8.4943   8.7827   8.8736   8.9447   9.1176
    10.1823  10.3279  10.5446  11.1667  12.2841  13.6729  15.1185  16.4100

          k = 0.1667 0.5453 0.0000 (  4490 PWs)   bands (ev):

   -38.6431 -38.6324 -38.5954 -38.5713 -38.5291 -38.4077 -38.3898 -38.3584
   -38.3437 -38.2965 -38.2600 -38.2397 -38.2241 -38.1690 -38.1288 -38.1205
   -38.1186 -37.8964 -37.8962 -37.7453 -37.7452   2.8065   3.0937   3.0988
     3.2327   3.3701   3.4592   3.6055   3.8496   4.0392   4.0874   4.4308
     4.5375   4.7910   5.1645   5.4754   5.6494   5.7254   5.9328   6.1976
     6.3231   6.5445   6.8220   7.1950   7.2461   7.3453   7.7271   8.0196
     8.1650   8.2927   8.4108   8.5897   8.7161   8.8045   8.9991   9.1263
    12.0416  12.4630  12.8835  13.2834  13.7878  14.2656  14.5144  16.4921

          k = 0.1667-0.4811 0.0000 (  4476 PWs)   bands (ev):

   -38.6228 -38.6122 -38.5817 -38.5582 -38.5112 -38.4230 -38.3883 -38.3403
   -38.3312 -38.2887 -38.2451 -38.2382 -38.2131 -38.1670 -38.1178 -38.1057
   -38.1033 -37.8847 -37.8844 -37.7466 -37.7465   2.9148   3.1253   3.1671
     3.3338   3.4112   3.5010   3.6756   3.8848   4.0458   4.1777   4.4476
     4.6395   4.9027   5.0398   5.4527   5.5257   5.7537   5.9525   6.0487
     6.1673   6.5275   6.6749   6.9310   7.0678   7.1976   7.6188   7.8149
     7.8343   7.9859   8.1408   8.5493   8.8378   8.8904   9.0474   9.2152
    11.1490  11.4113  11.7277  12.3004  13.2390  14.4155  15.5566  16.7423

          k = 0.1667-0.3528 0.0000 (  4458 PWs)   bands (ev):

   -38.5520 -38.5425 -38.5230 -38.5085 -38.4540 -38.4270 -38.3669 -38.2815
   -38.2728 -38.2667 -38.2011 -38.1867 -38.1807 -38.1402 -38.0856 -38.0332
   -38.0327 -37.8332 -37.8330 -37.7529 -37.7527   3.2015   3.2997   3.3896
     3.5261   3.6452   3.7429   3.8561   4.0007   4.2385   4.3043   4.4645
     4.6716   4.8506   4.9637   5.2244   5.3384   5.3855   5.5962   5.7882
     5.8678   6.1200   6.1697   6.4489   6.7253   6.8877   7.0570   7.3317
     7.4823   7.6958   7.8722   8.3465   8.5382   8.6523   8.6769   8.8917
     9.2895   9.3550   9.4836  10.1452  11.3749  12.8051  14.2561  15.4886

          k = 0.1667-0.2245 0.0000 (  4433 PWs)   bands (ev):

   -38.5720 -38.5516 -38.4506 -38.4075 -38.3639 -38.3030 -38.2865 -38.2449
   -38.2048 -38.2029 -38.1631 -38.1377 -38.1169 -38.0829 -38.0585 -37.9247
   -37.9245 -37.7705 -37.7704 -37.7606 -37.7602   2.4210   2.7176   3.2075
     3.5689   3.6875   3.8407   3.9750   4.1456   4.2784   4.3216   4.4888
     4.6664   4.7906   5.0976   5.2819   5.4359   5.5140   5.6225   5.7447
     5.8331   6.0647   6.2295   6.5171   6.5729   6.6049   6.8332   6.9151
     7.1720   7.1908   7.2747   7.5885   7.6916   7.8844   8.0357   8.0492
     8.1552   8.4721   8.6890   8.9608  10.0517  11.3406  12.6570  13.6827

          k = 0.1667-0.0962 0.0000 (  4427 PWs)   bands (ev):

   -38.6156 -38.5759 -38.4208 -38.3190 -38.2636 -38.2233 -38.1904 -38.1751
   -38.1701 -38.1683 -38.1086 -38.1025 -38.0808 -38.0628 -38.0276 -37.8270
   -37.8269 -37.7678 -37.7673 -37.7315 -37.7313   1.6105   2.0254   2.6863
     3.0952   3.1815   3.4727   3.5446   4.4040   4.6658   4.7813   4.8299
     4.9846   5.0016   5.5045   5.5515   5.6881   5.7820   5.8084   5.9050
     5.9820   6.0169   6.0924   6.1135   6.1383   6.3343   6.4446   6.6050
     6.7105   6.9168   6.9648   7.1503   7.2860   7.5132   7.5987   7.8699
     8.1781   8.2875   8.7035   8.9117   9.1368  10.2795  11.4314  12.2117

          k = 0.2778 0.4811 0.0000 (  4485 PWs)   bands (ev):

   -38.5861 -38.5830 -38.5504 -38.5378 -38.4803 -38.4644 -38.4319 -38.3867
   -38.3632 -38.3343 -38.2952 -38.2834 -38.2035 -38.2003 -38.1291 -38.0843
   -38.0841 -37.9554 -37.9553 -37.7441 -37.7438   3.3314   3.3518   3.5066
     3.5775   3.8210   3.9610   4.1121   4.1674   4.2400   4.3230   4.3993
     4.4864   4.8168   4.9618   5.1322   5.3362   5.5997   5.6942   6.0226
     6.0334   6.2476   6.2478   6.7443   6.8589   7.0097   7.2542   7.4140
     7.4821   7.8178   8.1665   8.5356   8.8007   8.8392   8.9052   9.1090
    12.4975  12.7243  13.1862  13.8698  14.8001  15.8997  16.8269  16.9373

          k = 0.2778 0.6094 0.0000 (  4491 PWs)   bands (ev):

   -38.5784 -38.5705 -38.5365 -38.5312 -38.4963 -38.4728 -38.4434 -38.4136
   -38.3835 -38.3610 -38.3046 -38.2995 -38.2067 -38.1961 -38.1407 -38.0763
   -38.0761 -37.9875 -37.9873 -37.7428 -37.7424   3.3046   3.5318   3.5777
     3.7212   3.8395   3.9823   4.0417   4.0911   4.1731   4.3491   4.3993
     4.5642   4.7119   5.0895   5.1927   5.4146   5.5459   5.6845   5.9390
     5.9945   6.2898   6.3117   6.7147   6.9199   7.0994   7.2495   7.4534
     7.5188   8.1132   8.3252   8.4730   8.6271   8.6967   8.7436   8.8865
    13.7094  14.0032  14.4634  14.9071  15.2936  15.7609  16.2911  16.5139

          k = 0.2778-0.4170 0.0000 (  4462 PWs)   bands (ev):

   -38.5926 -38.5850 -38.5589 -38.5379 -38.4885 -38.4459 -38.4007 -38.3496
   -38.3432 -38.3027 -38.2651 -38.2509 -38.2041 -38.1890 -38.1138 -38.0856
   -38.0851 -37.9100 -37.9099 -37.7460 -37.7458   3.1917   3.3247   3.4021
     3.5438   3.6707   3.7686   3.9304   4.1345   4.2429   4.2984   4.5280
     4.6932   4.7523   4.8557   5.1934   5.2688   5.5883   5.7793   6.0152
     6.0891   6.2417   6.3188   6.5407   6.8365   7.0495   7.2729   7.4406
     7.5632   7.6679   8.0236   8.5397   8.8984   8.9264   9.0252   9.2140
    11.3240  11.4707  11.8265  12.4802  13.4932  14.7570  16.0820  17.2452

          k = 0.2778-0.2887 0.0000 (  4463 PWs)   bands (ev):

   -38.5703 -38.5600 -38.5451 -38.5292 -38.4525 -38.4398 -38.3720 -38.2789
   -38.2687 -38.2601 -38.1997 -38.1871 -38.1757 -38.1190 -38.0913 -38.0550
   -38.0534 -37.8208 -37.8206 -37.7525 -37.7523   2.9583   3.0722   3.2048
     3.2432   3.3661   3.4839   3.6248   3.8547   4.0522   4.1904   4.5420
     4.7835   5.1396   5.1731   5.4050   5.5325   5.6289   5.7987   5.9815
     6.1436   6.3470   6.5660   6.6925   6.8235   7.1264   7.3323   7.4785
     7.5784   7.8272   8.1276   8.3709   8.4627   8.6544   8.6735   8.9245
     9.1402   9.3218   9.3999  10.0540  11.3242  12.8088  14.3055  15.5811

          k = 0.2778-0.1604 0.0000 (  4458 PWs)   bands (ev):

   -38.5632 -38.5428 -38.4934 -38.4712 -38.4114 -38.3620 -38.3288 -38.2565
   -38.2173 -38.2147 -38.1834 -38.1465 -38.1189 -38.0867 -38.0624 -37.9863
   -37.9858 -37.7722 -37.7720 -37.7587 -37.7583   2.5746   2.8239   3.0372
     3.1359   3.4005   3.5164   3.7731   3.8513   4.1081   4.2687   4.6839
     4.9295   5.1456   5.3259   5.5519   5.6834   5.7861   5.8404   6.0241
     6.1543   6.4190   6.5195   6.5513   6.7194   6.8547   7.0753   7.2704
     7.3376   7.4178   7.4812   7.6552   7.8329   7.8708   7.9599   8.1045
     8.3278   8.7431   8.9145   8.9776  10.2607  11.7295  13.1593  14.2852

          k = 0.3889 0.6736 0.0000 (  4511 PWs)   bands (ev):

   -38.6148 -38.6038 -38.5659 -38.5495 -38.5068 -38.4296 -38.4254 -38.3792
   -38.3770 -38.3326 -38.2911 -38.2747 -38.2175 -38.1854 -38.1345 -38.1022
   -38.1019 -37.9459 -37.9455 -37.7438 -37.7436   3.0314   3.3153   3.4106
     3.6032   3.6269   3.7778   3.7943   4.0658   4.1625   4.2417   4.4840
     4.5244   4.6937   4.9336   5.3070   5.4876   5.7215   5.9145   5.9287
     6.2657   6.3356   6.7224   6.7269   6.8116   7.1596   7.4897   7.7175
     7.8501   8.2680   8.3873   8.4570   8.6309   8.7109   8.9213   8.9267
    13.2392  13.5400  13.8458  14.1481  14.5076  14.9202  15.2491  16.6318

          k = 0.3889-0.3528 0.0000 (  4485 PWs)   bands (ev):

   -38.6563 -38.6453 -38.6108 -38.5841 -38.5401 -38.4074 -38.3887 -38.3156
   -38.3072 -38.2708 -38.2376 -38.2136 -38.2102 -38.1447 -38.1349 -38.1240
   -38.1125 -37.8534 -37.8533 -37.7476 -37.7473   2.6442   2.8344   2.9045
     2.9828   3.1315   3.2436   3.3506   3.6652   3.7901   3.8812   4.4117
     4.7243   5.0287   5.3580   5.4857   5.6958   5.8340   5.9044   6.4151
     6.5777   6.6508   7.1879   7.2914   7.6451   7.7787   7.9114   8.2616
     8.3854   8.3916   8.4764   8.6240   8.8106   8.9027   9.0412   9.2237
    10.7751  11.2596  11.6570  12.0073  12.7546  13.7402  14.5548  16.4235

          k = 0.3889-0.2245 0.0000 (  4444 PWs)   bands (ev):

   -38.6317 -38.6217 -38.5945 -38.5724 -38.5115 -38.4250 -38.3860 -38.2773
   -38.2580 -38.2544 -38.2236 -38.1843 -38.1522 -38.1283 -38.1098 -38.0974
   -38.0934 -37.8075 -37.8074 -37.7511 -37.7507   2.5927   2.6493   2.7876
     2.9110   2.9771   3.1635   3.2124   3.5426   3.6428   3.8511   4.5118
     4.9461   5.3189   5.3973   5.5406   5.8230   5.8592   5.9504   6.4429
     6.6558   6.8236   7.1282   7.5365   7.7959   8.0728   8.1985   8.2767
     8.4364   8.4944   8.5539   8.5759   8.6991   8.7459   8.8606   8.9723
     9.0942   9.1920   9.4428   9.9774  11.3957  12.9839  14.5440  16.0799

          k =-0.5000-0.8660 0.0000 (  4492 PWs)   bands (ev):

   -38.6888 -38.6781 -38.6425 -38.6101 -38.5709 -38.3995 -38.3991 -38.2750
   -38.2704 -38.2580 -38.2574 -38.1991 -38.1672 -38.1655 -38.1531 -38.1191
   -38.1058 -37.8217 -37.8215 -37.7487 -37.7486   2.3668   2.5561   2.6112
     2.7193   2.8588   3.0191   3.0226   3.3934   3.4487   3.6939   4.4009
     4.8880   5.1454   5.2848   5.4336   5.7315   6.1796   6.2273   6.3861
     7.0753   7.1290   7.2220   7.8957   8.1600   8.3645   8.5126   8.7922
     8.9016   8.9115   9.0044   9.0081   9.0709   9.1994   9.3751   9.3825
     9.7386  10.8358  11.7458  11.9477  12.3494  12.4872  12.6246  16.0945

 ------ SPIN DOWN ----------


          k = 0.0556 0.0962 0.0000 (  4451 PWs)   bands (ev):

   -38.6461 -38.5966 -38.4157 -38.2680 -38.1808 -38.1702 -38.1489 -38.1480
   -38.1115 -38.1092 -38.0797 -38.0687 -38.0549 -38.0409 -38.0131 -37.7769
   -37.7759 -37.7445 -37.7444 -37.7128 -37.7126   1.0384   1.4947   2.2104
     2.7114   2.7360   3.0336   3.0822   4.9020   4.9298   5.1202   5.1742
     5.2662   5.3583   5.5611   5.5741   5.6069   5.6461   5.6552   5.6902
     5.7816   5.8458   5.8989   5.9614   6.0920   6.1989   6.2040   6.7518
     7.0526   7.0975   7.2783   7.3288   7.5198   7.5559   7.6741   7.7631
     8.0654   8.1055   8.5988   8.6233   8.8173   9.3734  10.3055  10.8508

          k = 0.0556 0.2245 0.0000 (  4420 PWs)   bands (ev):

   -38.5963 -38.5644 -38.4300 -38.3570 -38.3082 -38.2550 -38.2337 -38.2114
   -38.1818 -38.1804 -38.1399 -38.1143 -38.0946 -38.0673 -38.0412 -37.8707
   -37.8706 -37.7650 -37.7646 -37.7459 -37.7454   1.9521   2.3269   2.9280
     3.2830   3.4056   3.6832   3.7824   4.2204   4.4881   4.5951   4.6427
     4.8314   4.8729   5.3543   5.4685   5.6169   5.7170   5.7998   5.8471
     5.9215   6.0352   6.1835   6.2949   6.4237   6.5173   6.6422   6.7253
     6.7704   6.9225   7.0613   7.1633   7.3323   7.6269   7.7178   7.9683
     8.0961   8.5176   8.6664   8.8231   9.5477  10.7462  11.9746  12.8684

          k = 0.0556 0.3528 0.0000 (  4467 PWs)   bands (ev):

   -38.5618 -38.5423 -38.5252 -38.5078 -38.4376 -38.4038 -38.3545 -38.2673
   -38.2365 -38.2324 -38.1924 -38.1629 -38.1395 -38.0950 -38.0770 -38.0240
   -38.0231 -37.7896 -37.7895 -37.7560 -37.7558   2.7433   2.9871   3.0398
     3.1255   3.3597   3.4150   3.6480   3.8127   4.0809   4.1446   4.6346
     4.9480   5.1262   5.3532   5.5481   5.6580   5.6887   5.7797   6.0333
     6.1606   6.4469   6.5993   6.7406   6.8175   7.0408   7.3042   7.4689
     7.5258   7.7248   7.8400   7.9878   8.1008   8.2848   8.3565   8.4860
     8.4970   8.6726   8.9146   9.3141  10.6634  12.1711  13.6534  14.8603

          k = 0.0556 0.4811 0.0000 (  4463 PWs)   bands (ev):

   -38.6521 -38.6413 -38.6097 -38.5842 -38.5335 -38.4158 -38.3889 -38.2842
   -38.2754 -38.2646 -38.2294 -38.1965 -38.1739 -38.1354 -38.1275 -38.1112
   -38.1024 -37.8225 -37.8224 -37.7495 -37.7492   2.5596   2.6784   2.7811
     2.8805   2.9952   3.1638   3.1823   3.5478   3.6348   3.8126   4.4534
     4.8694   5.2116   5.3800   5.5031   5.7400   5.9267   5.9794   6.4893
     6.6664   6.8319   7.2271   7.5126   7.8544   8.0490   8.0959   8.3884
     8.4757   8.5790   8.6244   8.7224   8.7383   8.8875   8.9892   9.1480
     9.5870  10.1171  10.4475  10.7801  11.8712  13.2773  14.6275  16.3688

          k = 0.0556-0.5453 0.0000 (  4486 PWs)   bands (ev):

   -38.6805 -38.6690 -38.6336 -38.6034 -38.5625 -38.4020 -38.3948 -38.2883
   -38.2836 -38.2614 -38.2455 -38.2039 -38.1839 -38.1531 -38.1484 -38.1178
   -38.1122 -37.8302 -37.8299 -37.7482 -37.7480   2.4423   2.6275   2.6909
     2.7821   2.9320   3.0768   3.1056   3.4706   3.5388   3.7369   4.4089
     4.8397   5.1198   5.3339   5.4392   5.7516   5.9831   6.1307   6.4950
     6.8053   7.0686   7.2805   7.7135   8.0769   8.1985   8.4553   8.4926
     8.6997   8.7862   8.8722   8.9020   8.9673   9.0420   9.1475   9.2644
    10.2143  11.0009  11.7372  11.8994  12.1999  12.9137  13.4832  16.1842

          k = 0.0556-0.4170 0.0000 (  4465 PWs)   bands (ev):

   -38.6009 -38.5922 -38.5714 -38.5524 -38.4806 -38.4346 -38.3800 -38.2778
   -38.2592 -38.2534 -38.2119 -38.1825 -38.1585 -38.1116 -38.0970 -38.0838
   -38.0784 -37.8087 -37.8086 -37.7523 -37.7519   2.7477   2.7730   2.9420
     3.0372   3.1046   3.2904   3.3615   3.6703   3.8239   3.9523   4.5451
     4.9123   5.3277   5.4632   5.5789   5.6354   5.7093   5.9529   6.2618
     6.3863   6.6061   6.9960   7.1776   7.3838   7.5750   7.6906   8.0075
     8.0890   8.1316   8.2557   8.3721   8.5146   8.6235   8.7324   8.8966
     9.0200   9.2039   9.2784   9.9155  11.2824  12.8488  14.4072  15.7793

          k = 0.0556-0.2887 0.0000 (  4439 PWs)   bands (ev):

   -38.5681 -38.5484 -38.4656 -38.4332 -38.3833 -38.3254 -38.3022 -38.2470
   -38.2093 -38.2068 -38.1701 -38.1388 -38.1173 -38.0797 -38.0585 -37.9495
   -37.9489 -37.7677 -37.7675 -37.7600 -37.7597   2.4684   2.7410   3.1202
     3.2889   3.5077   3.7030   3.9024   4.0361   4.2276   4.3795   4.6205
     4.6803   5.0002   5.1301   5.4964   5.6758   5.7579   5.8049   5.9023
     6.0269   6.1066   6.2784   6.3709   6.6845   6.7274   6.8344   6.9850
     7.1631   7.2308   7.3431   7.5837   7.6944   7.8328   7.9668   8.0783
     8.2590   8.5777   8.8599   8.9270  10.0863  11.4599  12.8247  13.8854

          k = 0.0556-0.1604 0.0000 (  4443 PWs)   bands (ev):

   -38.6249 -38.5823 -38.4181 -38.2993 -38.2363 -38.2064 -38.1761 -38.1690
   -38.1542 -38.1469 -38.1018 -38.0924 -38.0702 -38.0593 -38.0257 -37.8017
   -37.8015 -37.7687 -37.7684 -37.7268 -37.7267   1.4322   1.8649   2.5545
     3.0205   3.0517   3.3538   3.4028   4.5884   4.7066   4.8770   4.9484
     5.0544   5.0903   5.4276   5.5609   5.6683   5.7417   5.7976   5.8758
     5.8829   5.9326   5.9845   6.0256   6.2143   6.2672   6.4315   6.5034
     6.8890   6.9801   7.0510   7.1217   7.3054   7.5031   7.6421   7.8668
     8.0121   8.3709   8.5670   8.8010   9.0557  10.0395  11.1198  11.8321

          k = 0.0556-0.0321 0.0000 (  4465 PWs)   bands (ev):

   -38.6575 -38.6048 -38.4165 -38.2575 -38.1506 -38.1477 -38.1394 -38.1383
   -38.0868 -38.0812 -38.0738 -38.0565 -38.0539 -38.0177 -38.0062 -37.7789
   -37.7775 -37.7166 -37.7164 -37.7055 -37.7052   0.8296   1.2939   2.0164
     2.5269   2.5660   2.8504   2.8991   5.0725   5.1133   5.2681   5.3348
     5.3831   5.4168   5.4255   5.4935   5.5152   5.6213   5.6407   5.6544
     5.7034   5.7418   5.9193   5.9760   6.0419   6.0556   6.3026   7.1518
     7.1911   7.2551   7.3642   7.3731   7.5214   7.5592   7.8086   7.9205
     8.1483   8.2626   8.2660   8.6687   8.8339   8.8600   9.6720  10.1026

          k = 0.1667 0.2887 0.0000 (  4425 PWs)   bands (ev):

   -38.5471 -38.5426 -38.4829 -38.4617 -38.4205 -38.3660 -38.3320 -38.2664
   -38.2359 -38.2351 -38.1757 -38.1691 -38.1451 -38.1124 -38.0711 -37.9808
   -37.9807 -37.8005 -37.8004 -37.7565 -37.7560   2.9385   3.0800   3.3614
     3.6923   3.8760   3.8968   3.9979   4.0590   4.0673   4.2614   4.3878
     4.5418   4.9850   5.0250   5.1055   5.3125   5.4843   5.4856   5.5210
     5.6643   6.2042   6.2414   6.4559   6.5520   6.6724   7.1079   7.1622
     7.3081   7.5578   7.7284   7.9580   8.1867   8.3196   8.4418   8.4554
     8.5667   8.6311   8.7228   9.4119  10.6401  12.0246  13.4242  14.5684

          k = 0.1667 0.4170 0.0000 (  4459 PWs)   bands (ev):

   -38.5867 -38.5767 -38.5564 -38.5366 -38.4765 -38.4439 -38.3834 -38.3105
   -38.3075 -38.2791 -38.2257 -38.2173 -38.1988 -38.1584 -38.1016 -38.0759
   -38.0743 -37.8626 -37.8625 -37.7492 -37.7490   3.1118   3.1780   3.3071
     3.4566   3.5164   3.5788   3.8068   3.8933   4.1119   4.2931   4.5521
     4.6663   4.9142   5.0975   5.1896   5.4284   5.5289   5.8878   5.9629
     6.1247   6.2033   6.4434   6.5678   6.8414   7.1367   7.2800   7.4163
     7.6337   7.7710   8.0128   8.4943   8.7827   8.8736   8.9447   9.1176
    10.1823  10.3279  10.5446  11.1667  12.2841  13.6729  15.1185  16.4100

          k = 0.1667 0.5453 0.0000 (  4490 PWs)   bands (ev):

   -38.6431 -38.6324 -38.5954 -38.5713 -38.5291 -38.4077 -38.3898 -38.3584
   -38.3437 -38.2965 -38.2600 -38.2397 -38.2241 -38.1690 -38.1288 -38.1205
   -38.1186 -37.8964 -37.8962 -37.7453 -37.7452   2.8065   3.0937   3.0988
     3.2327   3.3701   3.4592   3.6055   3.8496   4.0392   4.0874   4.4308
     4.5375   4.7910   5.1645   5.4754   5.6494   5.7254   5.9328   6.1976
     6.3231   6.5445   6.8220   7.1950   7.2461   7.3453   7.7271   8.0196
     8.1650   8.2927   8.4108   8.5897   8.7161   8.8045   8.9991   9.1263
    12.0416  12.4630  12.8835  13.2834  13.7878  14.2656  14.5144  16.4933

          k = 0.1667-0.4811 0.0000 (  4476 PWs)   bands (ev):

   -38.6228 -38.6122 -38.5817 -38.5582 -38.5112 -38.4230 -38.3883 -38.3403
   -38.3312 -38.2887 -38.2451 -38.2382 -38.2131 -38.1670 -38.1178 -38.1057
   -38.1033 -37.8847 -37.8844 -37.7466 -37.7465   2.9148   3.1253   3.1671
     3.3338   3.4112   3.5010   3.6756   3.8848   4.0458   4.1777   4.4476
     4.6395   4.9027   5.0398   5.4527   5.5257   5.7537   5.9525   6.0487
     6.1673   6.5275   6.6749   6.9310   7.0678   7.1976   7.6188   7.8149
     7.8343   7.9859   8.1408   8.5493   8.8378   8.8904   9.0474   9.2152
    11.1490  11.4113  11.7277  12.3004  13.2390  14.4155  15.5566  16.7423

          k = 0.1667-0.3528 0.0000 (  4458 PWs)   bands (ev):

   -38.5520 -38.5425 -38.5230 -38.5085 -38.4540 -38.4270 -38.3669 -38.2815
   -38.2728 -38.2667 -38.2011 -38.1867 -38.1807 -38.1402 -38.0856 -38.0332
   -38.0327 -37.8332 -37.8330 -37.7529 -37.7527   3.2015   3.2997   3.3896
     3.5261   3.6452   3.7429   3.8561   4.0007   4.2385   4.3043   4.4645
     4.6716   4.8506   4.9637   5.2244   5.3384   5.3855   5.5962   5.7882
     5.8678   6.1200   6.1697   6.4489   6.7253   6.8877   7.0570   7.3317
     7.4823   7.6958   7.8722   8.3465   8.5382   8.6523   8.6769   8.8917
     9.2895   9.3550   9.4836  10.1452  11.3749  12.8051  14.2561  15.4886

          k = 0.1667-0.2245 0.0000 (  4433 PWs)   bands (ev):

   -38.5720 -38.5516 -38.4506 -38.4075 -38.3639 -38.3030 -38.2865 -38.2449
   -38.2048 -38.2029 -38.1631 -38.1377 -38.1169 -38.0829 -38.0585 -37.9247
   -37.9245 -37.7705 -37.7704 -37.7606 -37.7602   2.4210   2.7176   3.2075
     3.5689   3.6875   3.8407   3.9750   4.1456   4.2784   4.3216   4.4888
     4.6664   4.7906   5.0976   5.2819   5.4359   5.5140   5.6225   5.7447
     5.8331   6.0647   6.2295   6.5171   6.5729   6.6049   6.8332   6.9151
     7.1720   7.1908   7.2747   7.5885   7.6916   7.8844   8.0357   8.0492
     8.1552   8.4721   8.6890   8.9608  10.0517  11.3406  12.6570  13.6827

          k = 0.1667-0.0962 0.0000 (  4427 PWs)   bands (ev):

   -38.6156 -38.5759 -38.4208 -38.3190 -38.2636 -38.2233 -38.1904 -38.1751
   -38.1701 -38.1683 -38.1086 -38.1025 -38.0808 -38.0628 -38.0276 -37.8270
   -37.8269 -37.7678 -37.7673 -37.7315 -37.7313   1.6105   2.0254   2.6863
     3.0952   3.1815   3.4727   3.5446   4.4040   4.6658   4.7813   4.8299
     4.9846   5.0016   5.5045   5.5515   5.6881   5.7820   5.8084   5.9050
     5.9820   6.0169   6.0924   6.1135   6.1383   6.3343   6.4446   6.6050
     6.7105   6.9168   6.9648   7.1503   7.2860   7.5132   7.5987   7.8699
     8.1781   8.2875   8.7035   8.9117   9.1368  10.2795  11.4314  12.2117

          k = 0.2778 0.4811 0.0000 (  4485 PWs)   bands (ev):

   -38.5861 -38.5830 -38.5504 -38.5378 -38.4803 -38.4644 -38.4319 -38.3867
   -38.3632 -38.3343 -38.2952 -38.2834 -38.2035 -38.2003 -38.1291 -38.0843
   -38.0841 -37.9554 -37.9553 -37.7441 -37.7438   3.3314   3.3518   3.5066
     3.5775   3.8210   3.9610   4.1121   4.1674   4.2400   4.3230   4.3993
     4.4864   4.8168   4.9618   5.1322   5.3362   5.5997   5.6942   6.0226
     6.0334   6.2476   6.2478   6.7443   6.8589   7.0097   7.2542   7.4140
     7.4821   7.8178   8.1665   8.5356   8.8007   8.8392   8.9052   9.1090
    12.4975  12.7243  13.1862  13.8698  14.8001  15.8997  16.8269  16.9373

          k = 0.2778 0.6094 0.0000 (  4491 PWs)   bands (ev):

   -38.5784 -38.5705 -38.5365 -38.5312 -38.4963 -38.4728 -38.4434 -38.4136
   -38.3835 -38.3610 -38.3046 -38.2995 -38.2067 -38.1961 -38.1407 -38.0763
   -38.0761 -37.9875 -37.9873 -37.7428 -37.7424   3.3046   3.5318   3.5777
     3.7212   3.8395   3.9823   4.0417   4.0911   4.1731   4.3491   4.3993
     4.5642   4.7119   5.0895   5.1927   5.4146   5.5459   5.6845   5.9390
     5.9945   6.2898   6.3117   6.7147   6.9199   7.0994   7.2495   7.4534
     7.5188   8.1132   8.3252   8.4730   8.6271   8.6967   8.7436   8.8865
    13.7094  14.0032  14.4634  14.9071  15.2936  15.7609  16.2911  16.5139

          k = 0.2778-0.4170 0.0000 (  4462 PWs)   bands (ev):

   -38.5926 -38.5850 -38.5589 -38.5379 -38.4885 -38.4459 -38.4007 -38.3496
   -38.3432 -38.3027 -38.2651 -38.2509 -38.2041 -38.1890 -38.1138 -38.0856
   -38.0851 -37.9100 -37.9099 -37.7460 -37.7458   3.1917   3.3247   3.4021
     3.5438   3.6707   3.7686   3.9304   4.1345   4.2429   4.2984   4.5280
     4.6932   4.7523   4.8557   5.1934   5.2688   5.5883   5.7793   6.0152
     6.0891   6.2417   6.3188   6.5407   6.8365   7.0495   7.2729   7.4406
     7.5632   7.6679   8.0236   8.5397   8.8984   8.9264   9.0252   9.2140
    11.3240  11.4707  11.8265  12.4802  13.4932  14.7570  16.0820  17.2452

          k = 0.2778-0.2887 0.0000 (  4463 PWs)   bands (ev):

   -38.5703 -38.5600 -38.5451 -38.5292 -38.4525 -38.4398 -38.3720 -38.2789
   -38.2687 -38.2601 -38.1997 -38.1871 -38.1757 -38.1190 -38.0913 -38.0550
   -38.0534 -37.8208 -37.8206 -37.7525 -37.7523   2.9583   3.0722   3.2048
     3.2432   3.3661   3.4839   3.6248   3.8547   4.0522   4.1904   4.5420
     4.7835   5.1396   5.1731   5.4050   5.5325   5.6289   5.7987   5.9815
     6.1436   6.3470   6.5660   6.6925   6.8235   7.1264   7.3323   7.4785
     7.5784   7.8272   8.1276   8.3709   8.4627   8.6544   8.6735   8.9245
     9.1402   9.3218   9.3999  10.0540  11.3242  12.8088  14.3055  15.5811

          k = 0.2778-0.1604 0.0000 (  4458 PWs)   bands (ev):

   -38.5632 -38.5428 -38.4934 -38.4712 -38.4114 -38.3620 -38.3288 -38.2565
   -38.2173 -38.2147 -38.1834 -38.1465 -38.1189 -38.0867 -38.0624 -37.9863
   -37.9858 -37.7722 -37.7720 -37.7587 -37.7583   2.5746   2.8239   3.0372
     3.1359   3.4005   3.5164   3.7731   3.8513   4.1081   4.2687   4.6839
     4.9295   5.1456   5.3259   5.5519   5.6834   5.7861   5.8404   6.0241
     6.1543   6.4190   6.5195   6.5513   6.7194   6.8547   7.0753   7.2704
     7.3376   7.4178   7.4812   7.6552   7.8329   7.8708   7.9599   8.1045
     8.3278   8.7432   8.9145   8.9776  10.2607  11.7295  13.1593  14.2852

          k = 0.3889 0.6736 0.0000 (  4511 PWs)   bands (ev):

   -38.6148 -38.6038 -38.5659 -38.5495 -38.5068 -38.4296 -38.4254 -38.3792
   -38.3770 -38.3326 -38.2911 -38.2747 -38.2175 -38.1854 -38.1345 -38.1022
   -38.1019 -37.9459 -37.9455 -37.7438 -37.7436   3.0314   3.3153   3.4106
     3.6032   3.6269   3.7778   3.7943   4.0658   4.1625   4.2417   4.4840
     4.5244   4.6937   4.9336   5.3070   5.4876   5.7215   5.9145   5.9287
     6.2657   6.3356   6.7224   6.7269   6.8116   7.1596   7.4897   7.7175
     7.8501   8.2680   8.3873   8.4570   8.6309   8.7109   8.9213   8.9267
    13.2392  13.5400  13.8458  14.1481  14.5076  14.9202  15.2491  16.6318

          k = 0.3889-0.3528 0.0000 (  4485 PWs)   bands (ev):

   -38.6563 -38.6453 -38.6108 -38.5841 -38.5401 -38.4074 -38.3887 -38.3156
   -38.3072 -38.2708 -38.2376 -38.2136 -38.2102 -38.1447 -38.1349 -38.1240
   -38.1125 -37.8534 -37.8533 -37.7476 -37.7473   2.6442   2.8344   2.9045
     2.9828   3.1315   3.2436   3.3506   3.6652   3.7901   3.8812   4.4117
     4.7243   5.0287   5.3580   5.4857   5.6958   5.8340   5.9044   6.4151
     6.5777   6.6508   7.1879   7.2914   7.6451   7.7787   7.9114   8.2617
     8.3854   8.3916   8.4764   8.6240   8.8106   8.9027   9.0412   9.2237
    10.7751  11.2596  11.6570  12.0073  12.7546  13.7402  14.5548  16.4235

          k = 0.3889-0.2245 0.0000 (  4444 PWs)   bands (ev):

   -38.6317 -38.6217 -38.5945 -38.5724 -38.5115 -38.4250 -38.3860 -38.2773
   -38.2580 -38.2544 -38.2236 -38.1843 -38.1522 -38.1283 -38.1098 -38.0974
   -38.0934 -37.8075 -37.8074 -37.7511 -37.7507   2.5927   2.6493   2.7876
     2.9110   2.9771   3.1635   3.2124   3.5426   3.6428   3.8511   4.5118
     4.9461   5.3189   5.3973   5.5406   5.8230   5.8592   5.9504   6.4429
     6.6558   6.8236   7.1282   7.5365   7.7959   8.0728   8.1985   8.2767
     8.4364   8.4944   8.5539   8.5759   8.6991   8.7459   8.8606   8.9723
     9.0942   9.1920   9.4428   9.9774  11.3957  12.9839  14.5440  16.0799

          k =-0.5000-0.8660 0.0000 (  4492 PWs)   bands (ev):

   -38.6888 -38.6781 -38.6425 -38.6101 -38.5709 -38.3995 -38.3991 -38.2750
   -38.2704 -38.2580 -38.2574 -38.1991 -38.1672 -38.1655 -38.1531 -38.1191
   -38.1058 -37.8217 -37.8215 -37.7487 -37.7486   2.3668   2.5561   2.6112
     2.7193   2.8588   3.0191   3.0226   3.3934   3.4487   3.6939   4.4009
     4.8880   5.1454   5.2848   5.4336   5.7315   6.1796   6.2273   6.3861
     7.0753   7.1290   7.2220   7.8957   8.1600   8.3645   8.5126   8.7922
     8.9016   8.9115   9.0044   9.0081   9.0709   9.1994   9.3751   9.3825
     9.7386  10.8358  11.7458  11.9477  12.3494  12.4872  12.6246  16.0945

     the Fermi energy is     8.3515 ev

!    total energy              =   -1198.23265579 Ry
     estimated scf accuracy    <       0.00000006 Ry
     smearing contrib. (-TS)   =      -0.03012048 Ry
     internal energy E=F+TS    =   -1198.20253530 Ry

     The total energy is F=E-TS. E is the sum of the following terms:
     one-electron contribution =  -13501.10484085 Ry
     hartree contribution      =    6796.32964341 Ry
     xc contribution           =    -209.37584755 Ry
     ewald contribution        =    5715.94850968 Ry

     total magnetization       =     0.00 Bohr mag/cell
     absolute magnetization    =     0.00 Bohr mag/cell

     convergence has been achieved in  11 iterations

     negative rho (up, down):  1.980E-01 1.980E-01

     Forces acting on atoms (cartesian axes, Ry/au):

     atom    1 type  1   force =     0.00000000    0.00000000    0.00055688
     atom    2 type  1   force =     0.00000000    0.00000000    0.00036437
     atom    3 type  1   force =     0.00000000    0.00000000    0.00189345
     atom    4 type  1   force =     0.00000000    0.00000000   -0.00002015
     atom    5 type  1   force =     0.00000000    0.00000000   -0.00190674
     atom    6 type  1   force =     0.00000000    0.00000000   -0.00034739
     atom    7 type  1   force =     0.00000000    0.00000000   -0.00054042

     Total force =     0.002842     Total SCF correction =     0.001406
     SCF correction compared to forces is large: reduce conv_thr to get better values
     Energy error            =      1.8E-05
     Gradient error          =      1.9E-03

     number of scf cycles    =   8
     number of bfgs steps    =   7

     energy   old            =   -1198.2326381417 Ry
     energy   new            =   -1198.2326557870 Ry

     CASE: energy  _new < energy  _old

     new trust radius        =       0.0096936240 bohr
     new conv_thr            =       0.0000001000 Ry


ATOMIC_POSITIONS (angstrom)
Rh            0.0000000000        0.0000000000        0.0400081151
Rh            1.3554284000       -0.7825569000        2.2137965167
Rh            1.3554284000        0.7825569000        4.4107521866
Rh            0.0000000000        0.0000000000        6.6402140585
Rh            1.3554284000       -0.7825569000        8.8696968813
Rh            1.3554284000        0.7825569000       11.0666614629
Rh            0.0000000000        0.0000000000       13.2403818789



     Writing output data file /home/STUDENTI/leonardo.razzai/Rh_work/surf_111/7-L.save/
     NEW-OLD atomic charge density approx. for the potential

     negative rho (up, down):  1.963E-01 1.963E-01
     Generating pointlists ...

     total cpu time spent up to now is      780.0 secs

     Self-consistent Calculation

     iteration #  1     ecut=    35.00 Ry     beta= 0.40
     Davidson diagonalization with overlap
     ethr =  1.00E-06,  avg # of iterations =  6.4

     negative rho (up, down):  1.963E-01 1.963E-01

     total cpu time spent up to now is      796.1 secs

     total energy              =   -1198.23009983 Ry
     estimated scf accuracy    <       0.14724726 Ry

     total magnetization       =     0.00 Bohr mag/cell
     absolute magnetization    =     0.00 Bohr mag/cell

     iteration #  2     ecut=    35.00 Ry     beta= 0.40
     Davidson diagonalization with overlap
     ethr =  1.40E-04,  avg # of iterations =  1.0

     negative rho (up, down):  1.962E-01 1.962E-01

     total cpu time spent up to now is      804.0 secs

     total energy              =   -1198.23177680 Ry
     estimated scf accuracy    <       0.08003760 Ry

     total magnetization       =     0.00 Bohr mag/cell
     absolute magnetization    =     0.00 Bohr mag/cell

     iteration #  3     ecut=    35.00 Ry     beta= 0.40
     Davidson diagonalization with overlap
     ethr =  7.62E-05,  avg # of iterations =  1.0

     negative rho (up, down):  1.962E-01 1.962E-01

     total cpu time spent up to now is      811.8 secs

     total energy              =   -1198.23267441 Ry
     estimated scf accuracy    <       0.00375342 Ry

     total magnetization       =     0.00 Bohr mag/cell
     absolute magnetization    =     0.00 Bohr mag/cell

     iteration #  4     ecut=    35.00 Ry     beta= 0.40
     Davidson diagonalization with overlap
     ethr =  3.57E-06,  avg # of iterations =  1.1

     negative rho (up, down):  1.962E-01 1.962E-01

     total cpu time spent up to now is      819.6 secs

     total energy              =   -1198.23266081 Ry
     estimated scf accuracy    <       0.00145217 Ry

     total magnetization       =     0.00 Bohr mag/cell
     absolute magnetization    =     0.00 Bohr mag/cell

     iteration #  5     ecut=    35.00 Ry     beta= 0.40
     Davidson diagonalization with overlap
     ethr =  1.38E-06,  avg # of iterations =  2.2

     negative rho (up, down):  1.962E-01 1.962E-01

     total cpu time spent up to now is      827.8 secs

     total energy              =   -1198.23267358 Ry
     estimated scf accuracy    <       0.00004921 Ry

     total magnetization       =    -0.00 Bohr mag/cell
     absolute magnetization    =     0.00 Bohr mag/cell

     iteration #  6     ecut=    35.00 Ry     beta= 0.40
     Davidson diagonalization with overlap
     ethr =  4.69E-08,  avg # of iterations =  1.0

     negative rho (up, down):  1.962E-01 1.962E-01

     total cpu time spent up to now is      835.6 secs

     total energy              =   -1198.23267301 Ry
     estimated scf accuracy    <       0.00001091 Ry

     total magnetization       =    -0.00 Bohr mag/cell
     absolute magnetization    =     0.00 Bohr mag/cell

     iteration #  7     ecut=    35.00 Ry     beta= 0.40
     Davidson diagonalization with overlap
     ethr =  1.04E-08,  avg # of iterations =  1.0

     negative rho (up, down):  1.962E-01 1.962E-01

     total cpu time spent up to now is      843.3 secs

     total energy              =   -1198.23267259 Ry
     estimated scf accuracy    <       0.00000886 Ry

     total magnetization       =    -0.00 Bohr mag/cell
     absolute magnetization    =     0.00 Bohr mag/cell

     iteration #  8     ecut=    35.00 Ry     beta= 0.40
     Davidson diagonalization with overlap
     ethr =  8.44E-09,  avg # of iterations =  1.1

     negative rho (up, down):  1.962E-01 1.962E-01

     total cpu time spent up to now is      851.1 secs

     total energy              =   -1198.23267265 Ry
     estimated scf accuracy    <       0.00000387 Ry

     total magnetization       =    -0.00 Bohr mag/cell
     absolute magnetization    =     0.00 Bohr mag/cell

     iteration #  9     ecut=    35.00 Ry     beta= 0.40
     Davidson diagonalization with overlap
     ethr =  3.68E-09,  avg # of iterations =  1.9

     negative rho (up, down):  1.962E-01 1.962E-01

     total cpu time spent up to now is      859.4 secs

     total energy              =   -1198.23267403 Ry
     estimated scf accuracy    <       0.00000951 Ry

     total magnetization       =    -0.00 Bohr mag/cell
     absolute magnetization    =     0.00 Bohr mag/cell

     iteration # 10     ecut=    35.00 Ry     beta= 0.40
     Davidson diagonalization with overlap
     ethr =  3.68E-09,  avg # of iterations =  1.0

     negative rho (up, down):  1.962E-01 1.962E-01

     total cpu time spent up to now is      867.2 secs

     total energy              =   -1198.23267456 Ry
     estimated scf accuracy    <       0.00000129 Ry

     total magnetization       =    -0.00 Bohr mag/cell
     absolute magnetization    =     0.00 Bohr mag/cell

     iteration # 11     ecut=    35.00 Ry     beta= 0.40
     Davidson diagonalization with overlap
     ethr =  1.23E-09,  avg # of iterations =  1.0

     negative rho (up, down):  1.962E-01 1.962E-01

     total cpu time spent up to now is      874.9 secs

     total energy              =   -1198.23267489 Ry
     estimated scf accuracy    <       0.00000019 Ry

     total magnetization       =    -0.00 Bohr mag/cell
     absolute magnetization    =     0.00 Bohr mag/cell

     iteration # 12     ecut=    35.00 Ry     beta= 0.40
     Davidson diagonalization with overlap
     ethr =  1.77E-10,  avg # of iterations =  1.1

     negative rho (up, down):  1.963E-01 1.963E-01

     total cpu time spent up to now is      882.7 secs

     total energy              =   -1198.23267530 Ry
     estimated scf accuracy    <       0.00000017 Ry

     total magnetization       =    -0.00 Bohr mag/cell
     absolute magnetization    =     0.00 Bohr mag/cell

     iteration # 13     ecut=    35.00 Ry     beta= 0.40
     Davidson diagonalization with overlap
     ethr =  1.63E-10,  avg # of iterations =  1.2

     negative rho (up, down):  1.963E-01 1.963E-01
 
     Magnetic moment per site:
     atom:    1    charge:   13.1067    magn:   -0.0000    constr:    0.0000
     atom:    2    charge:   13.1642    magn:   -0.0000    constr:    0.0000
     atom:    3    charge:   13.1596    magn:    0.0000    constr:    0.0000
     atom:    4    charge:   13.1522    magn:    0.0000    constr:    0.0000
     atom:    5    charge:   13.1595    magn:   -0.0000    constr:    0.0000
     atom:    6    charge:   13.1639    magn:    0.0000    constr:    0.0000
     atom:    7    charge:   13.1064    magn:    0.0000    constr:    0.0000

     total cpu time spent up to now is      890.4 secs

     End of self-consistent calculation

 ------ SPIN UP ------------


          k = 0.0556 0.0962 0.0000 (  4451 PWs)   bands (ev):

   -38.6498 -38.5996 -38.4165 -38.2692 -38.1809 -38.1704 -38.1493 -38.1483
   -38.1127 -38.1101 -38.0807 -38.0698 -38.0555 -38.0411 -38.0133 -37.7741
   -37.7731 -37.7417 -37.7416 -37.7100 -37.7099   1.0338   1.4924   2.2107
     2.7077   2.7307   3.0355   3.0836   4.8988   4.9302   5.1169   5.1691
     5.2636   5.3619   5.5618   5.5702   5.6011   5.6446   5.6567   5.6898
     5.7773   5.8470   5.8989   5.9641   6.0934   6.2014   6.2070   6.7548
     7.0502   7.0962   7.2777   7.3300   7.5210   7.5583   7.6753   7.7627
     8.0670   8.1067   8.6006   8.6257   8.8207   9.3765  10.3089  10.8567

          k = 0.0556 0.2245 0.0000 (  4420 PWs)   bands (ev):

   -38.5998 -38.5673 -38.4314 -38.3580 -38.3083 -38.2553 -38.2350 -38.2123
   -38.1822 -38.1808 -38.1401 -38.1151 -38.0957 -38.0679 -38.0413 -37.8680
   -37.8679 -37.7622 -37.7618 -37.7431 -37.7426   1.9475   2.3242   2.9275
     3.2780   3.4020   3.6835   3.7823   4.2170   4.4840   4.5944   4.6401
     4.8305   4.8700   5.3551   5.4702   5.6185   5.7185   5.8007   5.8419
     5.9214   6.0330   6.1850   6.2918   6.4221   6.5172   6.6432   6.7250
     6.7721   6.9239   7.0626   7.1646   7.3325   7.6275   7.7198   7.9701
     8.0970   8.5192   8.6691   8.8267   9.5522  10.7510  11.9796  12.8755

          k = 0.0556 0.3528 0.0000 (  4467 PWs)   bands (ev):

   -38.5648 -38.5449 -38.5271 -38.5087 -38.4383 -38.4044 -38.3549 -38.2677
   -38.2371 -38.2328 -38.1933 -38.1636 -38.1406 -38.0956 -38.0771 -38.0216
   -38.0208 -37.7868 -37.7868 -37.7531 -37.7528   2.7381   2.9836   3.0344
     3.1223   3.3546   3.4129   3.6456   3.8139   4.0821   4.1444   4.6339
     4.9475   5.1230   5.3533   5.5460   5.6530   5.6895   5.7779   6.0313
     6.1601   6.4476   6.6009   6.7418   6.8179   7.0402   7.3041   7.4697
     7.5280   7.7242   7.8407   7.9879   8.1022   8.2865   8.3573   8.4876
     8.4991   8.6748   8.9188   9.3178  10.6685  12.1775  13.6602  14.8667

          k = 0.0556 0.4811 0.0000 (  4463 PWs)   bands (ev):

   -38.6534 -38.6421 -38.6121 -38.5863 -38.5340 -38.4165 -38.3887 -38.2851
   -38.2761 -38.2654 -38.2310 -38.1971 -38.1747 -38.1345 -38.1258 -38.1110
   -38.1025 -37.8197 -37.8197 -37.7464 -37.7462   2.5535   2.6730   2.7772
     2.8747   2.9919   3.1595   3.1821   3.5497   3.6362   3.8133   4.4538
     4.8687   5.2103   5.3825   5.4981   5.7366   5.9253   5.9757   6.4902
     6.6659   6.8306   7.2275   7.5139   7.8546   8.0507   8.0966   8.3893
     8.4762   8.5802   8.6254   8.7228   8.7408   8.8889   8.9916   9.1510
     9.5873  10.1193  10.4498  10.7827  11.8743  13.2826  14.6340  16.3721

          k = 0.0556-0.5453 0.0000 (  4486 PWs)   bands (ev):

   -38.6818 -38.6698 -38.6359 -38.6056 -38.5630 -38.4020 -38.3945 -38.2894
   -38.2844 -38.2628 -38.2470 -38.2045 -38.1845 -38.1521 -38.1467 -38.1181
   -38.1123 -37.8275 -37.8271 -37.7451 -37.7449   2.4360   2.6222   2.6872
     2.7760   2.9290   3.0723   3.1054   3.4721   3.5406   3.7378   4.4093
     4.8388   5.1188   5.3369   5.4335   5.7475   5.9817   6.1277   6.4960
     6.8052   7.0676   7.2809   7.7139   8.0780   8.2009   8.4573   8.4926
     8.7015   8.7865   8.8734   8.9025   8.9693   9.0441   9.1493   9.2669
    10.2143  11.0031  11.7402  11.9021  12.2017  12.9166  13.4868  16.1850

          k = 0.0556-0.4170 0.0000 (  4465 PWs)   bands (ev):

   -38.6025 -38.5934 -38.5740 -38.5543 -38.4812 -38.4357 -38.3801 -38.2783
   -38.2598 -38.2539 -38.2132 -38.1831 -38.1596 -38.1119 -38.0966 -38.0817
   -38.0770 -37.8059 -37.8058 -37.7493 -37.7489   2.7425   2.7670   2.9381
     3.0330   3.0996   3.2889   3.3589   3.6723   3.8252   3.9527   4.5452
     4.9121   5.3270   5.4636   5.5740   5.6321   5.7079   5.9503   6.2593
     6.3859   6.6068   6.9971   7.1783   7.3856   7.5755   7.6900   8.0087
     8.0895   8.1334   8.2563   8.3720   8.5158   8.6251   8.7347   8.8981
     9.0235   9.2058   9.2802   9.9188  11.2868  12.8553  14.4147  15.7848

          k = 0.0556-0.2887 0.0000 (  4439 PWs)   bands (ev):

   -38.5714 -38.5514 -38.4673 -38.4340 -38.3835 -38.3258 -38.3031 -38.2476
   -38.2097 -38.2071 -38.1706 -38.1396 -38.1185 -38.0803 -38.0586 -37.9469
   -37.9463 -37.7649 -37.7648 -37.7572 -37.7568   2.4636   2.7379   3.1178
     3.2845   3.5050   3.6990   3.9019   4.0348   4.2271   4.3781   4.6187
     4.6779   4.9973   5.1305   5.4976   5.6783   5.7590   5.7985   5.9017
     6.0260   6.1071   6.2791   6.3705   6.6855   6.7245   6.8354   6.9850
     7.1648   7.2304   7.3426   7.5857   7.6958   7.8337   7.9686   8.0803
     8.2598   8.5797   8.8638   8.9304  10.0913  11.4656  12.8306  13.8924

          k = 0.0556-0.1604 0.0000 (  4443 PWs)   bands (ev):

   -38.6285 -38.5852 -38.4192 -38.3004 -38.2363 -38.2066 -38.1771 -38.1698
   -38.1549 -38.1475 -38.1023 -38.0932 -38.0710 -38.0598 -38.0258 -37.7989
   -37.7988 -37.7660 -37.7657 -37.7240 -37.7240   1.4276   1.8625   2.5547
     3.0158   3.0472   3.3554   3.4038   4.5859   4.7035   4.8737   4.9437
     5.0539   5.0904   5.4288   5.5624   5.6701   5.7357   5.7980   5.8749
     5.8804   5.9317   5.9826   6.0272   6.2141   6.2688   6.4338   6.5059
     6.8887   6.9792   7.0533   7.1232   7.3049   7.5035   7.6436   7.8672
     8.0137   8.3724   8.5689   8.8045   9.0592  10.0433  11.1238  11.8388

          k = 0.0556-0.0321 0.0000 (  4465 PWs)   bands (ev):

   -38.6612 -38.6077 -38.4172 -38.2586 -38.1508 -38.1480 -38.1398 -38.1385
   -38.0878 -38.0822 -38.0748 -38.0577 -38.0547 -38.0178 -38.0063 -37.7761
   -37.7748 -37.7139 -37.7137 -37.7027 -37.7024   0.8250   1.2916   2.0168
     2.5233   2.5608   2.8523   2.9007   5.0714   5.1151   5.2647   5.3300
     5.3808   5.4204   5.4219   5.4882   5.5125   5.6209   5.6395   5.6503
     5.7035   5.7412   5.9217   5.9788   6.0447   6.0583   6.3055   7.1517
     7.1887   7.2573   7.3633   7.3727   7.5216   7.5599   7.8097   7.9223
     8.1506   8.2632   8.2681   8.6706   8.8364   8.8636   9.6748  10.1079

          k = 0.1667 0.2887 0.0000 (  4425 PWs)   bands (ev):

   -38.5503 -38.5456 -38.4847 -38.4624 -38.4211 -38.3669 -38.3327 -38.2668
   -38.2360 -38.2351 -38.1763 -38.1703 -38.1463 -38.1126 -38.0715 -37.9783
   -37.9782 -37.7977 -37.7977 -37.7536 -37.7532   2.9334   3.0759   3.3580
     3.6901   3.8720   3.8912   3.9933   4.0538   4.0657   4.2620   4.3878
     4.5395   4.9865   5.0259   5.1066   5.3131   5.4866   5.4871   5.5174
     5.6589   6.2071   6.2426   6.4591   6.5532   6.6730   7.1064   7.1590
     7.3104   7.5566   7.7295   7.9582   8.1879   8.3214   8.4429   8.4573
     8.5683   8.6334   8.7258   9.4154  10.6451  12.0309  13.4306  14.5749

          k = 0.1667 0.4170 0.0000 (  4459 PWs)   bands (ev):

   -38.5882 -38.5777 -38.5589 -38.5386 -38.4771 -38.4455 -38.3840 -38.3106
   -38.3074 -38.2797 -38.2271 -38.2183 -38.1999 -38.1586 -38.1020 -38.0736
   -38.0723 -37.8598 -37.8598 -37.7462 -37.7460   3.1055   3.1721   3.3022
     3.4527   3.5118   3.5751   3.8062   3.8921   4.1120   4.2928   4.5525
     4.6654   4.9118   5.0922   5.1867   5.4266   5.5265   5.8888   5.9646
     6.1270   6.2051   6.4454   6.5690   6.8437   7.1373   7.2824   7.4169
     7.6343   7.7713   8.0144   8.4969   8.7839   8.8765   8.9461   9.1202
    10.1824  10.3287  10.5467  11.1697  12.2882  13.6791  15.1256  16.4153

          k = 0.1667 0.5453 0.0000 (  4490 PWs)   bands (ev):

   -38.6444 -38.6332 -38.5975 -38.5735 -38.5297 -38.4085 -38.3901 -38.3592
   -38.3438 -38.2975 -38.2606 -38.2409 -38.2255 -38.1691 -38.1288 -38.1186
   -38.1173 -37.8937 -37.8935 -37.7422 -37.7421   2.7998   3.0882   3.0941
     3.2270   3.3669   3.4550   3.6054   3.8491   4.0398   4.0888   4.4307
     4.5340   4.7846   5.1626   5.4758   5.6465   5.7263   5.9356   6.1970
     6.3202   6.5470   6.8229   7.1968   7.2470   7.3474   7.7271   8.0212
     8.1670   8.2939   8.4124   8.5919   8.7188   8.8073   9.0017   9.1292
    12.0416  12.4640  12.8852  13.2857  13.7897  14.2684  14.5177  16.4940

          k = 0.1667-0.4811 0.0000 (  4476 PWs)   bands (ev):

   -38.6241 -38.6130 -38.5840 -38.5604 -38.5118 -38.4242 -38.3887 -38.3407
   -38.3312 -38.2895 -38.2460 -38.2394 -38.2143 -38.1672 -38.1179 -38.1037
   -38.1017 -37.8820 -37.8817 -37.7435 -37.7434   2.9082   3.1195   3.1624
     3.3285   3.4077   3.4971   3.6752   3.8844   4.0460   4.1787   4.4478
     4.6369   4.8967   5.0376   5.4498   5.5253   5.7550   5.9521   6.0496
     6.1669   6.5284   6.6771   6.9334   7.0695   7.1979   7.6191   7.8165
     7.8363   7.9867   8.1430   8.5521   8.8395   8.8932   9.0494   9.2178
    11.1490  11.4122  11.7297  12.3030  13.2423  14.4204  15.5618  16.7450

          k = 0.1667-0.3528 0.0000 (  4458 PWs)   bands (ev):

   -38.5545 -38.5447 -38.5250 -38.5096 -38.4552 -38.4277 -38.3676 -38.2818
   -38.2728 -38.2669 -38.2024 -38.1876 -38.1818 -38.1404 -38.0860 -38.0308
   -38.0303 -37.8304 -37.8303 -37.7499 -37.7498   3.1959   3.2934   3.3853
     3.5227   3.6415   3.7382   3.8547   3.9987   4.2374   4.3025   4.4633
     4.6705   4.8512   4.9630   5.2234   5.3350   5.3819   5.5966   5.7901
     5.8690   6.1226   6.1713   6.4506   6.7284   6.8891   7.0575   7.3303
     7.4832   7.6959   7.8730   8.3483   8.5396   8.6528   8.6796   8.8945
     9.2900   9.3558   9.4857  10.1484  11.3796  12.8117  14.2631  15.4945

          k = 0.1667-0.2245 0.0000 (  4433 PWs)   bands (ev):

   -38.5754 -38.5545 -38.4523 -38.4083 -38.3641 -38.3035 -38.2875 -38.2455
   -38.2050 -38.2031 -38.1636 -38.1387 -38.1180 -38.0833 -38.0588 -37.9221
   -37.9219 -37.7677 -37.7676 -37.7578 -37.7574   2.4163   2.7145   3.2059
     3.5644   3.6840   3.8373   3.9726   4.1428   4.2752   4.3209   4.4878
     4.6638   4.7905   5.0985   5.2833   5.4369   5.5152   5.6243   5.7424
     5.8272   6.0675   6.2304   6.5173   6.5755   6.6046   6.8308   6.9131
     7.1736   7.1890   7.2753   7.5903   7.6932   7.8848   8.0375   8.0508
     8.1570   8.4740   8.6928   8.9637  10.0566  11.3462  12.6626  13.6897

          k = 0.1667-0.0962 0.0000 (  4427 PWs)   bands (ev):

   -38.6192 -38.5789 -38.4221 -38.3201 -38.2636 -38.2236 -38.1916 -38.1762
   -38.1706 -38.1687 -38.1086 -38.1033 -38.0819 -38.0633 -38.0277 -37.8243
   -37.8242 -37.7651 -37.7646 -37.7288 -37.7285   1.6059   2.0229   2.6862
     3.0903   3.1776   3.4740   3.5453   4.4007   4.6615   4.7799   4.8271
     4.9838   4.9996   5.5060   5.5534   5.6899   5.7746   5.8100   5.9075
     5.9781   6.0123   6.0947   6.1111   6.1407   6.3338   6.4459   6.6070
     6.7111   6.9193   6.9641   7.1514   7.2865   7.5125   7.6010   7.8714
     8.1800   8.2879   8.7054   8.9156   9.1409  10.2836  11.4358  12.2186

          k = 0.2778 0.4811 0.0000 (  4485 PWs)   bands (ev):

   -38.5872 -38.5842 -38.5524 -38.5399 -38.4812 -38.4663 -38.4327 -38.3868
   -38.3631 -38.3346 -38.2963 -38.2838 -38.2041 -38.2019 -38.1297 -38.0820
   -38.0818 -37.9528 -37.9527 -37.7411 -37.7407   3.3242   3.3458   3.5004
     3.5743   3.8183   3.9555   4.1085   4.1626   4.2390   4.3196   4.3991
     4.4835   4.8151   4.9616   5.1314   5.3353   5.5998   5.6929   6.0245
     6.0353   6.2504   6.2505   6.7475   6.8629   7.0127   7.2552   7.4150
     7.4826   7.8186   8.1685   8.5381   8.8034   8.8417   8.9073   9.1120
    12.4972  12.7253  13.1883  13.8725  14.8033  15.9036  16.8283  16.9391

          k = 0.2778 0.6094 0.0000 (  4491 PWs)   bands (ev):

   -38.5797 -38.5715 -38.5385 -38.5334 -38.4979 -38.4739 -38.4438 -38.4140
   -38.3842 -38.3612 -38.3049 -38.2996 -38.2082 -38.1973 -38.1413 -38.0739
   -38.0737 -37.9850 -37.9848 -37.7397 -37.7393   3.2976   3.5265   3.5709
     3.7171   3.8336   3.9777   4.0359   4.0893   4.1730   4.3444   4.3979
     4.5630   4.7106   5.0899   5.1921   5.4139   5.5447   5.6844   5.9412
     5.9961   6.2925   6.3142   6.7182   6.9240   7.1021   7.2508   7.4541
     7.5202   8.1142   8.3271   8.4749   8.6301   8.6989   8.7464   8.8895
    13.7093  14.0043  14.4653  14.9083  15.2946  15.7631  16.2945  16.5148

          k = 0.2778-0.4170 0.0000 (  4462 PWs)   bands (ev):

   -38.5939 -38.5860 -38.5611 -38.5401 -38.4891 -38.4478 -38.4016 -38.3493
   -38.3429 -38.3032 -38.2667 -38.2518 -38.2050 -38.1897 -38.1144 -38.0834
   -38.0829 -37.9073 -37.9072 -37.7430 -37.7428   3.1851   3.3185   3.3971
     3.5389   3.6682   3.7637   3.9287   4.1324   4.2416   4.2975   4.5251
     4.6911   4.7509   4.8534   5.1918   5.2671   5.5863   5.7798   6.0171
     6.0909   6.2448   6.3210   6.5434   6.8397   7.0517   7.2732   7.4427
     7.5637   7.6680   8.0255   8.5424   8.9012   8.9286   9.0269   9.2166
    11.3238  11.4715  11.8285  12.4830  13.4970  14.7626  16.0884  17.2500

          k = 0.2778-0.2887 0.0000 (  4463 PWs)   bands (ev):

   -38.5724 -38.5614 -38.5475 -38.5308 -38.4532 -38.4409 -38.3724 -38.2793
   -38.2691 -38.2604 -38.2008 -38.1878 -38.1768 -38.1193 -38.0916 -38.0527
   -38.0512 -37.8181 -37.8178 -37.7495 -37.7493   2.9528   3.0664   3.1996
     3.2402   3.3613   3.4809   3.6235   3.8555   4.0521   4.1914   4.5416
     4.7829   5.1351   5.1723   5.4000   5.5302   5.6267   5.8008   5.9820
     6.1437   6.3480   6.5677   6.6930   6.8251   7.1263   7.3346   7.4796
     7.5788   7.8272   8.1285   8.3714   8.4650   8.6566   8.6743   8.9279
     9.1408   9.3228   9.4020  10.0573  11.3289  12.8154  14.3127  15.5869

          k = 0.2778-0.1604 0.0000 (  4458 PWs)   bands (ev):

   -38.5664 -38.5458 -38.4951 -38.4720 -38.4118 -38.3624 -38.3295 -38.2569
   -38.2180 -38.2151 -38.1841 -38.1472 -38.1199 -38.0873 -38.0625 -37.9837
   -37.9833 -37.7694 -37.7693 -37.7558 -37.7554   2.5697   2.8207   3.0331
     3.1324   3.3981   3.5117   3.7716   3.8515   4.1090   4.2682   4.6826
     4.9262   5.1460   5.3244   5.5526   5.6858   5.7778   5.8409   6.0184
     6.1550   6.4209   6.5186   6.5534   6.7201   6.8528   7.0739   7.2729
     7.3373   7.4202   7.4804   7.6568   7.8347   7.8719   7.9614   8.1064
     8.3285   8.7454   8.9179   8.9820  10.2658  11.7356  13.1656  14.2920

          k = 0.3889 0.6736 0.0000 (  4511 PWs)   bands (ev):

   -38.6161 -38.6046 -38.5680 -38.5518 -38.5076 -38.4305 -38.4263 -38.3793
   -38.3777 -38.3329 -38.2914 -38.2757 -38.2191 -38.1862 -38.1351 -38.1000
   -38.0997 -37.9433 -37.9429 -37.7407 -37.7405   3.0244   3.3106   3.4046
     3.5975   3.6222   3.7739   3.7930   4.0636   4.1618   4.2417   4.4821
     4.5183   4.6943   4.9322   5.3064   5.4855   5.7232   5.9114   5.9305
     6.2667   6.3386   6.7251   6.7301   6.8137   7.1605   7.4902   7.7191
     7.8523   8.2687   8.3889   8.4594   8.6341   8.7135   8.9241   8.9296
    13.2395  13.5405  13.8466  14.1498  14.5091  14.9229  15.2537  16.6352

          k = 0.3889-0.3528 0.0000 (  4485 PWs)   bands (ev):

   -38.6576 -38.6461 -38.6131 -38.5862 -38.5407 -38.4080 -38.3886 -38.3166
   -38.3077 -38.2720 -38.2387 -38.2146 -38.2112 -38.1441 -38.1338 -38.1227
   -38.1126 -37.8507 -37.8506 -37.7445 -37.7443   2.6377   2.8289   2.9001
     2.9771   3.1285   3.2391   3.3505   3.6659   3.7914   3.8827   4.4117
     4.7219   5.0239   5.3564   5.4870   5.6949   5.8303   5.9044   6.4144
     6.5795   6.6484   7.1888   7.2916   7.6474   7.7804   7.9112   8.2629
     8.3867   8.3931   8.4782   8.6269   8.8115   8.9056   9.0432   9.2262
    10.7751  11.2611  11.6591  12.0097  12.7572  13.7441  14.5588  16.4262

          k = 0.3889-0.2245 0.0000 (  4444 PWs)   bands (ev):

   -38.6331 -38.6226 -38.5971 -38.5744 -38.5121 -38.4260 -38.3859 -38.2781
   -38.2587 -38.2550 -38.2251 -38.1848 -38.1532 -38.1277 -38.1078 -38.0967
   -38.0935 -37.8048 -37.8046 -37.7480 -37.7476   2.5869   2.6439   2.7839
     2.9056   2.9731   3.1630   3.2086   3.5447   3.6443   3.8516   4.5122
     4.9465   5.3203   5.4002   5.5323   5.8176   5.8580   5.9474   6.4432
     6.6543   6.8234   7.1284   7.5386   7.7950   8.0744   8.2004   8.2768
     8.4353   8.4930   8.5546   8.5767   8.7000   8.7467   8.8632   8.9747
     9.0983   9.1953   9.4454   9.9806  11.3996  12.9901  14.5516  16.0846

          k =-0.5000-0.8660 0.0000 (  4492 PWs)   bands (ev):

   -38.6900 -38.6788 -38.6448 -38.6122 -38.5714 -38.3993 -38.3987 -38.2758
   -38.2710 -38.2596 -38.2595 -38.1997 -38.1664 -38.1658 -38.1514 -38.1194
   -38.1059 -37.8189 -37.8188 -37.7456 -37.7455   2.3606   2.5508   2.6076
     2.7131   2.8558   3.0182   3.0189   3.3951   3.4507   3.6948   4.4014
     4.8880   5.1470   5.2880   5.4252   5.7262   6.1781   6.2244   6.3868
     7.0754   7.1297   7.2218   7.8952   8.1617   8.3682   8.5144   8.7946
     8.8999   8.9104   9.0045   9.0105   9.0708   9.2012   9.3777   9.3851
     9.7386  10.8384  11.7478  11.9519  12.3506  12.4915  12.6266  16.0968

 ------ SPIN DOWN ----------


          k = 0.0556 0.0962 0.0000 (  4451 PWs)   bands (ev):

   -38.6498 -38.5996 -38.4165 -38.2692 -38.1809 -38.1704 -38.1493 -38.1483
   -38.1127 -38.1101 -38.0807 -38.0698 -38.0555 -38.0411 -38.0133 -37.7741
   -37.7731 -37.7417 -37.7416 -37.7100 -37.7099   1.0338   1.4924   2.2107
     2.7077   2.7307   3.0355   3.0836   4.8988   4.9302   5.1169   5.1691
     5.2636   5.3619   5.5618   5.5702   5.6011   5.6446   5.6567   5.6898
     5.7773   5.8470   5.8989   5.9641   6.0934   6.2014   6.2070   6.7548
     7.0502   7.0962   7.2777   7.3300   7.5210   7.5583   7.6753   7.7627
     8.0670   8.1067   8.6006   8.6257   8.8207   9.3765  10.3089  10.8567

          k = 0.0556 0.2245 0.0000 (  4420 PWs)   bands (ev):

   -38.5998 -38.5673 -38.4314 -38.3580 -38.3083 -38.2553 -38.2350 -38.2123
   -38.1822 -38.1808 -38.1401 -38.1151 -38.0957 -38.0679 -38.0413 -37.8680
   -37.8679 -37.7622 -37.7618 -37.7431 -37.7426   1.9475   2.3242   2.9275
     3.2780   3.4020   3.6835   3.7823   4.2170   4.4840   4.5944   4.6401
     4.8305   4.8700   5.3551   5.4702   5.6185   5.7185   5.8007   5.8419
     5.9214   6.0330   6.1850   6.2918   6.4221   6.5172   6.6432   6.7250
     6.7721   6.9239   7.0626   7.1646   7.3325   7.6275   7.7198   7.9701
     8.0970   8.5192   8.6691   8.8267   9.5522  10.7510  11.9796  12.8755

          k = 0.0556 0.3528 0.0000 (  4467 PWs)   bands (ev):

   -38.5648 -38.5449 -38.5271 -38.5087 -38.4383 -38.4044 -38.3549 -38.2677
   -38.2371 -38.2328 -38.1933 -38.1636 -38.1406 -38.0956 -38.0771 -38.0216
   -38.0208 -37.7868 -37.7868 -37.7531 -37.7528   2.7381   2.9836   3.0344
     3.1223   3.3546   3.4129   3.6456   3.8139   4.0821   4.1444   4.6339
     4.9475   5.1230   5.3533   5.5460   5.6530   5.6895   5.7779   6.0313
     6.1601   6.4476   6.6009   6.7418   6.8179   7.0402   7.3041   7.4697
     7.5280   7.7242   7.8407   7.9879   8.1022   8.2865   8.3573   8.4876
     8.4991   8.6748   8.9188   9.3178  10.6685  12.1775  13.6602  14.8667

          k = 0.0556 0.4811 0.0000 (  4463 PWs)   bands (ev):

   -38.6534 -38.6421 -38.6121 -38.5863 -38.5340 -38.4165 -38.3887 -38.2851
   -38.2761 -38.2654 -38.2310 -38.1971 -38.1747 -38.1345 -38.1258 -38.1110
   -38.1025 -37.8197 -37.8197 -37.7464 -37.7462   2.5535   2.6730   2.7772
     2.8747   2.9919   3.1595   3.1821   3.5497   3.6362   3.8133   4.4538
     4.8687   5.2103   5.3825   5.4981   5.7366   5.9253   5.9757   6.4902
     6.6659   6.8306   7.2275   7.5139   7.8546   8.0507   8.0966   8.3893
     8.4762   8.5802   8.6254   8.7228   8.7408   8.8889   8.9916   9.1510
     9.5873  10.1193  10.4498  10.7827  11.8743  13.2826  14.6340  16.3721

          k = 0.0556-0.5453 0.0000 (  4486 PWs)   bands (ev):

   -38.6818 -38.6698 -38.6359 -38.6056 -38.5630 -38.4020 -38.3945 -38.2894
   -38.2844 -38.2628 -38.2470 -38.2045 -38.1845 -38.1521 -38.1467 -38.1181
   -38.1123 -37.8275 -37.8271 -37.7451 -37.7449   2.4360   2.6222   2.6872
     2.7760   2.9290   3.0723   3.1054   3.4721   3.5406   3.7378   4.4093
     4.8388   5.1188   5.3369   5.4335   5.7475   5.9817   6.1277   6.4960
     6.8052   7.0676   7.2809   7.7139   8.0780   8.2009   8.4573   8.4926
     8.7015   8.7865   8.8734   8.9025   8.9693   9.0441   9.1493   9.2669
    10.2143  11.0031  11.7402  11.9021  12.2017  12.9166  13.4868  16.1863

          k = 0.0556-0.4170 0.0000 (  4465 PWs)   bands (ev):

   -38.6025 -38.5934 -38.5740 -38.5543 -38.4812 -38.4357 -38.3801 -38.2783
   -38.2598 -38.2539 -38.2132 -38.1831 -38.1596 -38.1119 -38.0966 -38.0817
   -38.0770 -37.8059 -37.8058 -37.7493 -37.7489   2.7425   2.7670   2.9381
     3.0330   3.0996   3.2889   3.3589   3.6723   3.8252   3.9527   4.5452
     4.9121   5.3270   5.4636   5.5740   5.6321   5.7079   5.9503   6.2593
     6.3859   6.6068   6.9971   7.1783   7.3856   7.5755   7.6900   8.0087
     8.0895   8.1334   8.2563   8.3720   8.5158   8.6251   8.7347   8.8981
     9.0235   9.2058   9.2802   9.9188  11.2868  12.8553  14.4147  15.7848

          k = 0.0556-0.2887 0.0000 (  4439 PWs)   bands (ev):

   -38.5714 -38.5514 -38.4673 -38.4340 -38.3835 -38.3258 -38.3031 -38.2476
   -38.2097 -38.2071 -38.1706 -38.1396 -38.1185 -38.0803 -38.0586 -37.9469
   -37.9463 -37.7649 -37.7648 -37.7572 -37.7568   2.4636   2.7379   3.1178
     3.2845   3.5050   3.6990   3.9019   4.0348   4.2271   4.3781   4.6187
     4.6779   4.9973   5.1305   5.4976   5.6783   5.7590   5.7985   5.9017
     6.0260   6.1071   6.2791   6.3705   6.6855   6.7245   6.8354   6.9850
     7.1648   7.2304   7.3426   7.5857   7.6958   7.8337   7.9686   8.0803
     8.2598   8.5797   8.8638   8.9304  10.0913  11.4656  12.8306  13.8924

          k = 0.0556-0.1604 0.0000 (  4443 PWs)   bands (ev):

   -38.6285 -38.5852 -38.4192 -38.3004 -38.2363 -38.2066 -38.1771 -38.1698
   -38.1549 -38.1475 -38.1023 -38.0932 -38.0710 -38.0598 -38.0258 -37.7989
   -37.7988 -37.7660 -37.7657 -37.7240 -37.7240   1.4276   1.8625   2.5547
     3.0158   3.0472   3.3554   3.4038   4.5859   4.7035   4.8737   4.9437
     5.0539   5.0904   5.4288   5.5624   5.6701   5.7357   5.7980   5.8749
     5.8804   5.9317   5.9826   6.0272   6.2141   6.2688   6.4338   6.5059
     6.8887   6.9792   7.0533   7.1232   7.3049   7.5035   7.6436   7.8672
     8.0137   8.3724   8.5689   8.8045   9.0592  10.0433  11.1238  11.8388

          k = 0.0556-0.0321 0.0000 (  4465 PWs)   bands (ev):

   -38.6612 -38.6077 -38.4172 -38.2586 -38.1508 -38.1480 -38.1398 -38.1385
   -38.0878 -38.0822 -38.0748 -38.0577 -38.0547 -38.0178 -38.0063 -37.7761
   -37.7748 -37.7139 -37.7137 -37.7027 -37.7024   0.8250   1.2916   2.0168
     2.5233   2.5608   2.8523   2.9007   5.0714   5.1151   5.2647   5.3300
     5.3808   5.4204   5.4219   5.4882   5.5125   5.6209   5.6395   5.6503
     5.7035   5.7412   5.9217   5.9788   6.0447   6.0583   6.3055   7.1517
     7.1887   7.2573   7.3633   7.3727   7.5216   7.5599   7.8097   7.9223
     8.1506   8.2632   8.2681   8.6706   8.8364   8.8636   9.6748  10.1079

          k = 0.1667 0.2887 0.0000 (  4425 PWs)   bands (ev):

   -38.5503 -38.5456 -38.4847 -38.4624 -38.4211 -38.3669 -38.3327 -38.2668
   -38.2360 -38.2351 -38.1763 -38.1703 -38.1463 -38.1126 -38.0715 -37.9783
   -37.9782 -37.7977 -37.7977 -37.7536 -37.7532   2.9334   3.0759   3.3580
     3.6901   3.8720   3.8912   3.9933   4.0538   4.0657   4.2620   4.3878
     4.5395   4.9865   5.0259   5.1066   5.3131   5.4866   5.4871   5.5174
     5.6589   6.2071   6.2426   6.4591   6.5532   6.6730   7.1064   7.1590
     7.3104   7.5566   7.7295   7.9582   8.1879   8.3214   8.4429   8.4573
     8.5683   8.6334   8.7258   9.4154  10.6451  12.0309  13.4306  14.5749

          k = 0.1667 0.4170 0.0000 (  4459 PWs)   bands (ev):

   -38.5882 -38.5777 -38.5589 -38.5386 -38.4771 -38.4455 -38.3840 -38.3106
   -38.3074 -38.2797 -38.2271 -38.2183 -38.1999 -38.1586 -38.1020 -38.0736
   -38.0723 -37.8598 -37.8598 -37.7462 -37.7460   3.1055   3.1721   3.3022
     3.4527   3.5118   3.5751   3.8062   3.8921   4.1120   4.2928   4.5525
     4.6654   4.9118   5.0922   5.1867   5.4266   5.5265   5.8888   5.9646
     6.1270   6.2051   6.4454   6.5690   6.8437   7.1373   7.2824   7.4169
     7.6343   7.7713   8.0144   8.4969   8.7839   8.8765   8.9461   9.1202
    10.1824  10.3287  10.5467  11.1697  12.2882  13.6791  15.1256  16.4153

          k = 0.1667 0.5453 0.0000 (  4490 PWs)   bands (ev):

   -38.6444 -38.6332 -38.5975 -38.5735 -38.5297 -38.4085 -38.3901 -38.3592
   -38.3438 -38.2975 -38.2606 -38.2409 -38.2255 -38.1691 -38.1288 -38.1186
   -38.1173 -37.8937 -37.8935 -37.7422 -37.7421   2.7998   3.0882   3.0941
     3.2270   3.3669   3.4550   3.6054   3.8491   4.0398   4.0888   4.4307
     4.5340   4.7846   5.1626   5.4758   5.6465   5.7263   5.9356   6.1970
     6.3202   6.5470   6.8229   7.1968   7.2470   7.3474   7.7271   8.0212
     8.1670   8.2939   8.4124   8.5919   8.7188   8.8073   9.0017   9.1292
    12.0416  12.4640  12.8852  13.2857  13.7897  14.2684  14.5177  16.4952

          k = 0.1667-0.4811 0.0000 (  4476 PWs)   bands (ev):

   -38.6241 -38.6130 -38.5840 -38.5604 -38.5118 -38.4242 -38.3887 -38.3407
   -38.3312 -38.2895 -38.2460 -38.2394 -38.2143 -38.1672 -38.1179 -38.1037
   -38.1017 -37.8820 -37.8817 -37.7435 -37.7434   2.9082   3.1195   3.1624
     3.3285   3.4077   3.4971   3.6752   3.8844   4.0460   4.1787   4.4478
     4.6369   4.8967   5.0376   5.4498   5.5253   5.7550   5.9521   6.0496
     6.1669   6.5284   6.6771   6.9334   7.0695   7.1979   7.6191   7.8165
     7.8363   7.9867   8.1430   8.5521   8.8395   8.8932   9.0494   9.2178
    11.1490  11.4122  11.7297  12.3030  13.2423  14.4204  15.5618  16.7450

          k = 0.1667-0.3528 0.0000 (  4458 PWs)   bands (ev):

   -38.5545 -38.5447 -38.5250 -38.5096 -38.4552 -38.4277 -38.3676 -38.2818
   -38.2728 -38.2669 -38.2024 -38.1876 -38.1818 -38.1404 -38.0860 -38.0308
   -38.0303 -37.8304 -37.8303 -37.7499 -37.7498   3.1959   3.2934   3.3853
     3.5227   3.6415   3.7382   3.8547   3.9987   4.2374   4.3025   4.4633
     4.6705   4.8512   4.9630   5.2234   5.3350   5.3819   5.5966   5.7901
     5.8690   6.1226   6.1713   6.4506   6.7284   6.8891   7.0575   7.3303
     7.4832   7.6959   7.8730   8.3483   8.5396   8.6528   8.6796   8.8945
     9.2900   9.3558   9.4857  10.1484  11.3796  12.8117  14.2631  15.4945

          k = 0.1667-0.2245 0.0000 (  4433 PWs)   bands (ev):

   -38.5754 -38.5545 -38.4523 -38.4083 -38.3641 -38.3035 -38.2875 -38.2455
   -38.2050 -38.2031 -38.1636 -38.1387 -38.1180 -38.0833 -38.0588 -37.9221
   -37.9219 -37.7677 -37.7676 -37.7578 -37.7574   2.4163   2.7145   3.2059
     3.5644   3.6840   3.8373   3.9726   4.1428   4.2752   4.3209   4.4878
     4.6638   4.7905   5.0985   5.2833   5.4369   5.5152   5.6243   5.7424
     5.8272   6.0675   6.2304   6.5173   6.5755   6.6046   6.8308   6.9131
     7.1736   7.1890   7.2753   7.5903   7.6932   7.8848   8.0375   8.0508
     8.1570   8.4740   8.6928   8.9637  10.0566  11.3462  12.6626  13.6897

          k = 0.1667-0.0962 0.0000 (  4427 PWs)   bands (ev):

   -38.6192 -38.5789 -38.4221 -38.3201 -38.2636 -38.2236 -38.1916 -38.1762
   -38.1706 -38.1687 -38.1086 -38.1033 -38.0819 -38.0633 -38.0277 -37.8243
   -37.8242 -37.7651 -37.7646 -37.7288 -37.7285   1.6059   2.0229   2.6862
     3.0903   3.1776   3.4740   3.5453   4.4007   4.6615   4.7799   4.8271
     4.9838   4.9996   5.5060   5.5534   5.6899   5.7746   5.8100   5.9075
     5.9781   6.0123   6.0947   6.1111   6.1407   6.3338   6.4459   6.6070
     6.7111   6.9193   6.9641   7.1514   7.2865   7.5125   7.6010   7.8714
     8.1800   8.2879   8.7054   8.9156   9.1409  10.2836  11.4358  12.2186

          k = 0.2778 0.4811 0.0000 (  4485 PWs)   bands (ev):

   -38.5872 -38.5842 -38.5524 -38.5399 -38.4812 -38.4663 -38.4327 -38.3868
   -38.3631 -38.3346 -38.2963 -38.2838 -38.2041 -38.2019 -38.1297 -38.0820
   -38.0818 -37.9528 -37.9527 -37.7411 -37.7407   3.3242   3.3458   3.5004
     3.5743   3.8183   3.9555   4.1085   4.1626   4.2390   4.3196   4.3991
     4.4835   4.8151   4.9616   5.1314   5.3353   5.5998   5.6929   6.0245
     6.0353   6.2504   6.2505   6.7475   6.8629   7.0127   7.2552   7.4150
     7.4826   7.8186   8.1685   8.5381   8.8034   8.8417   8.9073   9.1120
    12.4972  12.7253  13.1883  13.8725  14.8033  15.9036  16.8283  16.9391

          k = 0.2778 0.6094 0.0000 (  4491 PWs)   bands (ev):

   -38.5797 -38.5715 -38.5385 -38.5334 -38.4979 -38.4739 -38.4438 -38.4140
   -38.3842 -38.3612 -38.3049 -38.2996 -38.2082 -38.1973 -38.1413 -38.0739
   -38.0737 -37.9850 -37.9848 -37.7397 -37.7393   3.2976   3.5265   3.5709
     3.7171   3.8336   3.9777   4.0359   4.0893   4.1730   4.3444   4.3979
     4.5630   4.7106   5.0899   5.1921   5.4139   5.5447   5.6844   5.9412
     5.9961   6.2925   6.3142   6.7182   6.9240   7.1021   7.2508   7.4541
     7.5202   8.1142   8.3271   8.4749   8.6301   8.6989   8.7464   8.8895
    13.7093  14.0043  14.4653  14.9083  15.2946  15.7631  16.2945  16.5148

          k = 0.2778-0.4170 0.0000 (  4462 PWs)   bands (ev):

   -38.5939 -38.5860 -38.5611 -38.5401 -38.4891 -38.4478 -38.4016 -38.3493
   -38.3429 -38.3032 -38.2667 -38.2518 -38.2050 -38.1897 -38.1144 -38.0834
   -38.0829 -37.9073 -37.9072 -37.7430 -37.7428   3.1851   3.3185   3.3971
     3.5389   3.6682   3.7637   3.9287   4.1324   4.2416   4.2975   4.5251
     4.6911   4.7509   4.8534   5.1918   5.2671   5.5863   5.7798   6.0171
     6.0909   6.2448   6.3210   6.5434   6.8397   7.0517   7.2732   7.4427
     7.5637   7.6680   8.0255   8.5424   8.9012   8.9286   9.0269   9.2166
    11.3238  11.4715  11.8285  12.4830  13.4970  14.7626  16.0884  17.2500

          k = 0.2778-0.2887 0.0000 (  4463 PWs)   bands (ev):

   -38.5724 -38.5614 -38.5475 -38.5308 -38.4532 -38.4409 -38.3724 -38.2793
   -38.2691 -38.2604 -38.2008 -38.1878 -38.1768 -38.1193 -38.0916 -38.0527
   -38.0512 -37.8181 -37.8178 -37.7495 -37.7493   2.9528   3.0664   3.1996
     3.2402   3.3613   3.4809   3.6235   3.8555   4.0521   4.1914   4.5416
     4.7829   5.1351   5.1723   5.4000   5.5302   5.6267   5.8008   5.9820
     6.1437   6.3480   6.5677   6.6930   6.8251   7.1263   7.3346   7.4796
     7.5788   7.8272   8.1285   8.3714   8.4650   8.6566   8.6743   8.9279
     9.1408   9.3228   9.4020  10.0573  11.3289  12.8154  14.3127  15.5869

          k = 0.2778-0.1604 0.0000 (  4458 PWs)   bands (ev):

   -38.5664 -38.5458 -38.4951 -38.4720 -38.4118 -38.3624 -38.3295 -38.2569
   -38.2180 -38.2151 -38.1841 -38.1472 -38.1199 -38.0873 -38.0625 -37.9837
   -37.9833 -37.7694 -37.7693 -37.7558 -37.7554   2.5697   2.8207   3.0331
     3.1324   3.3981   3.5117   3.7716   3.8515   4.1090   4.2682   4.6826
     4.9262   5.1460   5.3244   5.5526   5.6858   5.7778   5.8409   6.0184
     6.1550   6.4209   6.5186   6.5534   6.7201   6.8528   7.0739   7.2729
     7.3373   7.4202   7.4804   7.6568   7.8347   7.8719   7.9614   8.1064
     8.3285   8.7454   8.9179   8.9820  10.2658  11.7356  13.1656  14.2920

          k = 0.3889 0.6736 0.0000 (  4511 PWs)   bands (ev):

   -38.6161 -38.6046 -38.5680 -38.5518 -38.5076 -38.4305 -38.4263 -38.3793
   -38.3777 -38.3329 -38.2914 -38.2757 -38.2191 -38.1862 -38.1351 -38.1000
   -38.0997 -37.9433 -37.9429 -37.7407 -37.7405   3.0244   3.3106   3.4046
     3.5975   3.6222   3.7739   3.7930   4.0636   4.1618   4.2417   4.4821
     4.5183   4.6943   4.9322   5.3064   5.4855   5.7232   5.9114   5.9305
     6.2667   6.3386   6.7251   6.7301   6.8137   7.1605   7.4902   7.7191
     7.8523   8.2687   8.3889   8.4594   8.6341   8.7135   8.9241   8.9296
    13.2395  13.5405  13.8466  14.1498  14.5091  14.9229  15.2537  16.6352

          k = 0.3889-0.3528 0.0000 (  4485 PWs)   bands (ev):

   -38.6576 -38.6461 -38.6131 -38.5862 -38.5407 -38.4080 -38.3886 -38.3166
   -38.3077 -38.2720 -38.2387 -38.2146 -38.2112 -38.1441 -38.1338 -38.1227
   -38.1126 -37.8507 -37.8506 -37.7445 -37.7443   2.6377   2.8289   2.9001
     2.9771   3.1285   3.2391   3.3505   3.6659   3.7914   3.8827   4.4117
     4.7219   5.0239   5.3564   5.4870   5.6949   5.8303   5.9044   6.4144
     6.5795   6.6484   7.1888   7.2916   7.6474   7.7804   7.9112   8.2629
     8.3867   8.3931   8.4782   8.6269   8.8115   8.9056   9.0432   9.2262
    10.7751  11.2611  11.6591  12.0097  12.7572  13.7441  14.5588  16.4263

          k = 0.3889-0.2245 0.0000 (  4444 PWs)   bands (ev):

   -38.6331 -38.6226 -38.5971 -38.5744 -38.5121 -38.4260 -38.3859 -38.2781
   -38.2587 -38.2550 -38.2251 -38.1848 -38.1532 -38.1277 -38.1078 -38.0967
   -38.0935 -37.8048 -37.8046 -37.7480 -37.7476   2.5869   2.6439   2.7839
     2.9056   2.9731   3.1630   3.2086   3.5447   3.6443   3.8516   4.5122
     4.9465   5.3203   5.4002   5.5323   5.8176   5.8580   5.9474   6.4432
     6.6543   6.8234   7.1284   7.5386   7.7950   8.0744   8.2004   8.2768
     8.4353   8.4930   8.5546   8.5767   8.7000   8.7467   8.8632   8.9747
     9.0983   9.1953   9.4454   9.9806  11.3996  12.9901  14.5516  16.0846

          k =-0.5000-0.8660 0.0000 (  4492 PWs)   bands (ev):

   -38.6900 -38.6788 -38.6448 -38.6122 -38.5714 -38.3993 -38.3987 -38.2758
   -38.2710 -38.2596 -38.2595 -38.1997 -38.1664 -38.1658 -38.1514 -38.1194
   -38.1059 -37.8189 -37.8188 -37.7456 -37.7455   2.3606   2.5508   2.6076
     2.7131   2.8558   3.0182   3.0189   3.3951   3.4507   3.6948   4.4014
     4.8880   5.1470   5.2880   5.4252   5.7262   6.1781   6.2244   6.3868
     7.0754   7.1297   7.2218   7.8952   8.1617   8.3682   8.5144   8.7946
     8.8999   8.9104   9.0045   9.0105   9.0708   9.2012   9.3777   9.3851
     9.7386  10.8384  11.7478  11.9519  12.3506  12.4915  12.6266  16.0968

     the Fermi energy is     8.3530 ev

!    total energy              =   -1198.23267539 Ry
     estimated scf accuracy    <          7.7E-09 Ry
     smearing contrib. (-TS)   =      -0.03008745 Ry
     internal energy E=F+TS    =   -1198.20258794 Ry

     The total energy is F=E-TS. E is the sum of the following terms:
     one-electron contribution =  -13523.77088181 Ry
     hartree contribution      =    6807.65730830 Ry
     xc contribution           =    -209.38018560 Ry
     ewald contribution        =    5727.29117116 Ry

     total magnetization       =     0.00 Bohr mag/cell
     absolute magnetization    =     0.00 Bohr mag/cell

     convergence has been achieved in  13 iterations

     negative rho (up, down):  1.963E-01 1.963E-01

     Forces acting on atoms (cartesian axes, Ry/au):

     atom    1 type  1   force =     0.00000000    0.00000000    0.00067163
     atom    2 type  1   force =     0.00000000    0.00000000   -0.00071720
     atom    3 type  1   force =     0.00000000    0.00000000    0.00217573
     atom    4 type  1   force =     0.00000000    0.00000000    0.00000596
     atom    5 type  1   force =     0.00000000    0.00000000   -0.00217797
     atom    6 type  1   force =     0.00000000    0.00000000    0.00069802
     atom    7 type  1   force =     0.00000000    0.00000000   -0.00065617

     Total force =     0.003371     Total SCF correction =     0.000465
     SCF correction compared to forces is large: reduce conv_thr to get better values
     Energy error            =      2.0E-05
     Gradient error          =      2.2E-03

     number of scf cycles    =   9
     number of bfgs steps    =   8

     energy   old            =   -1198.2326557870 Ry
     energy   new            =   -1198.2326753904 Ry

     CASE: energy  _new < energy  _old

     new trust radius        =       0.0079128284 bohr
     new conv_thr            =       0.0000001000 Ry


ATOMIC_POSITIONS (angstrom)
Rh            0.0000000000        0.0000000000        0.0441369467
Rh            1.3554284000       -0.7825569000        2.2179838052
Rh            1.3554284000        0.7825569000        4.4135778800
Rh            0.0000000000        0.0000000000        6.6402062677
Rh            1.3554284000       -0.7825569000        8.8668678226
Rh            1.3554284000        0.7825569000       11.0624817523
Rh            0.0000000000        0.0000000000       13.2362566255



     Writing output data file /home/STUDENTI/leonardo.razzai/Rh_work/surf_111/7-L.save/
     NEW-OLD atomic charge density approx. for the potential

     negative rho (up, down):  1.948E-01 1.948E-01
     Generating pointlists ...

     total cpu time spent up to now is      892.5 secs

     Self-consistent Calculation

     iteration #  1     ecut=    35.00 Ry     beta= 0.40
     Davidson diagonalization with overlap
     ethr =  1.00E-06,  avg # of iterations =  6.2

     negative rho (up, down):  1.948E-01 1.948E-01

     total cpu time spent up to now is      908.4 secs

     total energy              =   -1198.23015773 Ry
     estimated scf accuracy    <       0.14540656 Ry

     total magnetization       =     0.00 Bohr mag/cell
     absolute magnetization    =     0.00 Bohr mag/cell

     iteration #  2     ecut=    35.00 Ry     beta= 0.40
     Davidson diagonalization with overlap
     ethr =  1.38E-04,  avg # of iterations =  1.0

     negative rho (up, down):  1.948E-01 1.948E-01

     total cpu time spent up to now is      916.2 secs

     total energy              =   -1198.23180513 Ry
     estimated scf accuracy    <       0.07924306 Ry

     total magnetization       =     0.00 Bohr mag/cell
     absolute magnetization    =     0.00 Bohr mag/cell

     iteration #  3     ecut=    35.00 Ry     beta= 0.40
     Davidson diagonalization with overlap
     ethr =  7.55E-05,  avg # of iterations =  1.0

     negative rho (up, down):  1.948E-01 1.948E-01

     total cpu time spent up to now is      924.0 secs

     total energy              =   -1198.23267932 Ry
     estimated scf accuracy    <       0.00360201 Ry

     total magnetization       =     0.00 Bohr mag/cell
     absolute magnetization    =     0.00 Bohr mag/cell

     iteration #  4     ecut=    35.00 Ry     beta= 0.40
     Davidson diagonalization with overlap
     ethr =  3.43E-06,  avg # of iterations =  1.1

     negative rho (up, down):  1.948E-01 1.948E-01

     total cpu time spent up to now is      931.8 secs

     total energy              =   -1198.23268089 Ry
     estimated scf accuracy    <       0.00104267 Ry

     total magnetization       =    -0.00 Bohr mag/cell
     absolute magnetization    =     0.00 Bohr mag/cell

     iteration #  5     ecut=    35.00 Ry     beta= 0.40
     Davidson diagonalization with overlap
     ethr =  9.93E-07,  avg # of iterations =  1.8

     negative rho (up, down):  1.948E-01 1.948E-01

     total cpu time spent up to now is      939.8 secs

     total energy              =   -1198.23268927 Ry
     estimated scf accuracy    <       0.00003864 Ry

     total magnetization       =    -0.00 Bohr mag/cell
     absolute magnetization    =     0.00 Bohr mag/cell

     iteration #  6     ecut=    35.00 Ry     beta= 0.40
     Davidson diagonalization with overlap
     ethr =  3.68E-08,  avg # of iterations =  1.0

     negative rho (up, down):  1.948E-01 1.948E-01

     total cpu time spent up to now is      947.6 secs

     total energy              =   -1198.23268887 Ry
     estimated scf accuracy    <       0.00000847 Ry

     total magnetization       =    -0.00 Bohr mag/cell
     absolute magnetization    =     0.00 Bohr mag/cell

     iteration #  7     ecut=    35.00 Ry     beta= 0.40
     Davidson diagonalization with overlap
     ethr =  8.07E-09,  avg # of iterations =  1.0

     negative rho (up, down):  1.948E-01 1.948E-01

     total cpu time spent up to now is      955.3 secs

     total energy              =   -1198.23268846 Ry
     estimated scf accuracy    <       0.00000691 Ry

     total magnetization       =    -0.00 Bohr mag/cell
     absolute magnetization    =     0.00 Bohr mag/cell

     iteration #  8     ecut=    35.00 Ry     beta= 0.40
     Davidson diagonalization with overlap
     ethr =  6.58E-09,  avg # of iterations =  1.1

     negative rho (up, down):  1.948E-01 1.948E-01

     total cpu time spent up to now is      963.2 secs

     total energy              =   -1198.23268851 Ry
     estimated scf accuracy    <       0.00000348 Ry

     total magnetization       =    -0.00 Bohr mag/cell
     absolute magnetization    =     0.00 Bohr mag/cell

     iteration #  9     ecut=    35.00 Ry     beta= 0.40
     Davidson diagonalization with overlap
     ethr =  3.31E-09,  avg # of iterations =  1.9

     negative rho (up, down):  1.948E-01 1.948E-01

     total cpu time spent up to now is      971.5 secs

     total energy              =   -1198.23268974 Ry
     estimated scf accuracy    <       0.00000730 Ry

     total magnetization       =    -0.00 Bohr mag/cell
     absolute magnetization    =     0.00 Bohr mag/cell

     iteration # 10     ecut=    35.00 Ry     beta= 0.40
     Davidson diagonalization with overlap
     ethr =  3.31E-09,  avg # of iterations =  1.0

     negative rho (up, down):  1.948E-01 1.948E-01

     total cpu time spent up to now is      979.4 secs

     total energy              =   -1198.23269020 Ry
     estimated scf accuracy    <       0.00000066 Ry

     total magnetization       =    -0.00 Bohr mag/cell
     absolute magnetization    =     0.00 Bohr mag/cell

     iteration # 11     ecut=    35.00 Ry     beta= 0.40
     Davidson diagonalization with overlap
     ethr =  6.31E-10,  avg # of iterations =  1.1

     negative rho (up, down):  1.948E-01 1.948E-01

     total cpu time spent up to now is      987.2 secs

     total energy              =   -1198.23269050 Ry
     estimated scf accuracy    <       0.00000016 Ry

     total magnetization       =    -0.00 Bohr mag/cell
     absolute magnetization    =     0.00 Bohr mag/cell

     iteration # 12     ecut=    35.00 Ry     beta= 0.40
     Davidson diagonalization with overlap
     ethr =  1.55E-10,  avg # of iterations =  1.1

     negative rho (up, down):  1.948E-01 1.948E-01

     total cpu time spent up to now is      995.0 secs

     total energy              =   -1198.23269088 Ry
     estimated scf accuracy    <       0.00000014 Ry

     total magnetization       =    -0.00 Bohr mag/cell
     absolute magnetization    =     0.00 Bohr mag/cell

     iteration # 13     ecut=    35.00 Ry     beta= 0.40
     Davidson diagonalization with overlap
     ethr =  1.34E-10,  avg # of iterations =  1.2

     negative rho (up, down):  1.948E-01 1.948E-01
 
     Magnetic moment per site:
     atom:    1    charge:   13.1068    magn:   -0.0000    constr:    0.0000
     atom:    2    charge:   13.1649    magn:   -0.0000    constr:    0.0000
     atom:    3    charge:   13.1608    magn:    0.0000    constr:    0.0000
     atom:    4    charge:   13.1539    magn:    0.0000    constr:    0.0000
     atom:    5    charge:   13.1608    magn:    0.0000    constr:    0.0000
     atom:    6    charge:   13.1645    magn:   -0.0000    constr:    0.0000
     atom:    7    charge:   13.1066    magn:   -0.0000    constr:    0.0000

     total cpu time spent up to now is     1002.7 secs

     End of self-consistent calculation

 ------ SPIN UP ------------


          k = 0.0556 0.0962 0.0000 (  4451 PWs)   bands (ev):

   -38.6535 -38.6016 -38.4194 -38.2709 -38.1814 -38.1711 -38.1499 -38.1489
   -38.1147 -38.1120 -38.0827 -38.0717 -38.0573 -38.0433 -38.0156 -37.7735
   -37.7725 -37.7411 -37.7410 -37.7093 -37.7092   1.0282   1.4904   2.2088
     2.7044   2.7242   3.0356   3.0828   4.8966   4.9279   5.1128   5.1643
     5.2616   5.3626   5.5598   5.5656   5.5949   5.6431   5.6579   5.6889
     5.7741   5.8464   5.8961   5.9647   6.0929   6.2015   6.2072   6.7569
     7.0472   7.0933   7.2770   7.3303   7.5203   7.5582   7.6753   7.7618
     8.0671   8.1061   8.6010   8.6267   8.8225   9.3790  10.3107  10.8611

          k = 0.0556 0.2245 0.0000 (  4420 PWs)   bands (ev):

   -38.6032 -38.5694 -38.4344 -38.3592 -38.3090 -38.2572 -38.2367 -38.2139
   -38.1829 -38.1814 -38.1419 -38.1172 -38.0973 -38.0700 -38.0435 -37.8673
   -37.8672 -37.7615 -37.7611 -37.7425 -37.7420   1.9419   2.3218   2.9251
     3.2725   3.3983   3.6825   3.7803   4.2126   4.4804   4.5916   4.6363
     4.8290   4.8658   5.3544   5.4698   5.6187   5.7186   5.8004   5.8364
     5.9199   6.0313   6.1850   6.2880   6.4207   6.5150   6.6414   6.7230
     6.7724   6.9234   7.0617   7.1643   7.3321   7.6277   7.7201   7.9703
     8.0971   8.5199   8.6700   8.8289   9.5547  10.7548  11.9829  12.8809

          k = 0.0556 0.3528 0.0000 (  4467 PWs)   bands (ev):

   -38.5676 -38.5469 -38.5291 -38.5095 -38.4404 -38.4069 -38.3564 -38.2693
   -38.2380 -38.2333 -38.1950 -38.1656 -38.1422 -38.0980 -38.0792 -38.0210
   -38.0202 -37.7862 -37.7861 -37.7524 -37.7521   2.7322   2.9808   3.0278
     3.1189   3.3496   3.4098   3.6428   3.8124   4.0814   4.1416   4.6316
     4.9456   5.1197   5.3527   5.5431   5.6470   5.6887   5.7758   6.0292
     6.1584   6.4457   6.5998   6.7409   6.8170   7.0382   7.3032   7.4692
     7.5292   7.7232   7.8390   7.9875   8.1019   8.2864   8.3579   8.4880
     8.4998   8.6753   8.9215   9.3200  10.6720  12.1822  13.6654  14.8711

          k = 0.0556 0.4811 0.0000 (  4463 PWs)   bands (ev):

   -38.6549 -38.6429 -38.6147 -38.5882 -38.5370 -38.4180 -38.3893 -38.2868
   -38.2771 -38.2667 -38.2333 -38.1991 -38.1763 -38.1354 -38.1257 -38.1124
   -38.1041 -37.8191 -37.8190 -37.7457 -37.7454   2.5467   2.6669   2.7741
     2.8687   2.9890   3.1564   3.1788   3.5489   3.6355   3.8110   4.4522
     4.8675   5.2076   5.3837   5.4929   5.7336   5.9228   5.9716   6.4873
     6.6646   6.8281   7.2260   7.5134   7.8542   8.0505   8.0964   8.3891
     8.4762   8.5806   8.6251   8.7213   8.7424   8.8889   8.9924   9.1525
     9.5863  10.1204  10.4505  10.7839  11.8768  13.2858  14.6390  16.3738

          k = 0.0556-0.5453 0.0000 (  4486 PWs)   bands (ev):

   -38.6833 -38.6705 -38.6385 -38.6075 -38.5662 -38.4028 -38.3950 -38.2906
   -38.2854 -38.2651 -38.2496 -38.2065 -38.1860 -38.1526 -38.1465 -38.1201
   -38.1142 -37.8268 -37.8265 -37.7444 -37.7442   2.4291   2.6160   2.6844
     2.7694   2.9266   3.0690   3.1020   3.4709   3.5402   3.7356   4.4076
     4.8376   5.1163   5.3386   5.4278   5.7448   5.9779   6.1244   6.4933
     6.8041   7.0657   7.2799   7.7136   8.0776   8.2015   8.4575   8.4917
     8.7022   8.7866   8.8729   8.9018   8.9700   9.0446   9.1496   9.2679
    10.2130  11.0044  11.7411  11.9036  12.2028  12.9178  13.4890  16.1855

          k = 0.0556-0.4170 0.0000 (  4465 PWs)   bands (ev):

   -38.6043 -38.5947 -38.5764 -38.5560 -38.4839 -38.4380 -38.3810 -38.2800
   -38.2608 -38.2546 -38.2152 -38.1852 -38.1612 -38.1142 -38.0983 -38.0813
   -38.0771 -37.8053 -37.8052 -37.7486 -37.7481   2.7365   2.7606   2.9346
     3.0294   3.0943   3.2858   3.3559   3.6716   3.8242   3.9502   4.5436
     4.9106   5.3252   5.4629   5.5691   5.6286   5.7053   5.9481   6.2566
     6.3829   6.6044   6.9957   7.1771   7.3856   7.5750   7.6890   8.0088
     8.0895   8.1343   8.2562   8.3698   8.5167   8.6250   8.7353   8.8981
     9.0256   9.2065   9.2804   9.9207  11.2902  12.8598  14.4207  15.7884

          k = 0.0556-0.2887 0.0000 (  4439 PWs)   bands (ev):

   -38.5746 -38.5536 -38.4699 -38.4349 -38.3849 -38.3281 -38.3049 -38.2491
   -38.2105 -38.2077 -38.1722 -38.1417 -38.1201 -38.0825 -38.0607 -37.9462
   -37.9457 -37.7642 -37.7641 -37.7565 -37.7561   2.4579   2.7349   3.1142
     3.2793   3.5024   3.6950   3.8987   4.0324   4.2250   4.3750   4.6156
     4.6753   4.9930   5.1297   5.4976   5.6790   5.7585   5.7917   5.9001
     6.0249   6.1063   6.2774   6.3695   6.6842   6.7207   6.8352   6.9844
     7.1648   7.2281   7.3408   7.5858   7.6959   7.8339   7.9691   8.0808
     8.2603   8.5803   8.8662   8.9322  10.0945  11.4700  12.8348  13.8975

          k = 0.0556-0.1604 0.0000 (  4443 PWs)   bands (ev):

   -38.6322 -38.5873 -38.4222 -38.3020 -38.2368 -38.2076 -38.1786 -38.1709
   -38.1562 -38.1485 -38.1045 -38.0952 -38.0727 -38.0618 -38.0281 -37.7982
   -37.7981 -37.7654 -37.7650 -37.7234 -37.7233   1.4221   1.8604   2.5527
     3.0107   3.0423   3.3554   3.4027   4.5823   4.7007   4.8687   4.9390
     5.0521   5.0895   5.4273   5.5623   5.6710   5.7292   5.7969   5.8724
     5.8784   5.9307   5.9810   6.0274   6.2110   6.2695   6.4331   6.5060
     6.8871   6.9769   7.0539   7.1232   7.3039   7.5034   7.6434   7.8664
     8.0138   8.3726   8.5694   8.8067   9.0607  10.0465  11.1263  11.8438

          k = 0.0556-0.0321 0.0000 (  4465 PWs)   bands (ev):

   -38.6651 -38.6097 -38.4200 -38.2604 -38.1513 -38.1485 -38.1403 -38.1390
   -38.0900 -38.0842 -38.0770 -38.0594 -38.0565 -38.0201 -38.0086 -37.7755
   -37.7741 -37.7132 -37.7130 -37.7020 -37.7018   0.8194   1.2897   2.0150
     2.5201   2.5543   2.8524   2.9001   5.0706   5.1142   5.2607   5.3256
     5.3789   5.4178   5.4218   5.4825   5.5104   5.6179   5.6385   5.6470
     5.7027   5.7377   5.9219   5.9791   6.0448   6.0586   6.3062   7.1509
     7.1853   7.2579   7.3626   7.3722   7.5198   7.5582   7.8087   7.9224
     8.1515   8.2633   8.2684   8.6709   8.8383   8.8657   9.6762  10.1117

          k = 0.1667 0.2887 0.0000 (  4425 PWs)   bands (ev):

   -38.5531 -38.5479 -38.4871 -38.4632 -38.4227 -38.3691 -38.3347 -38.2686
   -38.2364 -38.2356 -38.1778 -38.1724 -38.1479 -38.1152 -38.0736 -37.9777
   -37.9776 -37.7971 -37.7970 -37.7529 -37.7525   2.9273   3.0718   3.3540
     3.6874   3.8681   3.8848   3.9900   4.0482   4.0634   4.2601   4.3851
     4.5348   4.9860   5.0254   5.1060   5.3124   5.4870   5.4871   5.5145
     5.6514   6.2085   6.2426   6.4607   6.5534   6.6715   7.1050   7.1550
     7.3106   7.5554   7.7290   7.9571   8.1874   8.3223   8.4424   8.4577
     8.5685   8.6341   8.7278   9.4175  10.6488  12.0356  13.4354  14.5796

          k = 0.1667 0.4170 0.0000 (  4459 PWs)   bands (ev):

   -38.5898 -38.5787 -38.5615 -38.5403 -38.4800 -38.4479 -38.3852 -38.3112
   -38.3080 -38.2817 -38.2290 -38.2203 -38.2016 -38.1609 -38.1043 -38.0731
   -38.0719 -37.8592 -37.8591 -37.7455 -37.7452   3.0985   3.1655   3.2979
     3.4495   3.5073   3.5716   3.8032   3.8889   4.1090   4.2905   4.5514
     4.6633   4.9086   5.0859   5.1836   5.4239   5.5237   5.8877   5.9645
     6.1272   6.2050   6.4453   6.5688   6.8432   7.1368   7.2836   7.4164
     7.6344   7.7716   8.0148   8.4979   8.7836   8.8778   8.9464   9.1215
    10.1813  10.3283  10.5470  11.1711  12.2912  13.6834  15.1311  16.4186

          k = 0.1667 0.5453 0.0000 (  4490 PWs)   bands (ev):

   -38.6459 -38.6339 -38.6000 -38.5755 -38.5329 -38.4098 -38.3908 -38.3602
   -38.3443 -38.3002 -38.2625 -38.2427 -38.2278 -38.1710 -38.1310 -38.1182
   -38.1174 -37.8930 -37.8929 -37.7415 -37.7414   2.7924   3.0820   3.0906
     3.2209   3.3644   3.4517   3.6020   3.8457   4.0380   4.0875   4.4292
     4.5313   4.7771   5.1593   5.4747   5.6439   5.7252   5.9367   6.1962
     6.3166   6.5459   6.8223   7.1968   7.2467   7.3477   7.7267   8.0215
     8.1678   8.2945   8.4129   8.5925   8.7201   8.8085   9.0030   9.1308
    12.0405  12.4639  12.8854  13.2864  13.7908  14.2693  14.5195  16.4943

          k = 0.1667-0.4811 0.0000 (  4476 PWs)   bands (ev):

   -38.6256 -38.6138 -38.5866 -38.5624 -38.5149 -38.4261 -38.3896 -38.3414
   -38.3317 -38.2919 -38.2479 -38.2413 -38.2163 -38.1692 -38.1202 -38.1032
   -38.1016 -37.8813 -37.8810 -37.7428 -37.7427   2.9010   3.1130   3.1584
     3.3231   3.4049   3.4939   3.6719   3.8814   4.0433   4.1773   4.4465
     4.6343   4.8894   5.0342   5.4461   5.5244   5.7549   5.9500   6.0495
     6.1652   6.5275   6.6764   6.9337   7.0697   7.1971   7.6191   7.8172
     7.8368   7.9873   8.1436   8.5532   8.8399   8.8947   9.0502   9.2192
    11.1477  11.4121  11.7300  12.3042  13.2446  14.4234  15.5656  16.7470

          k = 0.1667-0.3528 0.0000 (  4458 PWs)   bands (ev):

   -38.5568 -38.5466 -38.5272 -38.5105 -38.4576 -38.4303 -38.3692 -38.2833
   -38.2733 -38.2677 -38.2044 -38.1892 -38.1836 -38.1429 -38.0883 -38.0302
   -38.0298 -37.8297 -37.8297 -37.7492 -37.7491   3.1896   3.2863   3.3817
     3.5192   3.6376   3.7344   3.8513   3.9956   4.2346   4.2982   4.4613
     4.6675   4.8501   4.9613   5.2221   5.3313   5.3766   5.5949   5.7896
     5.8687   6.1236   6.1710   6.4512   6.7297   6.8889   7.0565   7.3279
     7.4834   7.6959   7.8729   8.3483   8.5396   8.6525   8.6805   8.8960
     9.2891   9.3553   9.4863  10.1503  11.3832  12.8164  14.2685  15.4984

          k = 0.1667-0.2245 0.0000 (  4433 PWs)   bands (ev):

   -38.5786 -38.5567 -38.4551 -38.4093 -38.3652 -38.3056 -38.2895 -38.2471
   -38.2056 -38.2037 -38.1651 -38.1407 -38.1197 -38.0857 -38.0609 -37.9214
   -37.9212 -37.7670 -37.7669 -37.7571 -37.7567   2.4106   2.7115   3.2029
     3.5591   3.6808   3.8344   3.9685   4.1394   4.2708   4.3184   4.4852
     4.6598   4.7887   5.0979   5.2827   5.4366   5.5152   5.6245   5.7398
     5.8200   6.0690   6.2299   6.5163   6.5763   6.6028   6.8273   6.9119
     7.1724   7.1871   7.2735   7.5902   7.6931   7.8847   8.0381   8.0512
     8.1576   8.4745   8.6952   8.9653  10.0598  11.3505  12.6666  13.6949

          k = 0.1667-0.0962 0.0000 (  4427 PWs)   bands (ev):

   -38.6227 -38.5809 -38.4251 -38.3215 -38.2642 -38.2250 -38.1935 -38.1778
   -38.1712 -38.1692 -38.1107 -38.1055 -38.0835 -38.0654 -38.0299 -37.8236
   -37.8235 -37.7644 -37.7639 -37.7281 -37.7279   1.6003   2.0207   2.6840
     3.0848   3.1734   3.4736   3.5440   4.3965   4.6588   4.7753   4.8238
     4.9814   4.9973   5.5050   5.5537   5.6909   5.7669   5.8101   5.9080
     5.9751   6.0076   6.0960   6.1091   6.1416   6.3307   6.4439   6.6067
     6.7101   6.9202   6.9620   7.1510   7.2863   7.5122   7.6010   7.8710
     8.1803   8.2881   8.7057   8.9181   9.1427  10.2869  11.4385  12.2239

          k = 0.2778 0.4811 0.0000 (  4485 PWs)   bands (ev):

   -38.5884 -38.5853 -38.5546 -38.5421 -38.4837 -38.4686 -38.4340 -38.3878
   -38.3638 -38.3369 -38.2981 -38.2850 -38.2064 -38.2040 -38.1326 -38.0815
   -38.0813 -37.9522 -37.9521 -37.7403 -37.7400   3.3172   3.3387   3.4947
     3.5711   3.8155   3.9510   4.1031   4.1553   4.2369   4.3164   4.3969
     4.4783   4.8115   4.9599   5.1299   5.3335   5.5968   5.6913   6.0245
     6.0355   6.2508   6.2510   6.7497   6.8645   7.0136   7.2553   7.4153
     7.4829   7.8189   8.1693   8.5389   8.8050   8.8431   8.9077   9.1138
    12.4958  12.7253  13.1889  13.8737  14.8053  15.9059  16.8282  16.9399

          k = 0.2778 0.6094 0.0000 (  4491 PWs)   bands (ev):

   -38.5813 -38.5724 -38.5406 -38.5356 -38.5002 -38.4749 -38.4459 -38.4156
   -38.3858 -38.3632 -38.3060 -38.3006 -38.2105 -38.1994 -38.1445 -38.0733
   -38.0731 -37.9843 -37.9842 -37.7390 -37.7385   3.2902   3.5222   3.5639
     3.7126   3.8278   3.9739   4.0287   4.0870   4.1717   4.3378   4.3939
     4.5599   4.7078   5.0883   5.1905   5.4124   5.5412   5.6831   5.9415
     5.9962   6.2930   6.3147   6.7206   6.9250   7.1032   7.2518   7.4544
     7.5208   8.1148   8.3277   8.4755   8.6316   8.6997   8.7480   8.8912
    13.7078  14.0044  14.4657  14.9081  15.2948  15.7636  16.2965  16.5144

          k = 0.2778-0.4170 0.0000 (  4462 PWs)   bands (ev):

   -38.5953 -38.5869 -38.5635 -38.5420 -38.4920 -38.4502 -38.4029 -38.3498
   -38.3432 -38.3055 -38.2688 -38.2533 -38.2071 -38.1918 -38.1170 -38.0829
   -38.0823 -37.9067 -37.9066 -37.7423 -37.7420   3.1780   3.3119   3.3926
     3.5345   3.6653   3.7589   3.9252   4.1291   4.2379   4.2942   4.5223
     4.6872   4.7482   4.8495   5.1898   5.2646   5.5834   5.7779   6.0173
     6.0908   6.2456   6.3212   6.5450   6.8402   7.0527   7.2728   7.4432
     7.5639   7.6682   8.0262   8.5434   8.9028   8.9293   9.0274   9.2181
    11.3225  11.4713  11.8289  12.4843  13.4996  14.7663  16.0933  17.2529

          k = 0.2778-0.2887 0.0000 (  4463 PWs)   bands (ev):

   -38.5746 -38.5630 -38.5498 -38.5321 -38.4557 -38.4435 -38.3736 -38.2807
   -38.2700 -38.2612 -38.2028 -38.1896 -38.1787 -38.1216 -38.0937 -38.0521
   -38.0508 -37.8174 -37.8172 -37.7488 -37.7486   2.9466   3.0600   3.1947
     3.2375   3.3565   3.4778   3.6207   3.8536   4.0492   4.1903   4.5398
     4.7809   5.1306   5.1711   5.3937   5.5277   5.6238   5.8014   5.9807
     6.1424   6.3468   6.5673   6.6920   6.8242   7.1249   7.3356   7.4792
     7.5789   7.8270   8.1285   8.3704   8.4657   8.6569   8.6744   8.9298
     9.1401   9.3226   9.4025  10.0592  11.3324  12.8200  14.3183  15.5907

          k = 0.2778-0.1604 0.0000 (  4458 PWs)   bands (ev):

   -38.5694 -38.5480 -38.4974 -38.4728 -38.4136 -38.3648 -38.3310 -38.2584
   -38.2188 -38.2157 -38.1857 -38.1493 -38.1215 -38.0897 -38.0646 -37.9831
   -37.9827 -37.7688 -37.7686 -37.7551 -37.7547   2.5639   2.8178   3.0281
     3.1283   3.3954   3.5066   3.7689   3.8496   4.1082   4.2653   4.6798
     4.9226   5.1451   5.3224   5.5517   5.6866   5.7693   5.8400   6.0147
     6.1542   6.4207   6.5143   6.5537   6.7196   6.8495   7.0720   7.2741
     7.3350   7.4210   7.4781   7.6566   7.8349   7.8728   7.9617   8.1069
     8.3292   8.7460   8.9197   8.9849  10.2691  11.7401  13.1703  14.2969

          k = 0.3889 0.6736 0.0000 (  4511 PWs)   bands (ev):

   -38.6176 -38.6053 -38.5703 -38.5539 -38.5108 -38.4319 -38.4272 -38.3802
   -38.3791 -38.3351 -38.2926 -38.2774 -38.2215 -38.1882 -38.1381 -38.0994
   -38.0992 -37.9426 -37.9422 -37.7400 -37.7398   3.0170   3.3073   3.3978
     3.5914   3.6179   3.7712   3.7885   4.0605   4.1596   4.2386   4.4795
     4.5113   4.6924   4.9288   5.3045   5.4839   5.7230   5.9070   5.9305
     6.2659   6.3409   6.7255   6.7301   6.8141   7.1604   7.4905   7.7195
     7.8533   8.2693   8.3894   8.4601   8.6359   8.7145   8.9256   8.9313
    13.2386  13.5399  13.8461  14.1499  14.5100  14.9237  15.2568  16.6370

          k = 0.3889-0.3528 0.0000 (  4485 PWs)   bands (ev):

   -38.6591 -38.6468 -38.6156 -38.5882 -38.5437 -38.4092 -38.3892 -38.3176
   -38.3085 -38.2744 -38.2413 -38.2163 -38.2129 -38.1455 -38.1344 -38.1229
   -38.1142 -37.8500 -37.8499 -37.7437 -37.7435   2.6307   2.8227   2.8967
     2.9712   3.1262   3.2358   3.3472   3.6638   3.7904   3.8812   4.4099
     4.7196   5.0179   5.3544   5.4873   5.6927   5.8264   5.9031   6.4130
     6.5777   6.6452   7.1879   7.2907   7.6475   7.7808   7.9102   8.2630
     8.3872   8.3936   8.4786   8.6285   8.8111   8.9068   9.0440   9.2275
    10.7738  11.2615  11.6595  12.0107  12.7590  13.7462  14.5615  16.4265

          k = 0.3889-0.2245 0.0000 (  4444 PWs)   bands (ev):

   -38.6347 -38.6236 -38.5997 -38.5763 -38.5149 -38.4278 -38.3866 -38.2802
   -38.2597 -38.2556 -38.2272 -38.1869 -38.1546 -38.1294 -38.1074 -38.0974
   -38.0955 -37.8041 -37.8040 -37.7473 -37.7469   2.5805   2.6378   2.7808
     2.9004   2.9691   3.1598   3.2056   3.5442   3.6435   3.8490   4.5108
     4.9457   5.3203   5.4018   5.5237   5.8140   5.8562   5.9434   6.4394
     6.6526   6.8216   7.1265   7.5382   7.7941   8.0748   8.2005   8.2758
     8.4325   8.4922   8.5548   8.5761   8.6992   8.7464   8.8642   8.9753
     9.1009   9.1970   9.4464   9.9824  11.4027  12.9941  14.5577  16.0877

          k =-0.5000-0.8660 0.0000 (  4492 PWs)   bands (ev):

   -38.6915 -38.6795 -38.6474 -38.6142 -38.5746 -38.3999 -38.3993 -38.2768
   -38.2716 -38.2626 -38.2621 -38.2018 -38.1679 -38.1664 -38.1511 -38.1214
   -38.1079 -37.8183 -37.8182 -37.7449 -37.7447   2.3538   2.5447   2.6050
     2.7063   2.8533   3.0149   3.0154   3.3941   3.4504   3.6924   4.3998
     4.8875   5.1470   5.2898   5.4165   5.7227   6.1752   6.2214   6.3832
     7.0750   7.1281   7.2204   7.8951   8.1613   8.3701   8.5147   8.7958
     8.8979   8.9093   9.0024   9.0117   9.0696   9.2015   9.3783   9.3859
     9.7373  10.8401  11.7492  11.9534  12.3510  12.4936  12.6281  16.0973

 ------ SPIN DOWN ----------


          k = 0.0556 0.0962 0.0000 (  4451 PWs)   bands (ev):

   -38.6535 -38.6016 -38.4194 -38.2709 -38.1814 -38.1711 -38.1499 -38.1489
   -38.1147 -38.1120 -38.0827 -38.0717 -38.0573 -38.0433 -38.0156 -37.7735
   -37.7725 -37.7411 -37.7410 -37.7093 -37.7092   1.0282   1.4904   2.2088
     2.7044   2.7242   3.0356   3.0828   4.8966   4.9279   5.1128   5.1643
     5.2616   5.3626   5.5598   5.5656   5.5949   5.6431   5.6579   5.6889
     5.7741   5.8464   5.8961   5.9647   6.0929   6.2015   6.2072   6.7569
     7.0472   7.0933   7.2770   7.3303   7.5203   7.5582   7.6753   7.7618
     8.0671   8.1061   8.6010   8.6267   8.8225   9.3790  10.3107  10.8611

          k = 0.0556 0.2245 0.0000 (  4420 PWs)   bands (ev):

   -38.6032 -38.5694 -38.4344 -38.3592 -38.3090 -38.2572 -38.2367 -38.2139
   -38.1829 -38.1814 -38.1419 -38.1172 -38.0973 -38.0700 -38.0435 -37.8673
   -37.8672 -37.7615 -37.7611 -37.7425 -37.7420   1.9419   2.3218   2.9251
     3.2725   3.3983   3.6825   3.7803   4.2126   4.4804   4.5916   4.6363
     4.8290   4.8658   5.3544   5.4698   5.6187   5.7186   5.8004   5.8364
     5.9199   6.0313   6.1850   6.2880   6.4207   6.5150   6.6414   6.7230
     6.7724   6.9234   7.0617   7.1643   7.3321   7.6277   7.7201   7.9703
     8.0971   8.5199   8.6700   8.8289   9.5547  10.7548  11.9829  12.8809

          k = 0.0556 0.3528 0.0000 (  4467 PWs)   bands (ev):

   -38.5676 -38.5469 -38.5291 -38.5095 -38.4404 -38.4069 -38.3564 -38.2693
   -38.2380 -38.2333 -38.1950 -38.1656 -38.1422 -38.0980 -38.0792 -38.0210
   -38.0202 -37.7862 -37.7861 -37.7524 -37.7521   2.7322   2.9808   3.0278
     3.1189   3.3496   3.4098   3.6428   3.8124   4.0814   4.1416   4.6316
     4.9456   5.1197   5.3527   5.5431   5.6470   5.6887   5.7758   6.0292
     6.1584   6.4457   6.5998   6.7409   6.8170   7.0382   7.3032   7.4692
     7.5292   7.7232   7.8390   7.9875   8.1019   8.2864   8.3579   8.4880
     8.4998   8.6753   8.9215   9.3200  10.6720  12.1822  13.6654  14.8711

          k = 0.0556 0.4811 0.0000 (  4463 PWs)   bands (ev):

   -38.6549 -38.6429 -38.6147 -38.5882 -38.5370 -38.4180 -38.3893 -38.2868
   -38.2771 -38.2667 -38.2333 -38.1991 -38.1763 -38.1354 -38.1257 -38.1124
   -38.1041 -37.8191 -37.8190 -37.7457 -37.7454   2.5467   2.6669   2.7741
     2.8687   2.9890   3.1564   3.1788   3.5489   3.6355   3.8110   4.4522
     4.8675   5.2076   5.3837   5.4929   5.7336   5.9228   5.9716   6.4873
     6.6646   6.8281   7.2260   7.5134   7.8542   8.0505   8.0964   8.3891
     8.4762   8.5806   8.6251   8.7213   8.7424   8.8889   8.9924   9.1525
     9.5863  10.1204  10.4505  10.7839  11.8768  13.2858  14.6390  16.3738

          k = 0.0556-0.5453 0.0000 (  4486 PWs)   bands (ev):

   -38.6833 -38.6705 -38.6385 -38.6075 -38.5662 -38.4028 -38.3950 -38.2906
   -38.2854 -38.2651 -38.2496 -38.2065 -38.1860 -38.1526 -38.1465 -38.1201
   -38.1142 -37.8268 -37.8265 -37.7444 -37.7442   2.4291   2.6160   2.6844
     2.7694   2.9266   3.0690   3.1020   3.4709   3.5402   3.7356   4.4076
     4.8376   5.1163   5.3386   5.4278   5.7448   5.9779   6.1244   6.4933
     6.8041   7.0657   7.2799   7.7136   8.0776   8.2015   8.4575   8.4917
     8.7022   8.7866   8.8729   8.9018   8.9700   9.0446   9.1496   9.2679
    10.2130  11.0044  11.7411  11.9036  12.2028  12.9178  13.4890  16.1868

          k = 0.0556-0.4170 0.0000 (  4465 PWs)   bands (ev):

   -38.6043 -38.5947 -38.5764 -38.5560 -38.4839 -38.4380 -38.3810 -38.2800
   -38.2608 -38.2546 -38.2152 -38.1852 -38.1612 -38.1142 -38.0983 -38.0813
   -38.0771 -37.8053 -37.8052 -37.7486 -37.7481   2.7365   2.7606   2.9346
     3.0294   3.0943   3.2858   3.3559   3.6716   3.8242   3.9502   4.5436
     4.9106   5.3252   5.4629   5.5691   5.6286   5.7053   5.9481   6.2566
     6.3829   6.6044   6.9957   7.1771   7.3856   7.5750   7.6890   8.0088
     8.0895   8.1343   8.2562   8.3698   8.5167   8.6250   8.7353   8.8981
     9.0256   9.2065   9.2804   9.9207  11.2902  12.8598  14.4207  15.7884

          k = 0.0556-0.2887 0.0000 (  4439 PWs)   bands (ev):

   -38.5746 -38.5536 -38.4699 -38.4349 -38.3849 -38.3281 -38.3049 -38.2491
   -38.2105 -38.2077 -38.1722 -38.1417 -38.1201 -38.0825 -38.0607 -37.9462
   -37.9457 -37.7642 -37.7641 -37.7565 -37.7561   2.4579   2.7349   3.1142
     3.2793   3.5024   3.6950   3.8987   4.0324   4.2250   4.3750   4.6156
     4.6753   4.9930   5.1297   5.4976   5.6790   5.7585   5.7917   5.9001
     6.0249   6.1063   6.2774   6.3695   6.6842   6.7207   6.8352   6.9844
     7.1648   7.2281   7.3408   7.5858   7.6959   7.8339   7.9691   8.0808
     8.2603   8.5803   8.8662   8.9322  10.0945  11.4700  12.8348  13.8975

          k = 0.0556-0.1604 0.0000 (  4443 PWs)   bands (ev):

   -38.6322 -38.5873 -38.4222 -38.3020 -38.2368 -38.2076 -38.1786 -38.1709
   -38.1562 -38.1485 -38.1045 -38.0952 -38.0727 -38.0618 -38.0281 -37.7982
   -37.7981 -37.7654 -37.7650 -37.7234 -37.7233   1.4221   1.8604   2.5527
     3.0107   3.0423   3.3554   3.4027   4.5823   4.7007   4.8687   4.9390
     5.0521   5.0895   5.4273   5.5623   5.6710   5.7292   5.7969   5.8724
     5.8784   5.9307   5.9810   6.0274   6.2110   6.2695   6.4331   6.5060
     6.8871   6.9769   7.0539   7.1232   7.3039   7.5034   7.6434   7.8664
     8.0138   8.3726   8.5694   8.8067   9.0607  10.0465  11.1263  11.8438

          k = 0.0556-0.0321 0.0000 (  4465 PWs)   bands (ev):

   -38.6651 -38.6097 -38.4200 -38.2604 -38.1513 -38.1485 -38.1403 -38.1390
   -38.0900 -38.0842 -38.0770 -38.0594 -38.0565 -38.0201 -38.0086 -37.7755
   -37.7741 -37.7132 -37.7130 -37.7020 -37.7018   0.8194   1.2897   2.0150
     2.5201   2.5543   2.8524   2.9001   5.0706   5.1142   5.2607   5.3256
     5.3789   5.4178   5.4218   5.4825   5.5104   5.6179   5.6385   5.6470
     5.7027   5.7377   5.9219   5.9791   6.0448   6.0586   6.3062   7.1509
     7.1853   7.2579   7.3626   7.3722   7.5198   7.5582   7.8087   7.9224
     8.1515   8.2633   8.2684   8.6709   8.8383   8.8657   9.6762  10.1117

          k = 0.1667 0.2887 0.0000 (  4425 PWs)   bands (ev):

   -38.5531 -38.5479 -38.4871 -38.4632 -38.4227 -38.3691 -38.3347 -38.2686
   -38.2364 -38.2356 -38.1778 -38.1724 -38.1479 -38.1152 -38.0736 -37.9777
   -37.9776 -37.7971 -37.7970 -37.7529 -37.7525   2.9273   3.0718   3.3540
     3.6874   3.8681   3.8848   3.9900   4.0482   4.0634   4.2601   4.3851
     4.5348   4.9860   5.0254   5.1060   5.3124   5.4870   5.4871   5.5145
     5.6514   6.2085   6.2426   6.4607   6.5534   6.6715   7.1050   7.1550
     7.3106   7.5554   7.7290   7.9571   8.1874   8.3223   8.4424   8.4577
     8.5685   8.6341   8.7278   9.4175  10.6488  12.0356  13.4354  14.5796

          k = 0.1667 0.4170 0.0000 (  4459 PWs)   bands (ev):

   -38.5898 -38.5787 -38.5615 -38.5403 -38.4800 -38.4479 -38.3852 -38.3112
   -38.3080 -38.2817 -38.2290 -38.2203 -38.2016 -38.1609 -38.1043 -38.0731
   -38.0719 -37.8592 -37.8591 -37.7455 -37.7452   3.0985   3.1655   3.2979
     3.4495   3.5073   3.5716   3.8032   3.8889   4.1090   4.2905   4.5514
     4.6633   4.9086   5.0859   5.1836   5.4239   5.5237   5.8877   5.9645
     6.1272   6.2050   6.4453   6.5688   6.8432   7.1368   7.2836   7.4164
     7.6344   7.7716   8.0148   8.4979   8.7836   8.8778   8.9464   9.1215
    10.1813  10.3283  10.5470  11.1711  12.2912  13.6834  15.1311  16.4186

          k = 0.1667 0.5453 0.0000 (  4490 PWs)   bands (ev):

   -38.6459 -38.6339 -38.6000 -38.5755 -38.5329 -38.4098 -38.3908 -38.3602
   -38.3443 -38.3002 -38.2625 -38.2427 -38.2278 -38.1710 -38.1310 -38.1182
   -38.1174 -37.8930 -37.8929 -37.7415 -37.7414   2.7924   3.0820   3.0906
     3.2209   3.3644   3.4517   3.6020   3.8457   4.0380   4.0875   4.4292
     4.5313   4.7771   5.1593   5.4747   5.6439   5.7252   5.9367   6.1962
     6.3166   6.5459   6.8223   7.1968   7.2467   7.3477   7.7267   8.0215
     8.1678   8.2945   8.4129   8.5925   8.7201   8.8085   9.0030   9.1308
    12.0405  12.4639  12.8854  13.2864  13.7908  14.2693  14.5195  16.4955

          k = 0.1667-0.4811 0.0000 (  4476 PWs)   bands (ev):

   -38.6256 -38.6138 -38.5866 -38.5624 -38.5149 -38.4261 -38.3896 -38.3414
   -38.3317 -38.2919 -38.2479 -38.2413 -38.2163 -38.1692 -38.1202 -38.1032
   -38.1016 -37.8813 -37.8810 -37.7428 -37.7427   2.9010   3.1130   3.1584
     3.3231   3.4049   3.4939   3.6719   3.8814   4.0433   4.1773   4.4465
     4.6343   4.8894   5.0342   5.4461   5.5244   5.7549   5.9500   6.0495
     6.1652   6.5275   6.6764   6.9337   7.0697   7.1971   7.6191   7.8172
     7.8368   7.9873   8.1436   8.5532   8.8399   8.8947   9.0502   9.2192
    11.1477  11.4121  11.7300  12.3042  13.2446  14.4234  15.5656  16.7470

          k = 0.1667-0.3528 0.0000 (  4458 PWs)   bands (ev):

   -38.5568 -38.5466 -38.5272 -38.5105 -38.4576 -38.4303 -38.3692 -38.2833
   -38.2733 -38.2677 -38.2044 -38.1892 -38.1836 -38.1429 -38.0883 -38.0302
   -38.0298 -37.8298 -37.8297 -37.7492 -37.7491   3.1896   3.2863   3.3817
     3.5192   3.6376   3.7344   3.8513   3.9956   4.2346   4.2982   4.4613
     4.6675   4.8501   4.9613   5.2221   5.3313   5.3766   5.5949   5.7896
     5.8687   6.1236   6.1710   6.4512   6.7297   6.8889   7.0565   7.3279
     7.4834   7.6959   7.8729   8.3483   8.5396   8.6525   8.6805   8.8960
     9.2891   9.3553   9.4863  10.1503  11.3832  12.8164  14.2685  15.4984

          k = 0.1667-0.2245 0.0000 (  4433 PWs)   bands (ev):

   -38.5786 -38.5567 -38.4551 -38.4093 -38.3652 -38.3056 -38.2895 -38.2471
   -38.2056 -38.2037 -38.1651 -38.1407 -38.1197 -38.0857 -38.0609 -37.9214
   -37.9212 -37.7670 -37.7669 -37.7571 -37.7567   2.4106   2.7115   3.2029
     3.5591   3.6808   3.8344   3.9685   4.1394   4.2708   4.3184   4.4852
     4.6598   4.7887   5.0979   5.2827   5.4366   5.5152   5.6245   5.7398
     5.8200   6.0690   6.2299   6.5163   6.5763   6.6028   6.8273   6.9119
     7.1724   7.1871   7.2735   7.5902   7.6931   7.8847   8.0381   8.0512
     8.1576   8.4745   8.6952   8.9653  10.0598  11.3505  12.6666  13.6949

          k = 0.1667-0.0962 0.0000 (  4427 PWs)   bands (ev):

   -38.6227 -38.5809 -38.4251 -38.3215 -38.2642 -38.2250 -38.1935 -38.1778
   -38.1712 -38.1692 -38.1107 -38.1055 -38.0835 -38.0654 -38.0299 -37.8236
   -37.8235 -37.7644 -37.7639 -37.7281 -37.7279   1.6003   2.0207   2.6840
     3.0848   3.1734   3.4736   3.5440   4.3965   4.6588   4.7753   4.8238
     4.9814   4.9973   5.5050   5.5537   5.6909   5.7669   5.8101   5.9080
     5.9751   6.0076   6.0960   6.1091   6.1416   6.3307   6.4439   6.6067
     6.7101   6.9202   6.9620   7.1510   7.2863   7.5122   7.6010   7.8710
     8.1803   8.2881   8.7057   8.9181   9.1427  10.2869  11.4385  12.2239

          k = 0.2778 0.4811 0.0000 (  4485 PWs)   bands (ev):

   -38.5884 -38.5853 -38.5546 -38.5421 -38.4837 -38.4686 -38.4340 -38.3878
   -38.3638 -38.3369 -38.2981 -38.2850 -38.2064 -38.2040 -38.1326 -38.0815
   -38.0813 -37.9522 -37.9521 -37.7403 -37.7400   3.3172   3.3387   3.4947
     3.5711   3.8155   3.9510   4.1031   4.1553   4.2369   4.3164   4.3969
     4.4783   4.8115   4.9599   5.1299   5.3335   5.5968   5.6913   6.0245
     6.0355   6.2508   6.2510   6.7497   6.8645   7.0136   7.2553   7.4153
     7.4829   7.8189   8.1693   8.5389   8.8050   8.8431   8.9077   9.1138
    12.4958  12.7253  13.1889  13.8737  14.8053  15.9059  16.8282  16.9399

          k = 0.2778 0.6094 0.0000 (  4491 PWs)   bands (ev):

   -38.5813 -38.5724 -38.5406 -38.5356 -38.5002 -38.4749 -38.4459 -38.4156
   -38.3858 -38.3632 -38.3060 -38.3006 -38.2105 -38.1994 -38.1445 -38.0733
   -38.0731 -37.9843 -37.9842 -37.7390 -37.7385   3.2902   3.5222   3.5639
     3.7126   3.8278   3.9739   4.0287   4.0870   4.1717   4.3378   4.3939
     4.5599   4.7078   5.0883   5.1905   5.4124   5.5412   5.6831   5.9415
     5.9962   6.2930   6.3147   6.7206   6.9250   7.1032   7.2518   7.4544
     7.5208   8.1148   8.3277   8.4755   8.6316   8.6997   8.7480   8.8912
    13.7078  14.0044  14.4657  14.9081  15.2948  15.7636  16.2965  16.5144

          k = 0.2778-0.4170 0.0000 (  4462 PWs)   bands (ev):

   -38.5953 -38.5869 -38.5635 -38.5420 -38.4920 -38.4502 -38.4029 -38.3498
   -38.3432 -38.3055 -38.2688 -38.2533 -38.2071 -38.1918 -38.1170 -38.0829
   -38.0823 -37.9067 -37.9066 -37.7423 -37.7420   3.1780   3.3119   3.3926
     3.5345   3.6653   3.7589   3.9252   4.1291   4.2379   4.2942   4.5223
     4.6872   4.7482   4.8495   5.1898   5.2646   5.5834   5.7779   6.0173
     6.0908   6.2456   6.3212   6.5450   6.8402   7.0527   7.2728   7.4432
     7.5639   7.6682   8.0262   8.5434   8.9028   8.9293   9.0274   9.2181
    11.3225  11.4713  11.8289  12.4843  13.4996  14.7663  16.0933  17.2529

          k = 0.2778-0.2887 0.0000 (  4463 PWs)   bands (ev):

   -38.5746 -38.5630 -38.5498 -38.5321 -38.4557 -38.4435 -38.3736 -38.2807
   -38.2700 -38.2612 -38.2028 -38.1896 -38.1787 -38.1216 -38.0937 -38.0521
   -38.0508 -37.8174 -37.8172 -37.7488 -37.7486   2.9466   3.0600   3.1947
     3.2375   3.3565   3.4778   3.6207   3.8536   4.0492   4.1903   4.5398
     4.7809   5.1306   5.1711   5.3937   5.5277   5.6238   5.8014   5.9807
     6.1424   6.3468   6.5673   6.6920   6.8242   7.1249   7.3356   7.4792
     7.5789   7.8270   8.1285   8.3704   8.4657   8.6569   8.6744   8.9298
     9.1401   9.3226   9.4025  10.0592  11.3324  12.8200  14.3183  15.5907

          k = 0.2778-0.1604 0.0000 (  4458 PWs)   bands (ev):

   -38.5694 -38.5480 -38.4974 -38.4728 -38.4136 -38.3648 -38.3310 -38.2584
   -38.2188 -38.2157 -38.1857 -38.1493 -38.1215 -38.0897 -38.0646 -37.9831
   -37.9827 -37.7688 -37.7686 -37.7551 -37.7547   2.5639   2.8178   3.0281
     3.1283   3.3954   3.5066   3.7689   3.8496   4.1082   4.2653   4.6798
     4.9226   5.1451   5.3224   5.5517   5.6866   5.7693   5.8400   6.0147
     6.1542   6.4207   6.5143   6.5537   6.7196   6.8495   7.0720   7.2741
     7.3350   7.4210   7.4781   7.6566   7.8349   7.8728   7.9617   8.1069
     8.3292   8.7460   8.9197   8.9849  10.2691  11.7401  13.1703  14.2969

          k = 0.3889 0.6736 0.0000 (  4511 PWs)   bands (ev):

   -38.6176 -38.6053 -38.5703 -38.5539 -38.5108 -38.4319 -38.4272 -38.3802
   -38.3791 -38.3351 -38.2926 -38.2774 -38.2215 -38.1882 -38.1381 -38.0994
   -38.0992 -37.9426 -37.9422 -37.7400 -37.7398   3.0170   3.3073   3.3978
     3.5914   3.6179   3.7712   3.7885   4.0605   4.1596   4.2386   4.4795
     4.5113   4.6924   4.9288   5.3045   5.4839   5.7230   5.9070   5.9305
     6.2659   6.3409   6.7255   6.7301   6.8141   7.1604   7.4905   7.7195
     7.8533   8.2693   8.3894   8.4601   8.6359   8.7145   8.9256   8.9313
    13.2386  13.5399  13.8461  14.1499  14.5100  14.9237  15.2568  16.6370

          k = 0.3889-0.3528 0.0000 (  4485 PWs)   bands (ev):

   -38.6591 -38.6468 -38.6156 -38.5882 -38.5437 -38.4092 -38.3892 -38.3176
   -38.3085 -38.2744 -38.2413 -38.2163 -38.2129 -38.1455 -38.1344 -38.1229
   -38.1142 -37.8500 -37.8499 -37.7437 -37.7435   2.6307   2.8227   2.8967
     2.9712   3.1262   3.2358   3.3472   3.6638   3.7904   3.8812   4.4099
     4.7196   5.0179   5.3544   5.4873   5.6927   5.8264   5.9031   6.4130
     6.5777   6.6452   7.1879   7.2907   7.6475   7.7808   7.9102   8.2630
     8.3872   8.3936   8.4786   8.6285   8.8111   8.9068   9.0440   9.2275
    10.7738  11.2615  11.6595  12.0107  12.7590  13.7462  14.5615  16.4266

          k = 0.3889-0.2245 0.0000 (  4444 PWs)   bands (ev):

   -38.6347 -38.6236 -38.5997 -38.5763 -38.5149 -38.4278 -38.3866 -38.2802
   -38.2597 -38.2556 -38.2272 -38.1869 -38.1546 -38.1294 -38.1074 -38.0974
   -38.0955 -37.8041 -37.8040 -37.7473 -37.7469   2.5805   2.6378   2.7808
     2.9004   2.9691   3.1598   3.2056   3.5442   3.6435   3.8490   4.5108
     4.9457   5.3203   5.4018   5.5237   5.8140   5.8562   5.9434   6.4394
     6.6526   6.8216   7.1265   7.5382   7.7941   8.0748   8.2005   8.2758
     8.4325   8.4922   8.5548   8.5761   8.6992   8.7464   8.8642   8.9753
     9.1009   9.1970   9.4464   9.9824  11.4027  12.9941  14.5577  16.0877

          k =-0.5000-0.8660 0.0000 (  4492 PWs)   bands (ev):

   -38.6915 -38.6795 -38.6474 -38.6142 -38.5746 -38.3999 -38.3993 -38.2768
   -38.2716 -38.2626 -38.2621 -38.2018 -38.1679 -38.1664 -38.1511 -38.1214
   -38.1079 -37.8183 -37.8182 -37.7449 -37.7447   2.3538   2.5447   2.6050
     2.7063   2.8533   3.0149   3.0154   3.3941   3.4504   3.6924   4.3998
     4.8875   5.1470   5.2898   5.4165   5.7227   6.1752   6.2214   6.3832
     7.0750   7.1281   7.2204   7.8951   8.1613   8.3701   8.5147   8.7958
     8.8979   8.9093   9.0024   9.0117   9.0696   9.2015   9.3783   9.3859
     9.7373  10.8401  11.7492  11.9534  12.3510  12.4936  12.6281  16.0973

     the Fermi energy is     8.3533 ev

!    total energy              =   -1198.23269097 Ry
     estimated scf accuracy    <          6.9E-09 Ry
     smearing contrib. (-TS)   =      -0.03006531 Ry
     internal energy E=F+TS    =   -1198.20262565 Ry

     The total energy is F=E-TS. E is the sum of the following terms:
     one-electron contribution =  -13545.00638560 Ry
     hartree contribution      =    6818.27120741 Ry
     xc contribution           =    -209.38391301 Ry
     ewald contribution        =    5737.91646554 Ry

     total magnetization       =    -0.00 Bohr mag/cell
     absolute magnetization    =     0.00 Bohr mag/cell

     convergence has been achieved in  13 iterations

     negative rho (up, down):  1.948E-01 1.948E-01

     Forces acting on atoms (cartesian axes, Ry/au):

     atom    1 type  1   force =     0.00000000    0.00000000    0.00064019
     atom    2 type  1   force =     0.00000000    0.00000000   -0.00118327
     atom    3 type  1   force =     0.00000000    0.00000000    0.00177082
     atom    4 type  1   force =     0.00000000    0.00000000    0.00000761
     atom    5 type  1   force =     0.00000000    0.00000000   -0.00177488
     atom    6 type  1   force =     0.00000000    0.00000000    0.00115725
     atom    7 type  1   force =     0.00000000    0.00000000   -0.00061771

     Total force =     0.003133     Total SCF correction =     0.000453
     SCF correction compared to forces is large: reduce conv_thr to get better values
     Energy error            =      1.6E-05
     Gradient error          =      1.8E-03

     number of scf cycles    =  10
     number of bfgs steps    =   9

     energy   old            =   -1198.2326753904 Ry
     energy   new            =   -1198.2326909653 Ry

     CASE: energy  _new < energy  _old

     new trust radius        =       0.0066748988 bohr
     new conv_thr            =       0.0000001000 Ry


ATOMIC_POSITIONS (angstrom)
Rh            0.0000000000        0.0000000000        0.0476691511
Rh            1.3554284000       -0.7825569000        2.2206088013
Rh            1.3554284000        0.7825569000        4.4169713170
Rh            0.0000000000        0.0000000000        6.6402061291
Rh            1.3554284000       -0.7825569000        8.8634694666
Rh            1.3554284000        0.7825569000       11.0598440126
Rh            0.0000000000        0.0000000000       13.2327422224



     Writing output data file /home/STUDENTI/leonardo.razzai/Rh_work/surf_111/7-L.save/
     NEW-OLD atomic charge density approx. for the potential

     negative rho (up, down):  1.943E-01 1.943E-01
     Generating pointlists ...

     total cpu time spent up to now is     1004.7 secs

     Self-consistent Calculation

     iteration #  1     ecut=    35.00 Ry     beta= 0.40
     Davidson diagonalization with overlap
     ethr =  1.00E-06,  avg # of iterations =  5.3

     negative rho (up, down):  1.943E-01 1.943E-01

     total cpu time spent up to now is     1020.1 secs

     total energy              =   -1198.23095623 Ry
     estimated scf accuracy    <       0.10050698 Ry

     total magnetization       =    -0.00 Bohr mag/cell
     absolute magnetization    =     0.00 Bohr mag/cell

     iteration #  2     ecut=    35.00 Ry     beta= 0.40
     Davidson diagonalization with overlap
     ethr =  9.57E-05,  avg # of iterations =  1.0

     negative rho (up, down):  1.943E-01 1.943E-01

     total cpu time spent up to now is     1027.8 secs

     total energy              =   -1198.23209097 Ry
     estimated scf accuracy    <       0.05471700 Ry

     total magnetization       =    -0.00 Bohr mag/cell
     absolute magnetization    =     0.00 Bohr mag/cell

     iteration #  3     ecut=    35.00 Ry     beta= 0.40
     Davidson diagonalization with overlap
     ethr =  5.21E-05,  avg # of iterations =  1.0

     negative rho (up, down):  1.943E-01 1.943E-01

     total cpu time spent up to now is     1035.6 secs

     total energy              =   -1198.23268749 Ry
     estimated scf accuracy    <       0.00250947 Ry

     total magnetization       =    -0.00 Bohr mag/cell
     absolute magnetization    =     0.00 Bohr mag/cell

     iteration #  4     ecut=    35.00 Ry     beta= 0.40
     Davidson diagonalization with overlap
     ethr =  2.39E-06,  avg # of iterations =  1.0

     negative rho (up, down):  1.943E-01 1.943E-01

     total cpu time spent up to now is     1043.4 secs

     total energy              =   -1198.23269824 Ry
     estimated scf accuracy    <       0.00048122 Ry

     total magnetization       =    -0.00 Bohr mag/cell
     absolute magnetization    =     0.00 Bohr mag/cell

     iteration #  5     ecut=    35.00 Ry     beta= 0.40
     Davidson diagonalization with overlap
     ethr =  4.58E-07,  avg # of iterations =  1.0

     negative rho (up, down):  1.943E-01 1.943E-01

     total cpu time spent up to now is     1051.2 secs

     total energy              =   -1198.23270177 Ry
     estimated scf accuracy    <       0.00001964 Ry

     total magnetization       =    -0.00 Bohr mag/cell
     absolute magnetization    =     0.00 Bohr mag/cell

     iteration #  6     ecut=    35.00 Ry     beta= 0.40
     Davidson diagonalization with overlap
     ethr =  1.87E-08,  avg # of iterations =  1.0

     negative rho (up, down):  1.943E-01 1.943E-01

     total cpu time spent up to now is     1058.9 secs

     total energy              =   -1198.23270151 Ry
     estimated scf accuracy    <       0.00000458 Ry

     total magnetization       =    -0.00 Bohr mag/cell
     absolute magnetization    =     0.00 Bohr mag/cell

     iteration #  7     ecut=    35.00 Ry     beta= 0.40
     Davidson diagonalization with overlap
     ethr =  4.36E-09,  avg # of iterations =  1.1

     negative rho (up, down):  1.943E-01 1.943E-01

     total cpu time spent up to now is     1066.7 secs

     total energy              =   -1198.23270127 Ry
     estimated scf accuracy    <       0.00000425 Ry

     total magnetization       =    -0.00 Bohr mag/cell
     absolute magnetization    =     0.00 Bohr mag/cell

     iteration #  8     ecut=    35.00 Ry     beta= 0.40
     Davidson diagonalization with overlap
     ethr =  4.05E-09,  avg # of iterations =  1.1

     negative rho (up, down):  1.943E-01 1.943E-01

     total cpu time spent up to now is     1074.4 secs

     total energy              =   -1198.23270141 Ry
     estimated scf accuracy    <       0.00000220 Ry

     total magnetization       =    -0.00 Bohr mag/cell
     absolute magnetization    =     0.00 Bohr mag/cell

     iteration #  9     ecut=    35.00 Ry     beta= 0.40
     Davidson diagonalization with overlap
     ethr =  2.10E-09,  avg # of iterations =  1.9

     negative rho (up, down):  1.943E-01 1.943E-01

     total cpu time spent up to now is     1082.8 secs

     total energy              =   -1198.23270224 Ry
     estimated scf accuracy    <       0.00000362 Ry

     total magnetization       =    -0.00 Bohr mag/cell
     absolute magnetization    =     0.00 Bohr mag/cell

     iteration # 10     ecut=    35.00 Ry     beta= 0.40
     Davidson diagonalization with overlap
     ethr =  2.10E-09,  avg # of iterations =  1.0

     negative rho (up, down):  1.943E-01 1.943E-01

     total cpu time spent up to now is     1090.5 secs

     total energy              =   -1198.23270260 Ry
     estimated scf accuracy    <       0.00000048 Ry

     total magnetization       =    -0.00 Bohr mag/cell
     absolute magnetization    =     0.00 Bohr mag/cell

     iteration # 11     ecut=    35.00 Ry     beta= 0.40
     Davidson diagonalization with overlap
     ethr =  4.59E-10,  avg # of iterations =  1.1

     negative rho (up, down):  1.943E-01 1.943E-01
 
     Magnetic moment per site:
     atom:    1    charge:   13.1069    magn:   -0.0000    constr:    0.0000
     atom:    2    charge:   13.1651    magn:   -0.0000    constr:    0.0000
     atom:    3    charge:   13.1617    magn:    0.0000    constr:    0.0000
     atom:    4    charge:   13.1558    magn:    0.0000    constr:    0.0000
     atom:    5    charge:   13.1616    magn:    0.0000    constr:    0.0000
     atom:    6    charge:   13.1647    magn:   -0.0000    constr:    0.0000
     atom:    7    charge:   13.1070    magn:    0.0000    constr:    0.0000

     total cpu time spent up to now is     1098.1 secs

     End of self-consistent calculation

 ------ SPIN UP ------------


          k = 0.0556 0.0962 0.0000 (  4451 PWs)   bands (ev):

   -38.6573 -38.6029 -38.4243 -38.2735 -38.1825 -38.1725 -38.1511 -38.1500
   -38.1176 -38.1148 -38.0859 -38.0743 -38.0603 -38.0472 -38.0199 -37.7756
   -37.7746 -37.7431 -37.7430 -37.7114 -37.7113   1.0221   1.4884   2.2046
     2.7016   2.7170   3.0331   3.0793   4.8954   4.9229   5.1079   5.1603
     5.2599   5.3600   5.5547   5.5606   5.5890   5.6413   5.6582   5.6871
     5.7718   5.8436   5.8907   5.9625   6.0903   6.1986   6.2041   6.7573
     7.0435   7.0888   7.2758   7.3291   7.5175   7.5553   7.6736   7.7601
     8.0651   8.1035   8.5998   8.6257   8.8225   9.3803  10.3106  10.8632

          k = 0.0556 0.2245 0.0000 (  4420 PWs)   bands (ev):

   -38.6066 -38.5709 -38.4388 -38.3610 -38.3109 -38.2608 -38.2389 -38.2162
   -38.1841 -38.1826 -38.1453 -38.1205 -38.0996 -38.0736 -38.0476 -37.8694
   -37.8692 -37.7637 -37.7633 -37.7445 -37.7440   1.9357   2.3194   2.9206
     3.2667   3.3946   3.6797   3.7761   4.2072   4.4774   4.5864   4.6315
     4.8262   4.8604   5.3518   5.4668   5.6170   5.7169   5.7988   5.8308
     5.9171   6.0298   6.1831   6.2836   6.4192   6.5105   6.6364   6.7193
     6.7710   6.9207   7.0585   7.1620   7.3308   7.6272   7.7182   7.9685
     8.0960   8.5194   8.6688   8.8292   9.5546  10.7570  11.9840  12.8838

          k = 0.0556 0.3528 0.0000 (  4467 PWs)   bands (ev):

   -38.5703 -38.5486 -38.5315 -38.5107 -38.4441 -38.4113 -38.3589 -38.2722
   -38.2394 -38.2344 -38.1976 -38.1691 -38.1446 -38.1020 -38.0830 -38.0229
   -38.0221 -37.7882 -37.7881 -37.7547 -37.7544   2.7258   2.9786   3.0207
     3.1151   3.3449   3.4057   3.6394   3.8079   4.0783   4.1360   4.6274
     4.9422   5.1163   5.3512   5.5392   5.6406   5.6859   5.7732   6.0267
     6.1553   6.4409   6.5956   6.7374   6.8145   7.0348   7.3012   7.4673
     7.5288   7.7217   7.8347   7.9863   8.0996   8.2841   8.3582   8.4867
     8.4986   8.6739   8.9222   9.3203  10.6736  12.1844  13.6683  14.8730

          k = 0.0556 0.4811 0.0000 (  4463 PWs)   bands (ev):

   -38.6570 -38.6440 -38.6175 -38.5901 -38.5421 -38.4206 -38.3911 -38.2894
   -38.2788 -38.2687 -38.2365 -38.2024 -38.1788 -38.1385 -38.1277 -38.1155
   -38.1075 -37.8211 -37.8210 -37.7481 -37.7478   2.5399   2.6605   2.7715
     2.8630   2.9864   3.1542   3.1723   3.5449   3.6319   3.8053   4.4484
     4.8653   5.2036   5.3833   5.4877   5.7310   5.9191   5.9672   6.4805
     6.6623   6.8246   7.2224   7.5106   7.8529   8.0480   8.0949   8.3876
     8.4752   8.5800   8.6233   8.7178   8.7424   8.8873   8.9911   9.1520
     9.5838  10.1198  10.4490  10.7831  11.8780  13.2863  14.6416  16.3736

          k = 0.0556-0.5453 0.0000 (  4486 PWs)   bands (ev):

   -38.6853 -38.6715 -38.6413 -38.6093 -38.5716 -38.4048 -38.3967 -38.2922
   -38.2871 -38.2682 -38.2531 -38.2098 -38.1885 -38.1549 -38.1482 -38.1237
   -38.1177 -37.8288 -37.8285 -37.7468 -37.7466   2.4221   2.6096   2.6824
     2.7628   2.9246   3.0668   3.0954   3.4664   3.5370   3.7299   4.4036
     4.8359   5.1124   5.3385   5.4222   5.7431   5.9718   6.1208   6.4867
     6.8016   7.0629   7.2770   7.7121   8.0753   8.1999   8.4557   8.4897
     8.7015   8.7861   8.8702   8.8998   8.9688   9.0433   9.1482   9.2669
    10.2102  11.0040  11.7395  11.9032  12.2030  12.9171  13.4892  16.1840

          k = 0.0556-0.4170 0.0000 (  4465 PWs)   bands (ev):

   -38.6064 -38.5964 -38.5788 -38.5577 -38.4885 -38.4414 -38.3830 -38.2832
   -38.2623 -38.2559 -38.2181 -38.1886 -38.1636 -38.1183 -38.1019 -38.0831
   -38.0792 -37.8073 -37.8072 -37.7509 -37.7505   2.7301   2.7542   2.9315
     3.0264   3.0890   3.2810   3.3525   3.6676   3.8205   3.9445   4.5401
     4.9076   5.3223   5.4609   5.5644   5.6250   5.7016   5.9460   6.2535
     6.3774   6.5988   6.9918   7.1737   7.3831   7.5732   7.6872   8.0074
     8.0887   8.1338   8.2550   8.3656   8.5169   8.6229   8.7339   8.8964
     9.0257   9.2055   9.2786   9.9207  11.2920  12.8615  14.4241  15.7896

          k = 0.0556-0.2887 0.0000 (  4439 PWs)   bands (ev):

   -38.5776 -38.5552 -38.4734 -38.4364 -38.3876 -38.3323 -38.3074 -38.2517
   -38.2119 -38.2088 -38.1749 -38.1451 -38.1224 -38.0863 -38.0647 -37.9482
   -37.9477 -37.7663 -37.7661 -37.7587 -37.7583   2.4516   2.7321   3.1095
     3.2737   3.4997   3.6910   3.8929   4.0289   4.2212   4.3699   4.6111
     4.6722   4.9875   5.1273   5.4959   5.6776   5.7561   5.7847   5.8973
     6.0232   6.1038   6.2733   6.3673   6.6801   6.7163   6.8336   6.9828
     7.1627   7.2239   7.3377   7.5834   7.6942   7.8330   7.9679   8.0796
     8.2603   8.5792   8.8667   8.9320  10.0953  11.4724  12.8369  13.9001

          k = 0.0556-0.1604 0.0000 (  4443 PWs)   bands (ev):

   -38.6357 -38.5887 -38.4270 -38.3042 -38.2381 -38.2099 -38.1806 -38.1725
   -38.1581 -38.1502 -38.1083 -38.0984 -38.0754 -38.0651 -38.0323 -37.8003
   -37.8001 -37.7675 -37.7671 -37.7254 -37.7253   1.4159   1.8583   2.5483
     3.0054   3.0377   3.3528   3.3989   4.5778   4.6982   4.8624   4.9348
     5.0487   5.0871   5.4228   5.5603   5.6706   5.7227   5.7941   5.8683
     5.8765   5.9291   5.9794   6.0259   6.2052   6.2689   6.4289   6.5031
     6.8841   6.9731   7.0524   7.1214   7.3021   7.5027   7.6410   7.8642
     8.0118   8.3712   8.5682   8.8069   9.0598  10.0484  11.1268  11.8464

          k = 0.0556-0.0321 0.0000 (  4465 PWs)   bands (ev):

   -38.6689 -38.6110 -38.4249 -38.2631 -38.1524 -38.1496 -38.1414 -38.1400
   -38.0932 -38.0871 -38.0803 -38.0615 -38.0592 -38.0245 -38.0129 -37.7776
   -37.7763 -37.7153 -37.7150 -37.7041 -37.7038   0.8133   1.2878   2.0108
     2.5173   2.5471   2.8500   2.8967   5.0700   5.1104   5.2562   5.3218
     5.3773   5.4132   5.4205   5.4768   5.5086   5.6123   5.6372   5.6447
     5.7009   5.7314   5.9192   5.9765   6.0415   6.0557   6.3041   7.1491
     7.1812   7.2566   7.3616   7.3712   7.5158   7.5541   7.8051   7.9205
     8.1507   8.2625   8.2666   8.6695   8.8390   8.8659   9.6758  10.1133

          k = 0.1667 0.2887 0.0000 (  4425 PWs)   bands (ev):

   -38.5556 -38.5498 -38.4903 -38.4646 -38.4255 -38.3728 -38.3379 -38.2716
   -38.2377 -38.2369 -38.1803 -38.1753 -38.1500 -38.1200 -38.0773 -37.9796
   -37.9795 -37.7991 -37.7990 -37.7552 -37.7547   2.9207   3.0676   3.3496
     3.6840   3.8642   3.8782   3.9878   4.0423   4.0603   4.2550   4.3796
     4.5282   4.9831   5.0233   5.1031   5.3100   5.4846   5.4850   5.5120
     5.6426   6.2078   6.2409   6.4600   6.5520   6.6679   7.1036   7.1505
     7.3079   7.5539   7.7265   7.9548   8.1849   8.3217   8.4400   8.4564
     8.5670   8.6328   8.7281   9.4178  10.6504  12.0378  13.4379  14.5816

          k = 0.1667 0.4170 0.0000 (  4459 PWs)   bands (ev):

   -38.5918 -38.5799 -38.5643 -38.5418 -38.4849 -38.4512 -38.3871 -38.3126
   -38.3095 -38.2852 -38.2316 -38.2233 -38.2041 -38.1651 -38.1083 -38.0749
   -38.0738 -37.8612 -37.8611 -37.7478 -37.7476   3.0915   3.1587   3.2941
     3.4470   3.5030   3.5682   3.7978   3.8837   4.1029   4.2859   4.5485
     4.6595   4.9045   5.0793   5.1803   5.4200   5.5207   5.8841   5.9624
     6.1250   6.2025   6.4428   6.5668   6.8397   7.1348   7.2833   7.4148
     7.6336   7.7717   8.0137   8.4969   8.7817   8.8770   8.9454   9.1211
    10.1789  10.3267  10.5453  11.1706  12.2926  13.6849  15.1343  16.4194

          k = 0.1667 0.5453 0.0000 (  4490 PWs)   bands (ev):

   -38.6479 -38.6350 -38.6027 -38.5773 -38.5383 -38.4120 -38.3924 -38.3617
   -38.3456 -38.3045 -38.2657 -38.2450 -38.2307 -38.1746 -38.1353 -38.1200
   -38.1193 -37.8950 -37.8948 -37.7439 -37.7437   2.7851   3.0754   3.0881
     3.2147   3.3623   3.4494   3.5952   3.8396   4.0332   4.0828   4.4257
     4.5290   4.7693   5.1546   5.4718   5.6414   5.7219   5.9355   6.1950
     6.3125   6.5408   6.8196   7.1947   7.2445   7.3458   7.7258   8.0201
     8.1670   8.2942   8.4120   8.5913   8.7197   8.8078   9.0026   9.1307
    12.0379  12.4625  12.8836  13.2853  13.7908  14.2683  14.5195  16.4927

          k = 0.1667-0.4811 0.0000 (  4476 PWs)   bands (ev):

   -38.6276 -38.6149 -38.5893 -38.5641 -38.5202 -38.4289 -38.3912 -38.3428
   -38.3330 -38.2960 -38.2511 -38.2438 -38.2190 -38.1731 -38.1244 -38.1050
   -38.1035 -37.8833 -37.8830 -37.7452 -37.7450   2.8938   3.1062   3.1552
     3.3180   3.4025   3.4913   3.6656   3.8757   4.0376   4.1730   4.4435
     4.6316   4.8815   5.0296   5.4419   5.5226   5.7533   5.9462   6.0479
     6.1619   6.5245   6.6721   6.9312   7.0677   7.1949   7.6186   7.8167
     7.8356   7.9875   8.1424   8.5522   8.8386   8.8942   9.0495   9.2188
    11.1451  11.4106  11.7283  12.3035  13.2453  14.4239  15.5671  16.7460

          k = 0.1667-0.3528 0.0000 (  4458 PWs)   bands (ev):

   -38.5590 -38.5483 -38.5297 -38.5118 -38.4612 -38.4346 -38.3718 -38.2862
   -38.2746 -38.2695 -38.2072 -38.1915 -38.1861 -38.1476 -38.0921 -38.0321
   -38.0316 -37.8318 -37.8317 -37.7515 -37.7513   3.1829   3.2790   3.3788
     3.5154   3.6335   3.7314   3.8457   3.9914   4.2299   4.2914   4.4579
     4.6625   4.8469   4.9585   5.2202   5.3272   5.3700   5.5910   5.7864
     5.8665   6.1224   6.1685   6.4502   6.7287   6.8867   7.0539   7.3246
     7.4826   7.6953   7.8718   8.3462   8.5378   8.6512   8.6789   8.8959
     9.2868   9.3535   9.4849  10.1503  11.3849  12.8184  14.2716  15.4997

          k = 0.1667-0.2245 0.0000 (  4433 PWs)   bands (ev):

   -38.5816 -38.5584 -38.4590 -38.4109 -38.3674 -38.3092 -38.2924 -38.2498
   -38.2068 -38.2051 -38.1678 -38.1438 -38.1220 -38.0898 -38.0646 -37.9234
   -37.9232 -37.7691 -37.7690 -37.7593 -37.7589   2.4043   2.7086   3.1984
     3.5532   3.6776   3.8320   3.9628   4.1353   4.2653   4.3138   4.4807
     4.6547   4.7852   5.0954   5.2797   5.4343   5.5135   5.6226   5.7368
     5.8123   6.0688   6.2279   6.5137   6.5749   6.5993   6.8229   6.9113
     7.1682   7.1848   7.2692   7.5878   7.6910   7.8838   8.0370   8.0501
     8.1567   8.4733   8.6955   8.9651  10.0607  11.3528  12.6684  13.6975

          k = 0.1667-0.0962 0.0000 (  4427 PWs)   bands (ev):

   -38.6262 -38.5823 -38.4297 -38.3235 -38.2657 -38.2278 -38.1961 -38.1801
   -38.1725 -38.1702 -38.1146 -38.1089 -38.0856 -38.0689 -38.0340 -37.8257
   -37.8255 -37.7666 -37.7660 -37.7301 -37.7299   1.5941   2.0186   2.6797
     3.0792   3.1692   3.4709   3.5402   4.3914   4.6575   4.7677   4.8201
     4.9769   4.9944   5.5011   5.5521   5.6905   5.7596   5.8085   5.9060
     5.9729   6.0033   6.0957   6.1073   6.1406   6.3250   6.4383   6.6035
     6.7070   6.9188   6.9585   7.1489   7.2851   7.5122   7.5984   7.8684
     8.1785   8.2879   8.7043   8.9187   9.1416  10.2890  11.4393  12.2267

          k = 0.2778 0.4811 0.0000 (  4485 PWs)   bands (ev):

   -38.5900 -38.5868 -38.5571 -38.5444 -38.4878 -38.4712 -38.4358 -38.3900
   -38.3654 -38.3412 -38.3007 -38.2871 -38.2104 -38.2064 -38.1375 -38.0833
   -38.0830 -37.9541 -37.9540 -37.7427 -37.7423   3.3111   3.3311   3.4901
     3.5679   3.8121   3.9475   4.0963   4.1463   4.2334   4.3131   4.3924
     4.4710   4.8060   4.9564   5.1273   5.3306   5.5908   5.6892   6.0223
     6.0335   6.2483   6.2487   6.7502   6.8633   7.0121   7.2543   7.4147
     7.4827   7.8185   8.1684   8.5377   8.8050   8.8430   8.9063   9.1138
    12.4930  12.7239  13.1874  13.8731  14.8054  15.9060  16.8263  16.9393

          k = 0.2778 0.6094 0.0000 (  4491 PWs)   bands (ev):

   -38.5832 -38.5736 -38.5429 -38.5377 -38.5034 -38.4762 -38.4495 -38.4183
   -38.3886 -38.3669 -38.3082 -38.3027 -38.2133 -38.2022 -38.1500 -38.0752
   -38.0749 -37.9862 -37.9861 -37.7414 -37.7409   3.2830   3.5186   3.5574
     3.7077   3.8224   3.9708   4.0211   4.0835   4.1685   4.3300   4.3871
     4.5547   4.7033   5.0847   5.1875   5.4098   5.5356   5.6803   5.9393
     5.9941   6.2908   6.3126   6.7212   6.9224   7.1021   7.2523   7.4541
     7.5204   8.1145   8.3267   8.4744   8.6312   8.6989   8.7478   8.8912
    13.7051  14.0031  14.4641  14.9062  15.2938  15.7622  16.2964  16.5126

          k = 0.2778-0.4170 0.0000 (  4462 PWs)   bands (ev):

   -38.5971 -38.5880 -38.5663 -38.5438 -38.4969 -38.4532 -38.4046 -38.3514
   -38.3447 -38.3096 -38.2713 -38.2556 -38.2106 -38.1954 -38.1214 -38.0846
   -38.0841 -37.9087 -37.9085 -37.7446 -37.7444   3.1709   3.3055   3.3885
     3.5306   3.6619   3.7545   3.9197   4.1244   4.2316   4.2883   4.5193
     4.6814   4.7443   4.8439   5.1874   5.2611   5.5796   5.7736   6.0152
     6.0884   6.2435   6.3188   6.5450   6.8375   7.0519   7.2714   7.4417
     7.5634   7.6684   8.0252   8.5423   8.9026   8.9284   9.0263   9.2179
    11.3198  11.4698  11.8272  12.4837  13.5004  14.7674  16.0959  17.2537

          k = 0.2778-0.2887 0.0000 (  4463 PWs)   bands (ev):

   -38.5769 -38.5648 -38.5519 -38.5334 -38.4598 -38.4476 -38.3759 -38.2835
   -38.2715 -38.2627 -38.2059 -38.1923 -38.1812 -38.1257 -38.0976 -38.0539
   -38.0527 -37.8194 -37.8192 -37.7511 -37.7509   2.9400   3.0534   3.1904
     3.2348   3.3521   3.4745   3.6162   3.8488   4.0433   4.1869   4.5362
     4.7771   5.1261   5.1692   5.3866   5.5249   5.6203   5.8001   5.9775
     6.1393   6.3432   6.5642   6.6891   6.8207   7.1220   7.3351   7.4772
     7.5783   7.8265   8.1272   8.3678   8.4645   8.6551   8.6734   8.9297
     9.1379   9.3211   9.4010  10.0592  11.3341  12.8219  14.3215  15.5920

          k = 0.2778-0.1604 0.0000 (  4458 PWs)   bands (ev):

   -38.5723 -38.5496 -38.5003 -38.4741 -38.4168 -38.3691 -38.3336 -38.2611
   -38.2201 -38.2167 -38.1884 -38.1529 -38.1236 -38.0937 -38.0684 -37.9850
   -37.9847 -37.7708 -37.7706 -37.7574 -37.7570   2.5576   2.8151   3.0224
     3.1236   3.3924   3.5014   3.7648   3.8455   4.1054   4.2598   4.6751
     4.9189   5.1425   5.3197   5.5490   5.6852   5.7613   5.8376   6.0126
     6.1516   6.4180   6.5066   6.5515   6.7178   6.8447   7.0693   7.2737
     7.3307   7.4201   7.4743   7.6539   7.8330   7.8732   7.9604   8.1056
     8.3295   8.7448   8.9196   8.9858  10.2701  11.7425  13.1727  14.2992

          k = 0.3889 0.6736 0.0000 (  4511 PWs)   bands (ev):

   -38.6197 -38.6064 -38.5728 -38.5557 -38.5161 -38.4340 -38.4284 -38.3821
   -38.3815 -38.3392 -38.2951 -38.2798 -38.2246 -38.1912 -38.1433 -38.1012
   -38.1009 -37.9446 -37.9442 -37.7423 -37.7422   3.0096   3.3052   3.3909
     3.5853   3.6141   3.7694   3.7809   4.0562   4.1553   4.2322   4.4761
     4.5041   4.6879   4.9235   5.3009   5.4822   5.7204   5.9017   5.9285
     6.2631   6.3416   6.7232   6.7267   6.8121   7.1591   7.4905   7.7184
     7.8526   8.2694   8.3885   8.4586   8.6358   8.7135   8.9256   8.9312
    13.2363  13.5378  13.8441  14.1481  14.5098  14.9225  15.2576  16.6380

          k = 0.3889-0.3528 0.0000 (  4485 PWs)   bands (ev):

   -38.6611 -38.6479 -38.6185 -38.5900 -38.5491 -38.4116 -38.3909 -38.3191
   -38.3099 -38.2781 -38.2452 -38.2189 -38.2153 -38.1490 -38.1372 -38.1250
   -38.1174 -37.8521 -37.8519 -37.7461 -37.7459   2.6235   2.8161   2.8939
     2.9656   3.1242   3.2335   3.3405   3.6585   3.7866   3.8764   4.4059
     4.7173   5.0112   5.3516   5.4861   5.6889   5.8224   5.9002   6.4106
     6.5720   6.6415   7.1848   7.2883   7.6451   7.7794   7.9084   8.2619
     8.3863   8.3929   8.4773   8.6282   8.8091   8.9061   9.0433   9.2270
    10.7711  11.2605  11.6578  12.0098  12.7595  13.7459  14.5622  16.4253

          k = 0.3889-0.2245 0.0000 (  4444 PWs)   bands (ev):

   -38.6367 -38.6249 -38.6025 -38.5782 -38.5197 -38.4308 -38.3885 -38.2837
   -38.2611 -38.2567 -38.2301 -38.1905 -38.1567 -38.1333 -38.1091 -38.0999
   -38.0992 -37.8061 -37.8060 -37.7496 -37.7493   2.5739   2.6314   2.7783
     2.8955   2.9651   3.1539   3.2031   3.5406   3.6401   3.8430   4.5071
     4.9436   5.3187   5.4017   5.5156   5.8119   5.8537   5.9386   6.4312
     6.6506   6.8180   7.1221   7.5348   7.7929   8.0738   8.1984   8.2735
     8.4284   8.4918   8.5543   8.5739   8.6963   8.7446   8.8630   8.9736
     9.1014   9.1968   9.4453   9.9822  11.4044  12.9954  14.5612  16.0885

          k =-0.5000-0.8660 0.0000 (  4492 PWs)   bands (ev):

   -38.6935 -38.6806 -38.6503 -38.6160 -38.5800 -38.4016 -38.4012 -38.2783
   -38.2727 -38.2669 -38.2649 -38.2054 -38.1699 -38.1691 -38.1527 -38.1250
   -38.1115 -37.8203 -37.8202 -37.7472 -37.7471   2.3469   2.5383   2.6031
     2.6996   2.8513   3.0087   3.0127   3.3898   3.4473   3.6865   4.3958
     4.8861   5.1453   5.2897   5.4083   5.7208   6.1706   6.2182   6.3751
     7.0736   7.1239   7.2179   7.8949   8.1585   8.3694   8.5131   8.7955
     8.8954   8.9079   8.9981   9.0113   9.0673   9.2000   9.3764   9.3843
     9.7347  10.8404  11.7494  11.9516  12.3506  12.4928  12.6287  16.0957

 ------ SPIN DOWN ----------


          k = 0.0556 0.0962 0.0000 (  4451 PWs)   bands (ev):

   -38.6573 -38.6029 -38.4243 -38.2735 -38.1825 -38.1725 -38.1511 -38.1500
   -38.1176 -38.1148 -38.0859 -38.0743 -38.0603 -38.0472 -38.0199 -37.7756
   -37.7746 -37.7431 -37.7430 -37.7114 -37.7113   1.0221   1.4884   2.2046
     2.7016   2.7170   3.0331   3.0793   4.8954   4.9229   5.1079   5.1603
     5.2599   5.3600   5.5547   5.5606   5.5890   5.6413   5.6582   5.6871
     5.7718   5.8436   5.8907   5.9625   6.0903   6.1986   6.2041   6.7573
     7.0435   7.0888   7.2758   7.3291   7.5175   7.5553   7.6736   7.7601
     8.0651   8.1035   8.5998   8.6257   8.8225   9.3803  10.3106  10.8632

          k = 0.0556 0.2245 0.0000 (  4420 PWs)   bands (ev):

   -38.6066 -38.5709 -38.4388 -38.3610 -38.3109 -38.2608 -38.2389 -38.2162
   -38.1841 -38.1826 -38.1453 -38.1205 -38.0996 -38.0736 -38.0476 -37.8694
   -37.8692 -37.7637 -37.7633 -37.7445 -37.7440   1.9357   2.3194   2.9206
     3.2667   3.3946   3.6797   3.7761   4.2072   4.4774   4.5864   4.6315
     4.8262   4.8604   5.3518   5.4668   5.6170   5.7169   5.7988   5.8308
     5.9171   6.0298   6.1831   6.2836   6.4192   6.5105   6.6364   6.7193
     6.7710   6.9207   7.0585   7.1620   7.3308   7.6272   7.7182   7.9685
     8.0960   8.5194   8.6688   8.8292   9.5546  10.7570  11.9840  12.8838

          k = 0.0556 0.3528 0.0000 (  4467 PWs)   bands (ev):

   -38.5703 -38.5486 -38.5315 -38.5107 -38.4441 -38.4113 -38.3589 -38.2722
   -38.2394 -38.2344 -38.1976 -38.1691 -38.1446 -38.1020 -38.0830 -38.0229
   -38.0221 -37.7882 -37.7881 -37.7547 -37.7544   2.7258   2.9786   3.0207
     3.1151   3.3449   3.4057   3.6394   3.8079   4.0783   4.1360   4.6274
     4.9422   5.1163   5.3512   5.5392   5.6406   5.6859   5.7732   6.0267
     6.1553   6.4409   6.5956   6.7374   6.8145   7.0348   7.3012   7.4673
     7.5288   7.7217   7.8347   7.9863   8.0996   8.2841   8.3582   8.4867
     8.4986   8.6739   8.9222   9.3203  10.6736  12.1844  13.6683  14.8730

          k = 0.0556 0.4811 0.0000 (  4463 PWs)   bands (ev):

   -38.6570 -38.6440 -38.6175 -38.5901 -38.5421 -38.4206 -38.3911 -38.2894
   -38.2788 -38.2687 -38.2365 -38.2024 -38.1788 -38.1385 -38.1277 -38.1155
   -38.1075 -37.8211 -37.8210 -37.7481 -37.7478   2.5399   2.6605   2.7715
     2.8630   2.9864   3.1542   3.1723   3.5449   3.6319   3.8053   4.4484
     4.8653   5.2036   5.3833   5.4877   5.7310   5.9191   5.9672   6.4805
     6.6623   6.8246   7.2224   7.5106   7.8529   8.0480   8.0949   8.3876
     8.4752   8.5800   8.6233   8.7178   8.7424   8.8873   8.9911   9.1520
     9.5838  10.1198  10.4490  10.7831  11.8780  13.2863  14.6416  16.3736

          k = 0.0556-0.5453 0.0000 (  4486 PWs)   bands (ev):

   -38.6853 -38.6715 -38.6413 -38.6093 -38.5716 -38.4048 -38.3967 -38.2922
   -38.2871 -38.2682 -38.2531 -38.2098 -38.1885 -38.1549 -38.1482 -38.1237
   -38.1177 -37.8288 -37.8285 -37.7468 -37.7466   2.4221   2.6096   2.6824
     2.7628   2.9246   3.0668   3.0954   3.4664   3.5370   3.7299   4.4036
     4.8359   5.1124   5.3385   5.4222   5.7431   5.9718   6.1208   6.4867
     6.8016   7.0629   7.2770   7.7121   8.0753   8.1999   8.4557   8.4897
     8.7015   8.7861   8.8702   8.8998   8.9688   9.0433   9.1482   9.2669
    10.2102  11.0040  11.7395  11.9032  12.2030  12.9171  13.4892  16.1853

          k = 0.0556-0.4170 0.0000 (  4465 PWs)   bands (ev):

   -38.6064 -38.5964 -38.5788 -38.5577 -38.4885 -38.4414 -38.3830 -38.2832
   -38.2623 -38.2559 -38.2181 -38.1886 -38.1636 -38.1183 -38.1019 -38.0831
   -38.0792 -37.8073 -37.8072 -37.7509 -37.7505   2.7301   2.7542   2.9315
     3.0264   3.0890   3.2810   3.3525   3.6676   3.8205   3.9445   4.5401
     4.9076   5.3223   5.4609   5.5644   5.6250   5.7016   5.9460   6.2535
     6.3774   6.5988   6.9918   7.1737   7.3831   7.5732   7.6872   8.0074
     8.0887   8.1338   8.2550   8.3656   8.5169   8.6229   8.7339   8.8964
     9.0257   9.2055   9.2786   9.9207  11.2920  12.8615  14.4241  15.7896

          k = 0.0556-0.2887 0.0000 (  4439 PWs)   bands (ev):

   -38.5776 -38.5552 -38.4734 -38.4364 -38.3876 -38.3323 -38.3074 -38.2517
   -38.2119 -38.2088 -38.1749 -38.1451 -38.1224 -38.0863 -38.0647 -37.9482
   -37.9477 -37.7663 -37.7661 -37.7587 -37.7583   2.4516   2.7321   3.1095
     3.2737   3.4997   3.6910   3.8929   4.0289   4.2212   4.3699   4.6111
     4.6722   4.9875   5.1273   5.4959   5.6776   5.7561   5.7847   5.8973
     6.0232   6.1038   6.2733   6.3673   6.6801   6.7163   6.8336   6.9828
     7.1627   7.2239   7.3377   7.5834   7.6942   7.8330   7.9679   8.0796
     8.2603   8.5792   8.8667   8.9320  10.0953  11.4724  12.8369  13.9001

          k = 0.0556-0.1604 0.0000 (  4443 PWs)   bands (ev):

   -38.6357 -38.5887 -38.4270 -38.3042 -38.2381 -38.2099 -38.1806 -38.1725
   -38.1581 -38.1502 -38.1083 -38.0984 -38.0754 -38.0651 -38.0323 -37.8003
   -37.8001 -37.7675 -37.7671 -37.7254 -37.7253   1.4159   1.8583   2.5483
     3.0054   3.0377   3.3528   3.3989   4.5778   4.6982   4.8624   4.9348
     5.0487   5.0871   5.4228   5.5603   5.6706   5.7227   5.7941   5.8683
     5.8765   5.9291   5.9794   6.0259   6.2052   6.2689   6.4289   6.5031
     6.8841   6.9731   7.0524   7.1214   7.3021   7.5027   7.6410   7.8642
     8.0118   8.3712   8.5682   8.8069   9.0598  10.0484  11.1268  11.8464

          k = 0.0556-0.0321 0.0000 (  4465 PWs)   bands (ev):

   -38.6689 -38.6110 -38.4249 -38.2631 -38.1524 -38.1496 -38.1414 -38.1400
   -38.0932 -38.0871 -38.0803 -38.0615 -38.0592 -38.0245 -38.0129 -37.7776
   -37.7763 -37.7153 -37.7150 -37.7041 -37.7038   0.8133   1.2878   2.0108
     2.5173   2.5471   2.8500   2.8967   5.0700   5.1104   5.2562   5.3218
     5.3773   5.4132   5.4205   5.4768   5.5086   5.6123   5.6372   5.6447
     5.7009   5.7314   5.9192   5.9765   6.0415   6.0557   6.3041   7.1491
     7.1812   7.2566   7.3616   7.3712   7.5158   7.5541   7.8051   7.9205
     8.1507   8.2625   8.2666   8.6695   8.8390   8.8659   9.6758  10.1133

          k = 0.1667 0.2887 0.0000 (  4425 PWs)   bands (ev):

   -38.5556 -38.5498 -38.4903 -38.4646 -38.4255 -38.3728 -38.3379 -38.2716
   -38.2377 -38.2369 -38.1803 -38.1753 -38.1500 -38.1200 -38.0773 -37.9796
   -37.9795 -37.7991 -37.7990 -37.7552 -37.7547   2.9207   3.0676   3.3496
     3.6840   3.8642   3.8782   3.9878   4.0423   4.0603   4.2550   4.3796
     4.5282   4.9831   5.0233   5.1031   5.3100   5.4846   5.4850   5.5120
     5.6426   6.2078   6.2409   6.4600   6.5520   6.6679   7.1036   7.1505
     7.3079   7.5539   7.7265   7.9548   8.1849   8.3217   8.4400   8.4564
     8.5670   8.6328   8.7281   9.4178  10.6504  12.0378  13.4379  14.5816

          k = 0.1667 0.4170 0.0000 (  4459 PWs)   bands (ev):

   -38.5918 -38.5799 -38.5643 -38.5418 -38.4849 -38.4512 -38.3871 -38.3126
   -38.3095 -38.2852 -38.2316 -38.2233 -38.2041 -38.1651 -38.1083 -38.0749
   -38.0738 -37.8612 -37.8611 -37.7478 -37.7476   3.0915   3.1587   3.2941
     3.4470   3.5030   3.5682   3.7978   3.8837   4.1029   4.2859   4.5485
     4.6595   4.9045   5.0793   5.1803   5.4200   5.5207   5.8841   5.9624
     6.1250   6.2025   6.4428   6.5668   6.8397   7.1348   7.2833   7.4148
     7.6336   7.7717   8.0137   8.4969   8.7817   8.8770   8.9454   9.1211
    10.1789  10.3267  10.5453  11.1706  12.2926  13.6849  15.1343  16.4194

          k = 0.1667 0.5453 0.0000 (  4490 PWs)   bands (ev):

   -38.6479 -38.6350 -38.6027 -38.5773 -38.5383 -38.4120 -38.3924 -38.3617
   -38.3456 -38.3045 -38.2657 -38.2450 -38.2307 -38.1746 -38.1353 -38.1200
   -38.1193 -37.8950 -37.8948 -37.7439 -37.7437   2.7851   3.0754   3.0881
     3.2147   3.3623   3.4494   3.5952   3.8396   4.0332   4.0828   4.4257
     4.5290   4.7693   5.1546   5.4718   5.6414   5.7219   5.9355   6.1950
     6.3125   6.5408   6.8196   7.1947   7.2445   7.3458   7.7258   8.0201
     8.1670   8.2942   8.4120   8.5913   8.7197   8.8078   9.0026   9.1307
    12.0379  12.4625  12.8836  13.2853  13.7908  14.2683  14.5195  16.4940

          k = 0.1667-0.4811 0.0000 (  4476 PWs)   bands (ev):

   -38.6276 -38.6149 -38.5893 -38.5641 -38.5202 -38.4289 -38.3912 -38.3428
   -38.3330 -38.2960 -38.2511 -38.2438 -38.2190 -38.1731 -38.1244 -38.1050
   -38.1035 -37.8833 -37.8830 -37.7452 -37.7450   2.8938   3.1062   3.1552
     3.3180   3.4025   3.4913   3.6656   3.8757   4.0376   4.1730   4.4435
     4.6316   4.8815   5.0296   5.4419   5.5226   5.7533   5.9462   6.0479
     6.1619   6.5245   6.6721   6.9312   7.0677   7.1949   7.6186   7.8167
     7.8356   7.9875   8.1424   8.5522   8.8386   8.8942   9.0495   9.2188
    11.1451  11.4106  11.7283  12.3035  13.2453  14.4239  15.5671  16.7460

          k = 0.1667-0.3528 0.0000 (  4458 PWs)   bands (ev):

   -38.5590 -38.5483 -38.5297 -38.5118 -38.4612 -38.4346 -38.3718 -38.2862
   -38.2746 -38.2695 -38.2072 -38.1915 -38.1861 -38.1476 -38.0921 -38.0321
   -38.0316 -37.8318 -37.8317 -37.7515 -37.7513   3.1829   3.2790   3.3788
     3.5154   3.6335   3.7314   3.8457   3.9914   4.2299   4.2914   4.4579
     4.6625   4.8469   4.9585   5.2202   5.3272   5.3700   5.5910   5.7864
     5.8665   6.1224   6.1685   6.4502   6.7287   6.8867   7.0539   7.3246
     7.4826   7.6953   7.8718   8.3462   8.5378   8.6512   8.6789   8.8959
     9.2868   9.3535   9.4849  10.1503  11.3849  12.8184  14.2716  15.4997

          k = 0.1667-0.2245 0.0000 (  4433 PWs)   bands (ev):

   -38.5816 -38.5584 -38.4590 -38.4109 -38.3674 -38.3092 -38.2924 -38.2498
   -38.2068 -38.2051 -38.1678 -38.1438 -38.1220 -38.0898 -38.0646 -37.9234
   -37.9232 -37.7691 -37.7690 -37.7593 -37.7589   2.4043   2.7086   3.1984
     3.5532   3.6776   3.8320   3.9628   4.1353   4.2653   4.3138   4.4807
     4.6547   4.7852   5.0954   5.2797   5.4343   5.5135   5.6226   5.7368
     5.8123   6.0688   6.2279   6.5137   6.5749   6.5993   6.8229   6.9113
     7.1682   7.1848   7.2692   7.5878   7.6910   7.8838   8.0370   8.0501
     8.1567   8.4733   8.6955   8.9651  10.0607  11.3528  12.6684  13.6975

          k = 0.1667-0.0962 0.0000 (  4427 PWs)   bands (ev):

   -38.6262 -38.5823 -38.4297 -38.3235 -38.2657 -38.2278 -38.1961 -38.1801
   -38.1725 -38.1702 -38.1146 -38.1089 -38.0856 -38.0689 -38.0340 -37.8257
   -37.8255 -37.7666 -37.7660 -37.7301 -37.7299   1.5941   2.0186   2.6797
     3.0792   3.1692   3.4709   3.5402   4.3914   4.6575   4.7677   4.8201
     4.9769   4.9944   5.5011   5.5521   5.6905   5.7596   5.8085   5.9060
     5.9729   6.0033   6.0957   6.1073   6.1406   6.3250   6.4383   6.6035
     6.7070   6.9188   6.9585   7.1489   7.2851   7.5122   7.5984   7.8684
     8.1785   8.2879   8.7043   8.9187   9.1416  10.2890  11.4393  12.2267

          k = 0.2778 0.4811 0.0000 (  4485 PWs)   bands (ev):

   -38.5900 -38.5868 -38.5571 -38.5444 -38.4878 -38.4712 -38.4358 -38.3900
   -38.3654 -38.3412 -38.3007 -38.2871 -38.2104 -38.2064 -38.1375 -38.0833
   -38.0830 -37.9541 -37.9540 -37.7427 -37.7423   3.3111   3.3311   3.4901
     3.5679   3.8121   3.9475   4.0963   4.1463   4.2334   4.3131   4.3924
     4.4710   4.8060   4.9564   5.1273   5.3306   5.5908   5.6892   6.0223
     6.0335   6.2483   6.2487   6.7502   6.8633   7.0121   7.2543   7.4147
     7.4827   7.8185   8.1684   8.5377   8.8050   8.8430   8.9063   9.1138
    12.4930  12.7239  13.1874  13.8731  14.8054  15.9060  16.8263  16.9393

          k = 0.2778 0.6094 0.0000 (  4491 PWs)   bands (ev):

   -38.5832 -38.5736 -38.5429 -38.5377 -38.5034 -38.4762 -38.4495 -38.4183
   -38.3886 -38.3669 -38.3082 -38.3027 -38.2133 -38.2022 -38.1500 -38.0752
   -38.0749 -37.9862 -37.9861 -37.7414 -37.7409   3.2830   3.5186   3.5574
     3.7077   3.8224   3.9708   4.0211   4.0835   4.1685   4.3300   4.3871
     4.5547   4.7033   5.0847   5.1875   5.4098   5.5356   5.6803   5.9393
     5.9941   6.2908   6.3126   6.7212   6.9224   7.1021   7.2523   7.4541
     7.5204   8.1145   8.3267   8.4744   8.6312   8.6989   8.7478   8.8912
    13.7051  14.0031  14.4641  14.9062  15.2938  15.7622  16.2964  16.5126

          k = 0.2778-0.4170 0.0000 (  4462 PWs)   bands (ev):

   -38.5971 -38.5880 -38.5663 -38.5438 -38.4969 -38.4532 -38.4046 -38.3514
   -38.3447 -38.3096 -38.2713 -38.2556 -38.2106 -38.1954 -38.1214 -38.0846
   -38.0841 -37.9087 -37.9085 -37.7446 -37.7444   3.1709   3.3055   3.3885
     3.5306   3.6619   3.7545   3.9197   4.1244   4.2316   4.2883   4.5193
     4.6814   4.7443   4.8439   5.1874   5.2611   5.5796   5.7736   6.0152
     6.0884   6.2435   6.3188   6.5450   6.8375   7.0519   7.2714   7.4417
     7.5634   7.6684   8.0252   8.5423   8.9026   8.9284   9.0263   9.2179
    11.3198  11.4698  11.8272  12.4837  13.5004  14.7674  16.0959  17.2537

          k = 0.2778-0.2887 0.0000 (  4463 PWs)   bands (ev):

   -38.5769 -38.5648 -38.5519 -38.5334 -38.4598 -38.4476 -38.3759 -38.2835
   -38.2715 -38.2627 -38.2059 -38.1923 -38.1812 -38.1257 -38.0976 -38.0539
   -38.0527 -37.8194 -37.8192 -37.7511 -37.7509   2.9400   3.0534   3.1904
     3.2348   3.3521   3.4745   3.6162   3.8488   4.0433   4.1869   4.5362
     4.7771   5.1261   5.1692   5.3866   5.5249   5.6203   5.8001   5.9775
     6.1393   6.3432   6.5642   6.6891   6.8207   7.1220   7.3351   7.4772
     7.5783   7.8265   8.1272   8.3678   8.4645   8.6551   8.6734   8.9297
     9.1379   9.3211   9.4010  10.0592  11.3341  12.8219  14.3215  15.5920

          k = 0.2778-0.1604 0.0000 (  4458 PWs)   bands (ev):

   -38.5723 -38.5496 -38.5003 -38.4741 -38.4168 -38.3691 -38.3336 -38.2611
   -38.2201 -38.2167 -38.1884 -38.1529 -38.1236 -38.0937 -38.0684 -37.9850
   -37.9847 -37.7708 -37.7706 -37.7574 -37.7570   2.5576   2.8151   3.0224
     3.1236   3.3924   3.5014   3.7648   3.8455   4.1054   4.2598   4.6751
     4.9189   5.1425   5.3197   5.5490   5.6852   5.7613   5.8376   6.0126
     6.1516   6.4180   6.5066   6.5515   6.7178   6.8447   7.0693   7.2737
     7.3307   7.4201   7.4743   7.6539   7.8330   7.8732   7.9604   8.1056
     8.3295   8.7448   8.9196   8.9858  10.2701  11.7425  13.1727  14.2992

          k = 0.3889 0.6736 0.0000 (  4511 PWs)   bands (ev):

   -38.6197 -38.6064 -38.5728 -38.5557 -38.5161 -38.4340 -38.4284 -38.3821
   -38.3815 -38.3392 -38.2951 -38.2798 -38.2246 -38.1912 -38.1433 -38.1012
   -38.1009 -37.9446 -37.9442 -37.7423 -37.7422   3.0096   3.3052   3.3909
     3.5853   3.6141   3.7694   3.7809   4.0562   4.1553   4.2322   4.4761
     4.5041   4.6879   4.9235   5.3009   5.4822   5.7204   5.9017   5.9285
     6.2631   6.3416   6.7232   6.7267   6.8121   7.1591   7.4905   7.7184
     7.8526   8.2694   8.3885   8.4586   8.6358   8.7135   8.9256   8.9312
    13.2363  13.5378  13.8441  14.1481  14.5098  14.9225  15.2576  16.6380

          k = 0.3889-0.3528 0.0000 (  4485 PWs)   bands (ev):

   -38.6611 -38.6479 -38.6185 -38.5900 -38.5491 -38.4116 -38.3909 -38.3191
   -38.3099 -38.2781 -38.2452 -38.2189 -38.2153 -38.1490 -38.1372 -38.1250
   -38.1174 -37.8521 -37.8519 -37.7461 -37.7459   2.6235   2.8161   2.8939
     2.9656   3.1242   3.2335   3.3405   3.6585   3.7866   3.8764   4.4059
     4.7173   5.0112   5.3516   5.4861   5.6889   5.8224   5.9002   6.4106
     6.5720   6.6415   7.1848   7.2883   7.6451   7.7794   7.9084   8.2619
     8.3863   8.3929   8.4773   8.6282   8.8091   8.9061   9.0433   9.2270
    10.7711  11.2605  11.6578  12.0098  12.7595  13.7459  14.5622  16.4254

          k = 0.3889-0.2245 0.0000 (  4444 PWs)   bands (ev):

   -38.6367 -38.6249 -38.6025 -38.5782 -38.5197 -38.4308 -38.3885 -38.2837
   -38.2611 -38.2567 -38.2301 -38.1905 -38.1567 -38.1333 -38.1091 -38.0999
   -38.0992 -37.8061 -37.8060 -37.7496 -37.7493   2.5739   2.6314   2.7783
     2.8955   2.9651   3.1539   3.2031   3.5406   3.6401   3.8430   4.5071
     4.9436   5.3187   5.4017   5.5156   5.8119   5.8537   5.9386   6.4312
     6.6506   6.8180   7.1221   7.5348   7.7929   8.0738   8.1984   8.2735
     8.4284   8.4918   8.5543   8.5739   8.6963   8.7446   8.8630   8.9736
     9.1014   9.1968   9.4453   9.9822  11.4044  12.9954  14.5612  16.0885

          k =-0.5000-0.8660 0.0000 (  4492 PWs)   bands (ev):

   -38.6935 -38.6806 -38.6503 -38.6160 -38.5800 -38.4016 -38.4012 -38.2783
   -38.2727 -38.2669 -38.2649 -38.2054 -38.1699 -38.1691 -38.1527 -38.1250
   -38.1115 -37.8203 -37.8202 -37.7472 -37.7471   2.3469   2.5383   2.6031
     2.6996   2.8513   3.0087   3.0127   3.3898   3.4473   3.6865   4.3958
     4.8861   5.1453   5.2897   5.4083   5.7208   6.1706   6.2182   6.3751
     7.0736   7.1239   7.2179   7.8949   8.1585   8.3694   8.5131   8.7955
     8.8954   8.9079   8.9981   9.0113   9.0673   9.2000   9.3764   9.3843
     9.7347  10.8404  11.7494  11.9516  12.3506  12.4928  12.6287  16.0957

     the Fermi energy is     8.3521 ev

!    total energy              =   -1198.23270301 Ry
     estimated scf accuracy    <       0.00000009 Ry
     smearing contrib. (-TS)   =      -0.03005398 Ry
     internal energy E=F+TS    =   -1198.20264903 Ry

     The total energy is F=E-TS. E is the sum of the following terms:
     one-electron contribution =  -13562.34212407 Ry
     hartree contribution      =    6826.93936034 Ry
     xc contribution           =    -209.38673707 Ry
     ewald contribution        =    5746.58685177 Ry

     total magnetization       =    -0.00 Bohr mag/cell
     absolute magnetization    =     0.00 Bohr mag/cell

     convergence has been achieved in  11 iterations

     negative rho (up, down):  1.943E-01 1.943E-01

     Forces acting on atoms (cartesian axes, Ry/au):

     atom    1 type  1   force =     0.00000000    0.00000000    0.00039238
     atom    2 type  1   force =     0.00000000    0.00000000   -0.00087192
     atom    3 type  1   force =     0.00000000    0.00000000    0.00074358
     atom    4 type  1   force =     0.00000000    0.00000000   -0.00001254
     atom    5 type  1   force =     0.00000000    0.00000000   -0.00075796
     atom    6 type  1   force =     0.00000000    0.00000000    0.00087763
     atom    7 type  1   force =     0.00000000    0.00000000   -0.00037116

     Total force =     0.001717     Total SCF correction =     0.001985
     SCF correction compared to forces is large: reduce conv_thr to get better values
     Energy error            =      1.2E-05
     Gradient error          =      8.8E-04
Begin final coordinates

ATOMIC_POSITIONS (angstrom)
Rh            0.0000000000        0.0000000000        0.0476691511
Rh            1.3554284000       -0.7825569000        2.2206088013
Rh            1.3554284000        0.7825569000        4.4169713170
Rh            0.0000000000        0.0000000000        6.6402061291
Rh            1.3554284000       -0.7825569000        8.8634694666
Rh            1.3554284000        0.7825569000       11.0598440126
Rh            0.0000000000        0.0000000000       13.2327422224
End final coordinates



     Writing output data file /home/STUDENTI/leonardo.razzai/Rh_work/surf_111/7-L.save/

     lsda relaxation :  a final configuration with zero
                        absolute magnetization has been found

     the program is checking if it is really the minimum energy structure
     by performing a new scf iteration without any "electronic" history

     Initial potential from superposition of free atoms

     starting charge  101.49931, renormalised to  105.00000

     negative rho (up, down):  1.916E-01 1.878E-01

     total cpu time spent up to now is     1100.0 secs

     Self-consistent Calculation

     iteration #  1     ecut=    35.00 Ry     beta= 0.40
     Davidson diagonalization with overlap
     c_bands:  1 eigenvalues not converged
     c_bands:  1 eigenvalues not converged
     c_bands:  1 eigenvalues not converged
     c_bands:  1 eigenvalues not converged
     c_bands:  1 eigenvalues not converged
     c_bands:  1 eigenvalues not converged
     c_bands:  1 eigenvalues not converged
     c_bands:  1 eigenvalues not converged
     c_bands:  1 eigenvalues not converged
     c_bands:  1 eigenvalues not converged
     c_bands:  1 eigenvalues not converged
     ethr =  1.00E-06,  avg # of iterations = 15.2

     negative rho (up, down):  1.936E-01 1.918E-01

     total cpu time spent up to now is     1125.0 secs

     total energy              =   -1198.37827245 Ry
     estimated scf accuracy    <       5.25168743 Ry

     total magnetization       =     0.38 Bohr mag/cell
     absolute magnetization    =     0.39 Bohr mag/cell

     iteration #  2     ecut=    35.00 Ry     beta= 0.40
     Davidson diagonalization with overlap
     ethr =  5.00E-03,  avg # of iterations =  1.0

     negative rho (up, down):  1.985E-01 1.985E-01

     total cpu time spent up to now is     1132.7 secs

     total energy              =   -1198.11277633 Ry
     estimated scf accuracy    <       1.21672059 Ry

     total magnetization       =     0.35 Bohr mag/cell
     absolute magnetization    =     0.36 Bohr mag/cell

     iteration #  3     ecut=    35.00 Ry     beta= 0.40
     Davidson diagonalization with overlap
     ethr =  1.16E-03,  avg # of iterations =  2.0

     negative rho (up, down):  2.004E-01 2.012E-01

     total cpu time spent up to now is     1141.8 secs

     total energy              =   -1198.21588587 Ry
     estimated scf accuracy    <       0.20883946 Ry

     total magnetization       =     0.29 Bohr mag/cell
     absolute magnetization    =     0.30 Bohr mag/cell

     iteration #  4     ecut=    35.00 Ry     beta= 0.40
     Davidson diagonalization with overlap
     ethr =  1.99E-04,  avg # of iterations =  2.5

     negative rho (up, down):  2.013E-01 2.021E-01

     total cpu time spent up to now is     1150.5 secs

     total energy              =   -1198.23316991 Ry
     estimated scf accuracy    <       0.04589973 Ry

     total magnetization       =     0.24 Bohr mag/cell
     absolute magnetization    =     0.26 Bohr mag/cell

     iteration #  5     ecut=    35.00 Ry     beta= 0.40
     Davidson diagonalization with overlap
     ethr =  4.37E-05,  avg # of iterations =  7.2

     negative rho (up, down):  2.022E-01 2.030E-01

     total cpu time spent up to now is     1160.6 secs

     total energy              =   -1198.23356335 Ry
     estimated scf accuracy    <       0.00280768 Ry

     total magnetization       =     0.20 Bohr mag/cell
     absolute magnetization    =     0.22 Bohr mag/cell

     iteration #  6     ecut=    35.00 Ry     beta= 0.40
     Davidson diagonalization with overlap
     c_bands:  1 eigenvalues not converged
     c_bands:  1 eigenvalues not converged
     ethr =  2.67E-06,  avg # of iterations =  7.7

     negative rho (up, down):  2.018E-01 2.025E-01

     total cpu time spent up to now is     1171.1 secs

     total energy              =   -1198.23345175 Ry
     estimated scf accuracy    <       0.00320184 Ry

     total magnetization       =     0.15 Bohr mag/cell
     absolute magnetization    =     0.17 Bohr mag/cell

     iteration #  7     ecut=    35.00 Ry     beta= 0.40
     Davidson diagonalization with overlap
     c_bands:  1 eigenvalues not converged
     ethr =  2.67E-06,  avg # of iterations =  3.8

     negative rho (up, down):  1.999E-01 2.001E-01

     total cpu time spent up to now is     1179.9 secs

     total energy              =   -1198.23337529 Ry
     estimated scf accuracy    <       0.00142109 Ry

     total magnetization       =     0.11 Bohr mag/cell
     absolute magnetization    =     0.12 Bohr mag/cell

     iteration #  8     ecut=    35.00 Ry     beta= 0.40
     Davidson diagonalization with overlap
     c_bands:  1 eigenvalues not converged
     c_bands:  1 eigenvalues not converged
     ethr =  1.35E-06,  avg # of iterations =  6.3

     negative rho (up, down):  1.983E-01 1.981E-01

     total cpu time spent up to now is     1189.7 secs

     total energy              =   -1198.23307650 Ry
     estimated scf accuracy    <       0.00174103 Ry

     total magnetization       =     0.04 Bohr mag/cell
     absolute magnetization    =     0.05 Bohr mag/cell

     iteration #  9     ecut=    35.00 Ry     beta= 0.40
     Davidson diagonalization with overlap
     ethr =  1.35E-06,  avg # of iterations =  6.0

     negative rho (up, down):  1.975E-01 1.970E-01

     total cpu time spent up to now is     1199.3 secs

     total energy              =   -1198.23290313 Ry
     estimated scf accuracy    <       0.00081558 Ry

     total magnetization       =    -0.02 Bohr mag/cell
     absolute magnetization    =     0.04 Bohr mag/cell

     iteration # 10     ecut=    35.00 Ry     beta= 0.40
     Davidson diagonalization with overlap
     ethr =  7.77E-07,  avg # of iterations =  6.7

     negative rho (up, down):  1.955E-01 1.950E-01

     total cpu time spent up to now is     1209.0 secs

     total energy              =   -1198.23267584 Ry
     estimated scf accuracy    <       0.00029399 Ry

     total magnetization       =    -0.05 Bohr mag/cell
     absolute magnetization    =     0.06 Bohr mag/cell

     iteration # 11     ecut=    35.00 Ry     beta= 0.40
     Davidson diagonalization with overlap
     c_bands:  1 eigenvalues not converged
     ethr =  2.80E-07,  avg # of iterations =  8.6

     negative rho (up, down):  1.952E-01 1.948E-01

     total cpu time spent up to now is     1220.4 secs

     total energy              =   -1198.23269990 Ry
     estimated scf accuracy    <       0.00005054 Ry

     total magnetization       =    -0.09 Bohr mag/cell
     absolute magnetization    =     0.10 Bohr mag/cell

     iteration # 12     ecut=    35.00 Ry     beta= 0.40
     Davidson diagonalization with overlap
     ethr =  4.81E-08,  avg # of iterations =  1.4

     negative rho (up, down):  1.949E-01 1.945E-01

     total cpu time spent up to now is     1228.4 secs

     total energy              =   -1198.23269696 Ry
     estimated scf accuracy    <       0.00001031 Ry

     total magnetization       =    -0.08 Bohr mag/cell
     absolute magnetization    =     0.09 Bohr mag/cell

     iteration # 13     ecut=    35.00 Ry     beta= 0.40
     Davidson diagonalization with overlap
     ethr =  9.81E-09,  avg # of iterations =  3.4

     negative rho (up, down):  1.945E-01 1.943E-01

     total cpu time spent up to now is     1237.6 secs

     total energy              =   -1198.23269697 Ry
     estimated scf accuracy    <       0.00000382 Ry

     total magnetization       =    -0.07 Bohr mag/cell
     absolute magnetization    =     0.07 Bohr mag/cell

     iteration # 14     ecut=    35.00 Ry     beta= 0.40
     Davidson diagonalization with overlap
     ethr =  3.64E-09,  avg # of iterations =  4.1

     negative rho (up, down):  1.945E-01 1.943E-01

     total cpu time spent up to now is     1247.9 secs

     total energy              =   -1198.23270085 Ry
     estimated scf accuracy    <       0.00000110 Ry

     total magnetization       =    -0.04 Bohr mag/cell
     absolute magnetization    =     0.04 Bohr mag/cell

     iteration # 15     ecut=    35.00 Ry     beta= 0.40
     Davidson diagonalization with overlap
     ethr =  1.05E-09,  avg # of iterations =  1.9

     negative rho (up, down):  1.944E-01 1.943E-01

     total cpu time spent up to now is     1256.6 secs

     total energy              =   -1198.23270152 Ry
     estimated scf accuracy    <       0.00000050 Ry

     total magnetization       =    -0.03 Bohr mag/cell
     absolute magnetization    =     0.03 Bohr mag/cell

     iteration # 16     ecut=    35.00 Ry     beta= 0.40
     Davidson diagonalization with overlap
     ethr =  4.76E-10,  avg # of iterations =  1.7

     negative rho (up, down):  1.944E-01 1.943E-01

     total cpu time spent up to now is     1265.1 secs

     total energy              =   -1198.23270194 Ry
     estimated scf accuracy    <       0.00000027 Ry

     total magnetization       =    -0.02 Bohr mag/cell
     absolute magnetization    =     0.03 Bohr mag/cell

     iteration # 17     ecut=    35.00 Ry     beta= 0.40
     Davidson diagonalization with overlap
     ethr =  2.56E-10,  avg # of iterations =  2.2

     negative rho (up, down):  1.944E-01 1.943E-01

     total cpu time spent up to now is     1275.0 secs

     total energy              =   -1198.23270265 Ry
     estimated scf accuracy    <       0.00000013 Ry

     total magnetization       =    -0.01 Bohr mag/cell
     absolute magnetization    =     0.02 Bohr mag/cell

     iteration # 18     ecut=    35.00 Ry     beta= 0.40
     Davidson diagonalization with overlap
     ethr =  1.21E-10,  avg # of iterations =  2.1

     negative rho (up, down):  1.944E-01 1.943E-01
 
     Magnetic moment per site:
     atom:    1    charge:   13.1070    magn:   -0.0035    constr:    0.0000
     atom:    2    charge:   13.1651    magn:   -0.0017    constr:    0.0000
     atom:    3    charge:   13.1616    magn:    0.0006    constr:    0.0000
     atom:    4    charge:   13.1557    magn:    0.0011    constr:    0.0000
     atom:    5    charge:   13.1617    magn:    0.0006    constr:    0.0000
     atom:    6    charge:   13.1647    magn:   -0.0017    constr:    0.0000
     atom:    7    charge:   13.1070    magn:   -0.0035    constr:    0.0000

     total cpu time spent up to now is     1284.2 secs

     End of self-consistent calculation

 ------ SPIN UP ------------


          k = 0.0556 0.0962 0.0000 (  4451 PWs)   bands (ev):

   -38.6553 -38.6006 -38.4221 -38.2714 -38.1798 -38.1699 -38.1485 -38.1473
   -38.1160 -38.1130 -38.0842 -38.0727 -38.0587 -38.0458 -38.0185 -37.7715
   -37.7705 -37.7395 -37.7394 -37.7078 -37.7077   1.0241   1.4904   2.2066
     2.7036   2.7189   3.0355   3.0816   4.8975   4.9249   5.1102   5.1624
     5.2623   5.3623   5.5569   5.5629   5.5908   5.6440   5.6603   5.6899
     5.7739   5.8461   5.8928   5.9651   6.0931   6.2014   6.2070   6.7597
     7.0457   7.0907   7.2782   7.3319   7.5198   7.5581   7.6763   7.7628
     8.0678   8.1060   8.6030   8.6279   8.8250   9.3826  10.3131  10.8654

          k = 0.0556 0.2245 0.0000 (  4420 PWs)   bands (ev):

   -38.6045 -38.5686 -38.4368 -38.3585 -38.3082 -38.2588 -38.2372 -38.2144
   -38.1815 -38.1801 -38.1436 -38.1188 -38.0979 -38.0721 -38.0462 -37.8658
   -37.8657 -37.7596 -37.7592 -37.7409 -37.7404   1.9378   2.3214   2.9227
     3.2687   3.3967   3.6820   3.7784   4.2093   4.4796   4.5886   4.6337
     4.8286   4.8626   5.3542   5.4692   5.6197   5.7193   5.8011   5.8330
     5.9193   6.0322   6.1856   6.2857   6.4217   6.5131   6.6388   6.7215
     6.7738   6.9231   7.0610   7.1648   7.3335   7.6298   7.7208   7.9710
     8.0985   8.5224   8.6714   8.8317   9.5570  10.7594  11.9865  12.8861

          k = 0.0556 0.3528 0.0000 (  4467 PWs)   bands (ev):

   -38.5682 -38.5463 -38.5294 -38.5082 -38.4419 -38.4095 -38.3570 -38.2703
   -38.2368 -38.2317 -38.1959 -38.1673 -38.1429 -38.1005 -38.0816 -38.0194
   -38.0187 -37.7846 -37.7846 -37.7505 -37.7502   2.7278   2.9807   3.0227
     3.1172   3.3469   3.4078   3.6418   3.8102   4.0806   4.1384   4.6298
     4.9444   5.1186   5.3537   5.5414   5.6427   5.6881   5.7757   6.0292
     6.1580   6.4434   6.5982   6.7399   6.8168   7.0373   7.3038   7.4700
     7.5310   7.7241   7.8371   7.9888   8.1019   8.2866   8.3608   8.4894
     8.5010   8.6769   8.9245   9.3228  10.6759  12.1867  13.6707  14.8759

          k = 0.0556 0.4811 0.0000 (  4463 PWs)   bands (ev):

   -38.6546 -38.6413 -38.6157 -38.5882 -38.5404 -38.4182 -38.3886 -38.2873
   -38.2763 -38.2663 -38.2348 -38.2005 -38.1770 -38.1362 -38.1247 -38.1132
   -38.1056 -37.8175 -37.8175 -37.7438 -37.7436   2.5419   2.6625   2.7738
     2.8650   2.9886   3.1564   3.1745   3.5473   3.6343   3.8077   4.4507
     4.8676   5.2060   5.3855   5.4899   5.7335   5.9216   5.9695   6.4830
     6.6649   6.8271   7.2249   7.5132   7.8554   8.0505   8.0977   8.3906
     8.4779   8.5825   8.6254   8.7198   8.7447   8.8898   8.9940   9.1543
     9.5863  10.1221  10.4511  10.7853  11.8803  13.2885  14.6437  16.3761

          k = 0.0556-0.5453 0.0000 (  4486 PWs)   bands (ev):

   -38.6829 -38.6688 -38.6394 -38.6075 -38.5700 -38.4022 -38.3941 -38.2898
   -38.2847 -38.2662 -38.2514 -38.2079 -38.1866 -38.1523 -38.1450 -38.1218
   -38.1162 -37.8253 -37.8250 -37.7425 -37.7424   2.4242   2.6116   2.6847
     2.7648   2.9269   3.0689   3.0975   3.4688   3.5394   3.7324   4.4059
     4.8382   5.1148   5.3408   5.4245   5.7456   5.9743   6.1231   6.4892
     6.8042   7.0654   7.2796   7.7148   8.0780   8.2025   8.4586   8.4923
     8.7038   8.7885   8.8725   8.9020   8.9711   9.0457   9.1511   9.2696
    10.2125  11.0062  11.7416  11.9053  12.2051  12.9193  13.4913  16.1869

          k = 0.0556-0.4170 0.0000 (  4465 PWs)   bands (ev):

   -38.6040 -38.5939 -38.5768 -38.5555 -38.4867 -38.4393 -38.3808 -38.2811
   -38.2598 -38.2533 -38.2163 -38.1867 -38.1619 -38.1166 -38.1003 -38.0798
   -38.0761 -37.8037 -37.8037 -37.7467 -37.7463   2.7321   2.7562   2.9337
     3.0287   3.0910   3.2832   3.3549   3.6701   3.8228   3.9469   4.5424
     4.9100   5.3248   5.4628   5.5667   5.6274   5.7041   5.9485   6.2558
     6.3798   6.6013   6.9942   7.1762   7.3856   7.5757   7.6899   8.0102
     8.0914   8.1359   8.2578   8.3676   8.5193   8.6252   8.7368   8.8989
     9.0281   9.2079   9.2810   9.9231  11.2943  12.8638  14.4264  15.7924

          k = 0.0556-0.2887 0.0000 (  4439 PWs)   bands (ev):

   -38.5755 -38.5529 -38.4713 -38.4338 -38.3851 -38.3304 -38.3057 -38.2498
   -38.2093 -38.2061 -38.1732 -38.1434 -38.1207 -38.0848 -38.0632 -37.9447
   -37.9442 -37.7627 -37.7626 -37.7546 -37.7542   2.4537   2.7341   3.1116
     3.2757   3.5019   3.6931   3.8951   4.0311   4.2234   4.3722   4.6134
     4.6745   4.9896   5.1296   5.4982   5.6799   5.7584   5.7868   5.8997
     6.0257   6.1062   6.2758   6.3701   6.6828   6.7185   6.8361   6.9852
     7.1653   7.2261   7.3398   7.5861   7.6968   7.8358   7.9706   8.0821
     8.2628   8.5822   8.8691   8.9345  10.0977  11.4747  12.8393  13.9027

          k = 0.0556-0.1604 0.0000 (  4443 PWs)   bands (ev):

   -38.6337 -38.5863 -38.4249 -38.3020 -38.2354 -38.2075 -38.1786 -38.1703
   -38.1558 -38.1479 -38.1068 -38.0968 -38.0738 -38.0635 -38.0309 -37.7967
   -37.7966 -37.7634 -37.7631 -37.7218 -37.7218   1.4179   1.8603   2.5504
     3.0073   3.0397   3.3552   3.4012   4.5799   4.7004   4.8644   4.9369
     5.0510   5.0895   5.4251   5.5629   5.6728   5.7248   5.7967   5.8705
     5.8790   5.9315   5.9818   6.0284   6.2072   6.2710   6.4317   6.5057
     6.8864   6.9754   7.0554   7.1241   7.3048   7.5051   7.6436   7.8667
     8.0144   8.3737   8.5713   8.8093   9.0622  10.0507  11.1293  11.8487

          k = 0.0556-0.0321 0.0000 (  4465 PWs)   bands (ev):

   -38.6669 -38.6087 -38.4227 -38.2610 -38.1496 -38.1470 -38.1387 -38.1372
   -38.0916 -38.0855 -38.0786 -38.0598 -38.0576 -38.0231 -38.0116 -37.7735
   -37.7722 -37.7117 -37.7115 -37.7005 -37.7003   0.8153   1.2898   2.0128
     2.5193   2.5490   2.8523   2.8990   5.0721   5.1124   5.2584   5.3239
     5.3797   5.4153   5.4229   5.4788   5.5111   5.6144   5.6394   5.6467
     5.7038   5.7334   5.9220   5.9793   6.0444   6.0586   6.3069   7.1514
     7.1832   7.2589   7.3639   7.3736   7.5182   7.5566   7.8076   7.9234
     8.1536   8.2651   8.2692   8.6726   8.8411   8.8683   9.6783  10.1155

          k = 0.1667 0.2887 0.0000 (  4425 PWs)   bands (ev):

   -38.5535 -38.5476 -38.4882 -38.4619 -38.4231 -38.3710 -38.3362 -38.2697
   -38.2349 -38.2343 -38.1784 -38.1737 -38.1484 -38.1187 -38.0758 -37.9761
   -37.9760 -37.7955 -37.7955 -37.7510 -37.7506   2.9228   3.0696   3.3516
     3.6862   3.8664   3.8801   3.9900   4.0443   4.0625   4.2575   4.3820
     4.5302   4.9854   5.0254   5.1055   5.3125   5.4874   5.4878   5.5143
     5.6446   6.2101   6.2435   6.4625   6.5545   6.6707   7.1061   7.1525
     7.3106   7.5565   7.7291   7.9573   8.1871   8.3243   8.4422   8.4593
     8.5700   8.6353   8.7304   9.4203  10.6528  12.0401  13.4403  15.3567

          k = 0.1667 0.4170 0.0000 (  4459 PWs)   bands (ev):

   -38.5894 -38.5772 -38.5624 -38.5397 -38.4832 -38.4491 -38.3850 -38.3099
   -38.3069 -38.2831 -38.2299 -38.2217 -38.2023 -38.1637 -38.1067 -38.0715
   -38.0705 -37.8576 -37.8576 -37.7436 -37.7434   3.0935   3.1607   3.2963
     3.4493   3.5052   3.5704   3.8001   3.8859   4.1052   4.2881   4.5509
     4.6619   4.9069   5.0814   5.1825   5.4224   5.5229   5.8866   5.9652
     6.1273   6.2051   6.4454   6.5693   6.8423   7.1372   7.2853   7.4171
     7.6364   7.7748   8.0165   8.5000   8.7837   8.8798   8.9479   9.1232
    10.1809  10.3290  10.5478  11.1730  12.2949  13.6872  15.1366  16.4225

          k = 0.1667 0.5453 0.0000 (  4490 PWs)   bands (ev):

   -38.6455 -38.6323 -38.6007 -38.5754 -38.5367 -38.4096 -38.3899 -38.3592
   -38.3429 -38.3028 -38.2639 -38.2431 -38.2291 -38.1730 -38.1337 -38.1167
   -38.1161 -37.8915 -37.8913 -37.7396 -37.7395   2.7871   3.0774   3.0904
     3.2167   3.3648   3.4515   3.5975   3.8418   4.0356   4.0853   4.4281
     4.5313   4.7713   5.1570   5.4744   5.6437   5.7247   5.9378   6.1973
     6.3147   6.5432   6.8220   7.1974   7.2470   7.3484   7.7282   8.0228
     8.1694   8.2968   8.4153   8.5943   8.7217   8.8104   9.0051   9.1328
    12.0400  12.4647  12.8858  13.2875  13.7930  14.2705  14.5215  16.4800

          k = 0.1667-0.4811 0.0000 (  4476 PWs)   bands (ev):

   -38.6252 -38.6121 -38.5874 -38.5622 -38.5186 -38.4266 -38.3889 -38.3402
   -38.3303 -38.2942 -38.2494 -38.2421 -38.2172 -38.1716 -38.1228 -38.1016
   -38.1003 -37.8798 -37.8795 -37.7409 -37.7408   2.8958   3.1082   3.1575
     3.3201   3.4049   3.4934   3.6678   3.8780   4.0399   4.1754   4.4460
     4.6340   4.8836   5.0320   5.4441   5.5252   5.7560   5.9488   6.0500
     6.1643   6.5269   6.6745   6.9339   7.0703   7.1974   7.6209   7.8191
     7.8383   7.9904   8.1453   8.5553   8.8406   8.8970   9.0520   9.2209
    11.1472  11.4129  11.7306  12.3057  13.2476  14.4261  15.5692  16.7486

          k = 0.1667-0.3528 0.0000 (  4458 PWs)   bands (ev):

   -38.5568 -38.5459 -38.5277 -38.5093 -38.4590 -38.4329 -38.3698 -38.2841
   -38.2719 -38.2668 -38.2056 -38.1896 -38.1846 -38.1462 -38.0906 -38.0286
   -38.0282 -37.8282 -37.8281 -37.7473 -37.7472   3.1849   3.2810   3.3809
     3.5175   3.6357   3.7336   3.8480   3.9937   4.2322   4.2935   4.4604
     4.6646   4.8492   4.9609   5.2226   5.3295   5.3721   5.5933   5.7891
     5.8690   6.1250   6.1712   6.4528   6.7310   6.8892   7.0563   7.3266
     7.4854   7.6984   7.8746   8.3492   8.5399   8.6536   8.6817   8.8980
     9.2888   9.3559   9.4877  10.1527  11.3873  12.8207  14.2740  15.5028

          k = 0.1667-0.2245 0.0000 (  4433 PWs)   bands (ev):

   -38.5796 -38.5561 -38.4570 -38.4083 -38.3648 -38.3073 -38.2907 -38.2479
   -38.2041 -38.2025 -38.1660 -38.1421 -38.1204 -38.0884 -38.0632 -37.9199
   -37.9197 -37.7655 -37.7654 -37.7552 -37.7548   2.4064   2.7106   3.2004
     3.5552   3.6797   3.8342   3.9650   4.1375   4.2674   4.3161   4.4831
     4.6569   4.7874   5.0978   5.2819   5.4369   5.5163   5.6252   5.7392
     5.8142   6.0710   6.2304   6.5164   6.5776   6.6020   6.8251   6.9137
     7.1706   7.1870   7.2715   7.5903   7.6935   7.8864   8.0395   8.0530
     8.1592   8.4764   8.6978   8.9677  10.0631  11.3552  12.6708  13.7001

          k = 0.1667-0.0962 0.0000 (  4427 PWs)   bands (ev):

   -38.6242 -38.5800 -38.4276 -38.3212 -38.2630 -38.2255 -38.1944 -38.1784
   -38.1698 -38.1675 -38.1131 -38.1072 -38.0839 -38.0673 -38.0326 -37.8221
   -37.8220 -37.7625 -37.7620 -37.7266 -37.7264   1.5962   2.0205   2.6817
     3.0812   3.1712   3.4732   3.5425   4.3935   4.6599   4.7697   4.8223
     4.9794   4.9968   5.5034   5.5548   5.6928   5.7616   5.8111   5.9085
     5.9754   6.0053   6.0980   6.1097   6.1430   6.3271   6.4409   6.6061
     6.7096   6.9218   6.9609   7.1516   7.2877   7.5148   7.6008   7.8708
     8.1811   8.2905   8.7074   8.9210   9.1440  10.2913  11.4417  12.2289

          k = 0.2778 0.4811 0.0000 (  4485 PWs)   bands (ev):

   -38.5874 -38.5842 -38.5551 -38.5426 -38.4860 -38.4690 -38.4335 -38.3874
   -38.3630 -38.3393 -38.2989 -38.2852 -38.2089 -38.2048 -38.1361 -38.0798
   -38.0796 -37.9506 -37.9506 -37.7385 -37.7381   3.3131   3.3332   3.4921
     3.5703   3.8144   3.9497   4.0983   4.1482   4.2358   4.3155   4.3948
     4.4733   4.8083   4.9585   5.1297   5.3329   5.5931   5.6914   6.0252
     6.0365   6.2511   6.2515   6.7522   6.8655   7.0144   7.2560   7.4176
     7.4856   7.8211   8.1717   8.5410   8.8075   8.8450   8.9089   9.1159
    12.4950  12.7263  13.1898  13.8753  14.8077  15.9082  16.8287  16.9414

          k = 0.2778 0.6094 0.0000 (  4491 PWs)   bands (ev):

   -38.5809 -38.5709 -38.5409 -38.5358 -38.5013 -38.4737 -38.4475 -38.4160
   -38.3868 -38.3649 -38.3062 -38.3006 -38.2117 -38.2006 -38.1486 -38.0717
   -38.0715 -37.9827 -37.9826 -37.7371 -37.7367   3.2850   3.5209   3.5594
     3.7100   3.8245   3.9730   4.0231   4.0859   4.1711   4.3320   4.3895
     4.5570   4.7057   5.0869   5.1899   5.4120   5.5377   5.6826   5.9424
     5.9970   6.2937   6.3155   6.7231   6.9247   7.1042   7.2542   7.4571
     7.5232   8.1173   8.3305   8.4773   8.6333   8.7016   8.7498   8.8933
    13.7071  14.0053  14.4664  14.9083  15.2960  15.7645  16.2986  16.5147

          k = 0.2778-0.4170 0.0000 (  4462 PWs)   bands (ev):

   -38.5947 -38.5853 -38.5644 -38.5418 -38.4952 -38.4510 -38.4023 -38.3487
   -38.3420 -38.3076 -38.2696 -38.2539 -38.2090 -38.1938 -38.1200 -38.0812
   -38.0807 -37.9051 -37.9050 -37.7404 -37.7402   3.1729   3.3076   3.3907
     3.5328   3.6641   3.7567   3.9220   4.1267   4.2338   4.2905   4.5216
     4.6838   4.7465   4.8461   5.1897   5.2634   5.5818   5.7760   6.0181
     6.0912   6.2460   6.3214   6.5472   6.8401   7.0541   7.2733   7.4444
     7.5661   7.6714   8.0283   8.5455   8.9052   8.9307   9.0288   9.2200
    11.3217  11.4721  11.8297  12.4860  13.5027  14.7697  16.0982  17.2569

          k = 0.2778-0.2887 0.0000 (  4463 PWs)   bands (ev):

   -38.5746 -38.5624 -38.5499 -38.5311 -38.4578 -38.4456 -38.3738 -38.2814
   -38.2690 -38.2601 -38.2043 -38.1904 -38.1796 -38.1243 -38.0960 -38.0505
   -38.0494 -37.8159 -37.8156 -37.7469 -37.7467   2.9420   3.0554   3.1925
     3.2370   3.3542   3.4767   3.6185   3.8511   4.0456   4.1892   4.5385
     4.7795   5.1284   5.1716   5.3887   5.5272   5.6226   5.8024   5.9801
     6.1418   6.3457   6.5668   6.6914   6.8233   7.1246   7.3373   7.4798
     7.5807   7.8294   8.1300   8.3704   8.4667   8.6577   8.6760   8.9319
     9.1402   9.3233   9.4037  10.0616  11.3365  12.8242  14.3239  15.5950

          k = 0.2778-0.1604 0.0000 (  4458 PWs)   bands (ev):

   -38.5702 -38.5473 -38.4982 -38.4715 -38.4145 -38.3673 -38.3318 -38.2592
   -38.2176 -38.2141 -38.1867 -38.1511 -38.1218 -38.0923 -38.0670 -37.9815
   -37.9812 -37.7673 -37.7671 -37.7532 -37.7528   2.5597   2.8172   3.0244
     3.1257   3.3945   3.5035   3.7672   3.8478   4.1076   4.2621   4.6775
     4.9211   5.1449   5.3221   5.5512   5.6875   5.7633   5.8400   6.0151
     6.1542   6.4207   6.5090   6.5542   6.7203   6.8471   7.0718   7.2762
     7.3329   7.4227   7.4762   7.6564   7.8357   7.8758   7.9633   8.1081
     8.3320   8.7478   8.9221   8.9881  10.2725  11.7448  13.1751  14.3019

          k = 0.3889 0.6736 0.0000 (  4511 PWs)   bands (ev):

   -38.6173 -38.6037 -38.5708 -38.5538 -38.5144 -38.4317 -38.4258 -38.3795
   -38.3794 -38.3373 -38.2931 -38.2780 -38.2230 -38.1897 -38.1419 -38.0978
   -38.0975 -37.9410 -37.9407 -37.7381 -37.7380   3.0116   3.3075   3.3928
     3.5873   3.6163   3.7717   3.7831   4.0586   4.1577   4.2345   4.4784
     4.5061   4.6903   4.9258   5.3034   5.4847   5.7232   5.9037   5.9314
     6.2655   6.3436   6.7260   6.7291   6.8147   7.1615   7.4927   7.7212
     7.8551   8.2724   8.3921   8.4610   8.6382   8.7161   8.9280   8.9330
    13.2383  13.5399  13.8463  14.1503  14.5120  14.9248  15.2597  16.6398

          k = 0.3889-0.3528 0.0000 (  4485 PWs)   bands (ev):

   -38.6587 -38.6451 -38.6166 -38.5881 -38.5475 -38.4092 -38.3883 -38.3166
   -38.3074 -38.2762 -38.2435 -38.2169 -38.2135 -38.1471 -38.1347 -38.1221
   -38.1151 -37.8485 -37.8484 -37.7419 -37.7417   2.6255   2.8182   2.8961
     2.9676   3.1266   3.2356   3.3427   3.6608   3.7890   3.8789   4.4083
     4.7196   5.0133   5.3540   5.4886   5.6914   5.8247   5.9026   6.4132
     6.5745   6.6438   7.1873   7.2908   7.6477   7.7820   7.9111   8.2647
     8.3891   8.3955   8.4796   8.6311   8.8110   8.9088   9.0460   9.2292
    10.7733  11.2628  11.6600  12.0120  12.7617  13.7481  14.5642  16.4313

          k = 0.3889-0.2245 0.0000 (  4444 PWs)   bands (ev):

   -38.6343 -38.6222 -38.6006 -38.5762 -38.5181 -38.4285 -38.3861 -38.2817
   -38.2586 -38.2540 -38.2283 -38.1887 -38.1549 -38.1312 -38.1057 -38.0978
   -38.0971 -37.8026 -37.8025 -37.7454 -37.7451   2.5759   2.6334   2.7805
     2.8977   2.9672   3.1561   3.2054   3.5431   3.6424   3.8455   4.5094
     4.9459   5.3214   5.4037   5.5176   5.8145   5.8562   5.9409   6.4337
     6.6532   6.8207   7.1245   7.5374   7.7954   8.0767   8.2006   8.2761
     8.4303   8.4942   8.5571   8.5761   8.6983   8.7472   8.8659   8.9768
     9.1039   9.1989   9.4474   9.9845  11.4067  12.9976  14.5634  16.0912

          k =-0.5000-0.8660 0.0000 (  4492 PWs)   bands (ev):

   -38.6911 -38.6778 -38.6485 -38.6141 -38.5784 -38.3990 -38.3986 -38.2758
   -38.2701 -38.2654 -38.2631 -38.2035 -38.1681 -38.1663 -38.1494 -38.1231
   -38.1101 -37.8167 -37.8167 -37.7430 -37.7429   2.3489   2.5403   2.6054
     2.7016   2.8536   3.0109   3.0149   3.3923   3.4498   3.6890   4.3981
     4.8884   5.1479   5.2920   5.4103   5.7233   6.1731   6.2205   6.3776
     7.0764   7.1263   7.2206   7.8976   8.1617   8.3717   8.5161   8.7978
     8.8974   8.9104   9.0001   9.0137   9.0693   9.2019   9.3797   9.3875
     9.7370  10.8424  11.7514  11.9538  12.3528  12.4948  12.6308  16.0985

 ------ SPIN DOWN ----------


          k = 0.0556 0.0962 0.0000 (  4451 PWs)   bands (ev):

   -38.6555 -38.6017 -38.4227 -38.2718 -38.1814 -38.1713 -38.1499 -38.1488
   -38.1154 -38.1128 -38.0838 -38.0721 -38.0581 -38.0449 -38.0175 -37.7758
   -37.7749 -37.7428 -37.7428 -37.7111 -37.7110   1.0241   1.4903   2.2065
     2.7036   2.7191   3.0344   3.0807   4.8971   4.9248   5.1096   5.1620
     5.2614   5.3613   5.5564   5.5623   5.5911   5.6425   5.6599   5.6881
     5.7736   5.8448   5.8924   5.9637   6.0913   6.1995   6.2050   6.7588
     7.0451   7.0907   7.2772   7.3301   7.5190   7.5563   7.6747   7.7611
     8.0662   8.1047   8.6004   8.6272   8.8238   9.3817  10.3118  10.8648

          k = 0.0556 0.2245 0.0000 (  4420 PWs)   bands (ev):

   -38.6049 -38.5696 -38.4372 -38.3596 -38.3097 -38.2590 -38.2370 -38.2143
   -38.1829 -38.1814 -38.1431 -38.1184 -38.0975 -38.0713 -38.0452 -37.8691
   -37.8690 -37.7640 -37.7636 -37.7442 -37.7437   1.9377   2.3213   2.9225
     3.2687   3.3964   3.6811   3.7777   4.2090   4.4790   4.5881   4.6331
     4.8277   4.8621   5.3534   5.4683   5.6180   5.7184   5.8003   5.8325
     5.9187   6.0312   6.1844   6.2853   6.4206   6.5117   6.6378   6.7210
     6.7721   6.9220   7.0598   7.1630   7.3319   7.6284   7.7195   7.9697
     8.0973   8.5203   8.6699   8.8306   9.5560  10.7584  11.9853  12.8856

          k = 0.0556 0.3528 0.0000 (  4467 PWs)   bands (ev):

   -38.5687 -38.5472 -38.5299 -38.5095 -38.4425 -38.4092 -38.3571 -38.2705
   -38.2381 -38.2332 -38.1957 -38.1671 -38.1425 -38.0997 -38.0807 -38.0225
   -38.0218 -37.7879 -37.7879 -37.7550 -37.7547   2.7278   2.9803   3.0227
     3.1168   3.3467   3.4074   3.6409   3.8093   4.0799   4.1375   4.6289
     4.9437   5.1179   5.3526   5.5409   5.6424   5.6876   5.7745   6.0281
     6.1565   6.4423   6.5969   6.7386   6.8160   7.0361   7.3025   7.4685
     7.5305   7.7232   7.8362   7.9876   8.1010   8.2855   8.3593   8.4877
     8.5001   8.6747   8.9237   9.3216  10.6749  12.1858  13.6698  14.8753

          k = 0.0556 0.4811 0.0000 (  4463 PWs)   bands (ev):

   -38.6555 -38.6428 -38.6157 -38.5884 -38.5399 -38.4192 -38.3899 -38.2877
   -38.2774 -38.2673 -38.2344 -38.2005 -38.1769 -38.1371 -38.1270 -38.1139
   -38.1055 -37.8208 -37.8208 -37.7484 -37.7482   2.5419   2.6624   2.7732
     2.8648   2.9880   3.1558   3.1741   3.5462   3.6333   3.8066   4.4499
     4.8668   5.2050   5.3849   5.4893   5.7324   5.9204   5.9689   6.4819
     6.6635   6.8260   7.2237   7.5119   7.8543   8.0494   8.0959   8.3884
     8.4765   8.5814   8.6251   8.7197   8.7439   8.8885   8.9919   9.1535
     9.5853  10.1213  10.4508  10.7846  11.8796  13.2878  14.6433  16.3750

          k = 0.0556-0.5453 0.0000 (  4486 PWs)   bands (ev):

   -38.6839 -38.6704 -38.6394 -38.6075 -38.5693 -38.4037 -38.3957 -38.2908
   -38.2856 -38.2664 -38.2510 -38.2078 -38.1867 -38.1538 -38.1477 -38.1218
   -38.1155 -37.8285 -37.8282 -37.7471 -37.7470   2.4241   2.6115   2.6840
     2.7648   2.9261   3.0685   3.0971   3.4678   3.5383   3.7312   4.4051
     4.8374   5.1138   5.3400   5.4239   5.7444   5.9733   6.1225   6.4881
     6.8028   7.0642   7.2783   7.7133   8.0765   8.2011   8.4565   8.4910
     8.7030   8.7875   8.8719   8.9014   8.9705   9.0447   9.1490   9.2680
    10.2119  11.0057  11.7412  11.9051  12.2046  12.9187  13.4911  16.1860

          k = 0.0556-0.4170 0.0000 (  4465 PWs)   bands (ev):

   -38.6049 -38.5951 -38.5770 -38.5561 -38.4864 -38.4398 -38.3816 -38.2814
   -38.2609 -38.2547 -38.2160 -38.1866 -38.1616 -38.1161 -38.0998 -38.0827
   -38.0784 -37.8070 -37.8069 -37.7512 -37.7508   2.7321   2.7561   2.9331
     3.0280   3.0910   3.2827   3.3541   3.6689   3.8221   3.9459   4.5416
     4.9091   5.3236   5.4629   5.5661   5.6265   5.7029   5.9472   6.2550
     6.3788   6.6001   6.9932   7.1750   7.3844   7.5746   7.6883   8.0085
     8.0899   8.1356   8.2560   8.3674   8.5183   8.6244   8.7348   8.8977
     9.0271   9.2069   9.2801   9.9221  11.2934  12.8629  14.4256  15.7918

          k = 0.0556-0.2887 0.0000 (  4439 PWs)   bands (ev):

   -38.5759 -38.5538 -38.4717 -38.4352 -38.3862 -38.3303 -38.3054 -38.2499
   -38.2106 -38.2076 -38.1729 -38.1431 -38.1204 -38.0840 -38.0623 -37.9479
   -37.9474 -37.7660 -37.7659 -37.7590 -37.7586   2.4536   2.7340   3.1114
     3.2756   3.5014   3.6927   3.8944   4.0304   4.2227   4.3715   4.6127
     4.6736   4.9892   5.1289   5.4973   5.6790   5.7575   5.7864   5.8988
     6.0246   6.1052   6.2745   6.3684   6.6812   6.7180   6.8350   6.9843
     7.1640   7.2257   7.3394   7.5845   7.6954   7.8340   7.9690   8.0811
     8.2616   8.5799   8.8681   8.9332  10.0967  11.4738  12.8382  13.9021

          k = 0.0556-0.1604 0.0000 (  4443 PWs)   bands (ev):

   -38.6340 -38.5874 -38.4253 -38.3028 -38.2370 -38.2084 -38.1789 -38.1709
   -38.1565 -38.1486 -38.1060 -38.0963 -38.0732 -38.0628 -38.0299 -37.8001
   -37.8000 -37.7677 -37.7674 -37.7251 -37.7251   1.4179   1.8603   2.5503
     3.0074   3.0396   3.3542   3.4003   4.5796   4.6998   4.8643   4.9366
     5.0501   5.0885   5.4244   5.5614   5.6722   5.7245   5.7954   5.8701
     5.8778   5.9304   5.9808   6.0272   6.2070   6.2707   6.4299   6.5042
     6.8855   6.9747   7.0532   7.1224   7.3032   7.5041   7.6422   7.8655
     8.0130   8.3725   8.5689   8.8084   9.0611  10.0498  11.1280  11.8481

          k = 0.0556-0.0321 0.0000 (  4465 PWs)   bands (ev):

   -38.6671 -38.6098 -38.4233 -38.2614 -38.1512 -38.1485 -38.1403 -38.1389
   -38.0910 -38.0850 -38.0782 -38.0594 -38.0570 -38.0220 -38.0105 -37.7779
   -37.7765 -37.7150 -37.7148 -37.7038 -37.7036   0.8153   1.2897   2.0127
     2.5193   2.5491   2.8513   2.8980   5.0719   5.1124   5.2579   5.3234
     5.3788   5.4150   5.4219   5.4787   5.5100   5.6140   5.6389   5.6465
     5.7020   5.7334   5.9201   5.9774   6.0423   6.0565   6.3052   7.1507
     7.1829   7.2583   7.3631   7.3726   7.5173   7.5554   7.8063   7.9214
     8.1515   8.2637   8.2677   8.6701   8.8406   8.8673   9.6769  10.1148

          k = 0.1667 0.2887 0.0000 (  4425 PWs)   bands (ev):

   -38.5540 -38.5483 -38.4886 -38.4634 -38.4241 -38.3708 -38.3359 -38.2699
   -38.2366 -38.2357 -38.1784 -38.1732 -38.1479 -38.1176 -38.0750 -37.9793
   -37.9792 -37.7988 -37.7988 -37.7555 -37.7550   2.9227   3.0696   3.3515
     3.6856   3.8659   3.8802   3.9895   4.0441   4.0618   4.2565   4.3811
     4.5301   4.9845   5.0251   5.1045   5.3113   5.4856   5.4859   5.5135
     5.6445   6.2093   6.2420   6.4614   6.5533   6.6689   7.1051   7.1524
     7.3091   7.5552   7.7276   7.9561   8.1864   8.3228   8.4417   8.4572
     8.5678   8.6342   8.7297   9.4191  10.6517  12.0392  13.4393  15.3562

          k = 0.1667 0.4170 0.0000 (  4459 PWs)   bands (ev):

   -38.5904 -38.5787 -38.5624 -38.5402 -38.4827 -38.4497 -38.3856 -38.3114
   -38.3083 -38.2835 -38.2295 -38.2211 -38.2022 -38.1627 -38.1060 -38.0745
   -38.0733 -37.8609 -37.8609 -37.7481 -37.7479   3.0934   3.1607   3.2958
     3.4486   3.5048   3.5698   3.7994   3.8854   4.1045   4.2874   4.5499
     4.6610   4.9059   5.0810   5.1820   5.4215   5.5223   5.8855   5.9635
     6.1267   6.2037   6.4440   6.5681   6.8409   7.1363   7.2851   7.4162
     7.6347   7.7725   8.0147   8.4976   8.7835   8.8780   8.9468   9.1228
    10.1807  10.3283  10.5465  11.1720  12.2940  13.6863  15.1358  16.4218

          k = 0.1667 0.5453 0.0000 (  4490 PWs)   bands (ev):

   -38.6465 -38.6338 -38.6008 -38.5755 -38.5361 -38.4108 -38.3911 -38.3604
   -38.3444 -38.3024 -38.2638 -38.2431 -38.2286 -38.1724 -38.1331 -38.1195
   -38.1187 -37.8947 -37.8946 -37.7442 -37.7441   2.7871   3.0773   3.0897
     3.2166   3.3638   3.4511   3.5969   3.8413   4.0347   4.0841   4.4271
     4.5306   4.7712   5.1561   5.4730   5.6429   5.7230   5.9370   6.1964
     6.3142   6.5422   6.8211   7.1957   7.2458   7.3470   7.7272   8.0212
     8.1684   8.2955   8.4125   8.5922   8.7215   8.8089   9.0039   9.1324
    12.0398  12.4641  12.8853  13.2870  13.7925  14.2699  14.5213  16.4778

          k = 0.1667-0.4811 0.0000 (  4476 PWs)   bands (ev):

   -38.6262 -38.6137 -38.5875 -38.5623 -38.5180 -38.4274 -38.3899 -38.3416
   -38.3319 -38.2941 -38.2490 -38.2418 -38.2170 -38.1708 -38.1222 -38.1046
   -38.1029 -37.8830 -37.8828 -37.7455 -37.7454   2.8957   3.1082   3.1569
     3.3199   3.4040   3.4929   3.6672   3.8774   4.0391   4.1744   4.4449
     4.6332   4.8834   5.0310   5.4435   5.5239   5.7544   5.9475   6.0498
     6.1634   6.5259   6.6736   6.9322   7.0690   7.1963   7.6201   7.8181
     7.8369   7.9884   8.1434   8.5529   8.8405   8.8952   9.0507   9.2206
    11.1470  11.4122  11.7298  12.3049  13.2468  14.4254  15.5689  16.7476

          k = 0.1667-0.3528 0.0000 (  4458 PWs)   bands (ev):

   -38.5574 -38.5469 -38.5280 -38.5105 -38.4596 -38.4325 -38.3700 -38.2846
   -38.2734 -38.2683 -38.2051 -38.1897 -38.1839 -38.1452 -38.0897 -38.0317
   -38.0313 -37.8315 -37.8314 -37.7518 -37.7517   3.1849   3.2810   3.3806
     3.5171   3.6352   3.7331   3.8474   3.9930   4.2314   4.2932   4.4593
     4.6642   4.8485   4.9598   5.2217   5.3288   5.3717   5.5925   5.7874
     5.8677   6.1237   6.1696   6.4515   6.7302   6.8880   7.0554   7.3265
     7.4837   7.6961   7.8728   8.3470   8.5396   8.6526   8.6800   8.8975
     9.2885   9.3551   9.4858  10.1516  11.3863  12.8198  14.2731  15.5022

          k = 0.1667-0.2245 0.0000 (  4433 PWs)   bands (ev):

   -38.5800 -38.5570 -38.4573 -38.4096 -38.3661 -38.3073 -38.2904 -38.2479
   -38.2056 -38.2038 -38.1659 -38.1417 -38.1199 -38.0875 -38.0623 -37.9231
   -37.9229 -37.7688 -37.7688 -37.7596 -37.7591   2.4063   2.7106   3.2003
     3.5551   3.6793   3.8337   3.9645   4.1370   4.2671   4.3154   4.4821
     4.6565   4.7867   5.0968   5.2814   5.4356   5.5145   5.6238   5.7382
     5.8142   6.0705   6.2292   6.5147   6.5760   6.6005   6.8246   6.9128
     7.1696   7.1864   7.2707   7.5890   7.6922   7.8850   8.0383   8.0510
     8.1581   8.4741   8.6971   8.9663  10.0621  11.3542  12.6698  13.6995

          k = 0.1667-0.0962 0.0000 (  4427 PWs)   bands (ev):

   -38.6245 -38.5810 -38.4281 -38.3221 -38.2646 -38.2262 -38.1941 -38.1781
   -38.1712 -38.1691 -38.1122 -38.1068 -38.0836 -38.0666 -38.0316 -37.8254
   -37.8253 -37.7668 -37.7663 -37.7299 -37.7297   1.5961   2.0205   2.6816
     3.0812   3.1711   3.4722   3.5417   4.3932   4.6590   4.7696   4.8217
     4.9784   4.9959   5.5027   5.5533   5.6921   5.7615   5.8098   5.9073
     5.9742   6.0052   6.0973   6.1088   6.1420   6.3270   6.4395   6.6047
     6.7083   6.9196   6.9598   7.1499   7.2863   7.5133   7.5997   7.8698
     8.1796   8.2892   8.7050   8.9201   9.1430  10.2904  11.4405  12.2284

          k = 0.2778 0.4811 0.0000 (  4485 PWs)   bands (ev):

   -38.5887 -38.5855 -38.5553 -38.5425 -38.4859 -38.4696 -38.4344 -38.3887
   -38.3640 -38.3393 -38.2987 -38.2852 -38.2081 -38.2043 -38.1351 -38.0829
   -38.0827 -37.9538 -37.9538 -37.7431 -37.7427   3.3131   3.3329   3.4919
     3.5693   3.8137   3.9491   4.0981   4.1482   4.2348   4.3145   4.3939
     4.4726   4.8076   4.9581   5.1287   5.3321   5.5925   5.6909   6.0231
     6.0344   6.2493   6.2496   6.7521   6.8650   7.0137   7.2565   7.4155
     7.4835   7.8197   8.1689   8.5383   8.8064   8.8448   8.9075   9.1155
    12.4949  12.7255  13.1889  13.8745  14.8069  15.9075  16.8286  16.9413

          k = 0.2778 0.6094 0.0000 (  4491 PWs)   bands (ev):

   -38.5818 -38.5724 -38.5412 -38.5359 -38.5016 -38.4750 -38.4476 -38.4168
   -38.3867 -38.3652 -38.3066 -38.3010 -38.2112 -38.2000 -38.1475 -38.0748
   -38.0746 -37.9859 -37.9858 -37.7417 -37.7413   3.2849   3.5202   3.5594
     3.7094   3.8242   3.9724   4.0231   4.0849   4.1698   4.3319   4.3887
     4.5563   4.7048   5.0864   5.1890   5.4113   5.5374   5.6818   5.9400
     5.9950   6.2916   6.3135   6.7232   6.9240   7.1039   7.2543   7.4549
     7.5215   8.1155   8.3268   8.4753   8.6329   8.6999   8.7497   8.8928
    13.7070  14.0047  14.4657  14.9079  15.2955  15.7638  16.2981  16.5145

          k = 0.2778-0.4170 0.0000 (  4462 PWs)   bands (ev):

   -38.5958 -38.5868 -38.5644 -38.5420 -38.4949 -38.4516 -38.4031 -38.3503
   -38.3435 -38.3077 -38.2692 -38.2536 -38.2085 -38.1931 -38.1190 -38.0843
   -38.0837 -37.9084 -37.9083 -37.7450 -37.7447   3.1729   3.3074   3.3902
     3.5323   3.6635   3.7563   3.9213   4.1260   4.2334   4.2899   4.5208
     4.6829   4.7458   4.8455   5.1889   5.2626   5.5813   5.7751   6.0161
     6.0895   6.2446   6.3200   6.5466   6.8389   7.0537   7.2734   7.4429
     7.5645   7.6693   8.0259   8.5430   8.9039   8.9299   9.0276   9.2196
    11.3217  11.4712  11.8286  12.4851  13.5018  14.7688  16.0975  17.2564

          k = 0.2778-0.2887 0.0000 (  4463 PWs)   bands (ev):

   -38.5753 -38.5635 -38.5502 -38.5321 -38.4579 -38.4457 -38.3742 -38.2818
   -38.2702 -38.2615 -38.2038 -38.1904 -38.1792 -38.1233 -38.0953 -38.0536
   -38.0523 -37.8192 -37.8189 -37.7514 -37.7513   2.9420   3.0554   3.1922
     3.2364   3.3539   3.4762   3.6178   3.8503   4.0449   4.1883   4.5376
     4.7786   5.1278   5.1706   5.3884   5.5265   5.6218   5.8016   5.9788
     6.1406   6.3445   6.5654   6.6906   6.8219   7.1233   7.3367   7.4785
     7.5798   7.8273   8.1283   8.3691   8.4661   8.6563   8.6746   8.9313
     9.1394   9.3227   9.4020  10.0606  11.3355  12.8233  14.3230  15.5944

          k = 0.2778-0.1604 0.0000 (  4458 PWs)   bands (ev):

   -38.5707 -38.5482 -38.4987 -38.4729 -38.4154 -38.3671 -38.3317 -38.2593
   -38.2189 -38.2156 -38.1864 -38.1508 -38.1216 -38.0914 -38.0661 -37.9847
   -37.9843 -37.7705 -37.7704 -37.7577 -37.7573   2.5596   2.8169   3.0243
     3.1254   3.3940   3.5033   3.7663   3.8469   4.1069   4.2613   4.6766
     4.9206   5.1440   5.3212   5.5507   5.6869   5.7631   5.8390   6.0139
     6.1528   6.4191   6.5081   6.5525   6.7191   6.8463   7.0707   7.2751
     7.3324   7.4214   7.4763   7.6552   7.8340   7.8743   7.9612   8.1069
     8.3308   8.7455   8.9208   8.9874  10.2715  11.7439  13.1741  14.3013

          k = 0.3889 0.6736 0.0000 (  4511 PWs)   bands (ev):

   -38.6182 -38.6053 -38.5710 -38.5539 -38.5139 -38.4326 -38.4272 -38.3808
   -38.3798 -38.3374 -38.2933 -38.2779 -38.2224 -38.1890 -38.1408 -38.1008
   -38.1006 -37.9443 -37.9439 -37.7427 -37.7425   3.0116   3.3067   3.3928
     3.5872   3.6158   3.7710   3.7826   4.0576   4.1568   4.2338   4.4776
     4.5060   4.6894   4.9250   5.3023   5.4837   5.7213   5.9036   5.9294
     6.2645   6.3435   6.7241   6.7281   6.8133   7.1606   7.4921   7.7194
     7.8540   8.2702   8.3887   8.4601   8.6372   8.7147   8.9269   8.9331
    13.2382  13.5395  13.8458  14.1497  14.5114  14.9240  15.2594  16.6383

          k = 0.3889-0.3528 0.0000 (  4485 PWs)   bands (ev):

   -38.6597 -38.6467 -38.6166 -38.5882 -38.5469 -38.4104 -38.3897 -38.3177
   -38.3085 -38.2762 -38.2430 -38.2170 -38.2134 -38.1471 -38.1360 -38.1242
   -38.1157 -37.8518 -37.8517 -37.7465 -37.7463   2.6255   2.8181   2.8955
     2.9674   3.1256   3.2352   3.3423   3.6600   3.7880   3.8776   4.4074
     4.7188   5.0129   5.3530   5.4874   5.6903   5.8241   5.9016   6.4119
     6.5734   6.6431   7.1863   7.2896   7.6463   7.7806   7.9097   8.2629
     8.3874   8.3942   8.4788   8.6292   8.8111   8.9072   9.0444   9.2286
    10.7729  11.2621  11.6595  12.0113  12.7611  13.7474  14.5640  16.4274

          k = 0.3889-0.2245 0.0000 (  4444 PWs)   bands (ev):

   -38.6353 -38.6237 -38.6006 -38.5765 -38.5176 -38.4293 -38.3872 -38.2818
   -38.2598 -38.2555 -38.2280 -38.1886 -38.1548 -38.1316 -38.1087 -38.0988
   -38.0968 -37.8058 -37.8057 -37.7500 -37.7496   2.5758   2.6334   2.7799
     2.8973   2.9670   3.1557   3.2046   3.5418   3.6415   3.8444   4.5086
     4.9451   5.3198   5.4035   5.5175   5.8132   5.8551   5.9401   6.4326
     6.6520   6.8192   7.1235   7.5361   7.7942   8.0746   8.2001   8.2747
     8.4303   8.4932   8.5554   8.5756   8.6981   8.7460   8.8638   8.9742
     9.1027   9.1985   9.4471   9.9837  11.4059  12.9968  14.5627  16.0904

          k =-0.5000-0.8660 0.0000 (  4492 PWs)   bands (ev):

   -38.6921 -38.6794 -38.6484 -38.6141 -38.5778 -38.4005 -38.4002 -38.2769
   -38.2715 -38.2645 -38.2629 -38.2034 -38.1682 -38.1680 -38.1522 -38.1232
   -38.1092 -37.8200 -37.8199 -37.7476 -37.7475   2.3488   2.5402   2.6047
     2.7016   2.8528   3.0105   3.0144   3.3912   3.4485   3.6878   4.3973
     4.8877   5.1465   5.2913   5.4102   5.7221   6.1721   6.2198   6.3765
     7.0747   7.1252   7.2190   7.8961   8.1592   8.3708   8.5139   8.7971
     8.8971   8.9093   9.0000   9.0126   9.0690   9.2020   9.3768   9.3848
     9.7363  10.8422  11.7512  11.9533  12.3522  12.4948  12.6305  16.0963

     the Fermi energy is     8.3540 ev

!    total energy              =   -1198.23270287 Ry
     estimated scf accuracy    <       0.00000005 Ry
     smearing contrib. (-TS)   =      -0.03005388 Ry
     internal energy E=F+TS    =   -1198.20264899 Ry

     The total energy is F=E-TS. E is the sum of the following terms:
     one-electron contribution =  -13562.32184749 Ry
     hartree contribution      =    6826.91916274 Ry
     xc contribution           =    -209.38681601 Ry
     ewald contribution        =    5746.58685177 Ry

     total magnetization       =    -0.01 Bohr mag/cell
     absolute magnetization    =     0.01 Bohr mag/cell

     convergence has been achieved in  18 iterations

     negative rho (up, down):  1.944E-01 1.943E-01

     Forces acting on atoms (cartesian axes, Ry/au):

     atom    1 type  1   force =     0.00000000    0.00000000    0.00032571
     atom    2 type  1   force =     0.00000000    0.00000000   -0.00090871
     atom    3 type  1   force =     0.00000000    0.00000000    0.00073182
     atom    4 type  1   force =     0.00000000    0.00000000    0.00000272
     atom    5 type  1   force =     0.00000000    0.00000000   -0.00073704
     atom    6 type  1   force =     0.00000000    0.00000000    0.00089665
     atom    7 type  1   force =     0.00000000    0.00000000   -0.00031116

     Total force =     0.001706     Total SCF correction =     0.000681
     SCF correction compared to forces is large: reduce conv_thr to get better values
     Energy error            =      1.2E-05
     Gradient error          =      9.1E-04

     bfgs converged in  11 scf cycles and  10 bfgs steps
     (criteria: energy <  1.0E-04 Ry, force <  1.0E-03 Ry/Bohr)

     End of BFGS Geometry Optimization

     Final energy   =   -1198.2327028679 Ry

     File /home/STUDENTI/leonardo.razzai/Rh_work/surf_111/7-L.bfgs deleted, as requested
Begin final coordinates

ATOMIC_POSITIONS (angstrom)
Rh            0.0000000000        0.0000000000        0.0476691511
Rh            1.3554284000       -0.7825569000        2.2206088013
Rh            1.3554284000        0.7825569000        4.4169713170
Rh            0.0000000000        0.0000000000        6.6402061291
Rh            1.3554284000       -0.7825569000        8.8634694666
Rh            1.3554284000        0.7825569000       11.0598440126
Rh            0.0000000000        0.0000000000       13.2327422224
End final coordinates


 
     init_run     :      4.09s CPU      4.26s WALL (       1 calls)
     electrons    :   1233.81s CPU   1257.27s WALL (      12 calls)
     update_pot   :      2.59s CPU      2.62s WALL (      10 calls)
     forces       :     18.45s CPU     18.72s WALL (      12 calls)

     Called by init_run:
     wfcinit      :      3.28s CPU      3.38s WALL (       1 calls)
     potinit      :      0.21s CPU      0.23s WALL (       2 calls)
     hinit0       :      0.32s CPU      0.35s WALL (       1 calls)

     Called by electrons:
     c_bands      :   1003.94s CPU   1017.16s WALL (     141 calls)
     sum_band     :    182.08s CPU    189.13s WALL (     141 calls)
     v_of_rho     :      9.28s CPU      9.43s WALL (     153 calls)
     newd         :     18.14s CPU     20.84s WALL (     153 calls)
     mix_rho      :     21.71s CPU     21.98s WALL (     141 calls)

     Called by c_bands:
     init_us_2    :     15.01s CPU     15.24s WALL (   14750 calls)
     cegterg      :    885.06s CPU    897.00s WALL (    7050 calls)

     Called by *egterg:
     cdiaghg      :    117.82s CPU    118.25s WALL (   22434 calls)
     h_psi        :    583.75s CPU    594.71s WALL (   23034 calls)
     s_psi        :     45.41s CPU     45.63s WALL (   23034 calls)
     g_psi        :      4.13s CPU      4.14s WALL (   15934 calls)

     Called by h_psi:
     h_psi:calbec :     49.99s CPU     50.75s WALL (   23034 calls)
     vloc_psi     :    483.59s CPU    493.54s WALL (   23034 calls)
     add_vuspsi   :     46.33s CPU     46.63s WALL (   23034 calls)

     General routines
     calbec       :     77.25s CPU     78.37s WALL (   32484 calls)
     fft          :      4.62s CPU      4.68s WALL (    3989 calls)
     ffts         :     11.55s CPU     11.67s WALL (   32653 calls)
     fftw         :    536.91s CPU    548.31s WALL ( 2495690 calls)
     interpolate  :      0.49s CPU      0.50s WALL (     306 calls)
 
     Parallel routines
     fft_scatt_xy :     70.99s CPU     72.02s WALL ( 2532332 calls)
     fft_scatt_yz :    117.35s CPU    119.51s WALL ( 2532332 calls)
 
     PWSCF        :  21m 0.98s CPU  21m25.83s WALL

 
   This run was terminated on:  20: 3: 7   5Apr2023            

=------------------------------------------------------------------------------=
   JOB DONE.
=------------------------------------------------------------------------------=
