MPI startup(): shm:dapl fabric is unknown or has been removed from the product, please use ofi or shm:ofi instead.

     Program PWSCF v.6.7MaX starts on  5Apr2023 at  8:53:54 

     This program is part of the open-source Quantum ESPRESSO suite
     for quantum simulation of materials; please cite
         "P. Giannozzi et al., J. Phys.:Condens. Matter 21 395502 (2009);
         "P. Giannozzi et al., J. Phys.:Condens. Matter 29 465901 (2017);
          URL http://www.quantum-espresso.org", 
     in publications or presentations arising from this work. More details at
     http://www.quantum-espresso.org/quote

     Parallel version (MPI), running on     8 processors

     MPI processes distributed on     1 nodes
     R & G space division:  proc/nbgrp/npool/nimage =       8
     Reading input from n_layers8.pwi

     Current dimensions of program PWSCF are:
     Max number of different atomic species (ntypx) = 10
     Max number of k-points (npk) =  40000
     Max angular momentum in pseudopotentials (lmaxx) =  3

     Subspace diagonalization in iterative solution of the eigenvalue problem:
     a serial algorithm will be used

 
     Parallelization info
     --------------------
     sticks:   dense  smooth     PW     G-vecs:    dense   smooth      PW
     Min          63      31     11                12632     4451     972
     Max          65      32     12                12645     4494     987
     Sum         511     253     91               101117    35839    7825
 


     bravais-lattice index     =            4
     lattice parameter (alat)  =       5.1228  a.u.
     unit-cell volume          =    1276.0194 (a.u.)^3
     number of atoms/cell      =            8
     number of atomic types    =            1
     number of electrons       =       120.00
     number of Kohn-Sham states=           72
     kinetic-energy cutoff     =      35.0000  Ry
     charge density cutoff     =     280.0000  Ry
     scf convergence threshold =      1.0E-06
     mixing beta               =       0.4000
     number of iterations used =            8  local-TF  mixing
     energy convergence thresh.=      1.0E-04
     force convergence thresh. =      1.0E-03
     Exchange-correlation=  SLA  PW   PBX  PBC
                           (   1   4   3   4   0   0   0)
     nstep                     =           50


     celldm(1)=   5.122776  celldm(2)=   0.000000  celldm(3)=  10.960000
     celldm(4)=   0.000000  celldm(5)=   0.000000  celldm(6)=   0.000000

     crystal axes: (cart. coord. in units of alat)
               a(1) = (   1.000000   0.000000   0.000000 )  
               a(2) = (  -0.500000   0.866025   0.000000 )  
               a(3) = (   0.000000   0.000000  10.960000 )  

     reciprocal axes: (cart. coord. in units 2 pi/alat)
               b(1) = (  1.000000  0.577350  0.000000 )  
               b(2) = (  0.000000  1.154701  0.000000 )  
               b(3) = (  0.000000  0.000000  0.091241 )  


     PseudoPot. # 1 for Rh read from file:
     /home/software/materia/pseudo/rh_pbe_v1.4.uspp.F.UPF
     MD5 check sum: 761627e959a2e3a1f56b0b5fe687810e
     Pseudo is Ultrasoft + core correction, Zval = 15.0
     Generated by new atomic code, or converted to UPF format
     Using radial grid of  969 points,  7 beta functions with: 
                l(1) =   0
                l(2) =   0
                l(3) =   1
                l(4) =   1
                l(5) =   2
                l(6) =   2
                l(7) =   2
     Q(r) pseudized with  8 coefficients,  rinner =    1.200   1.200   1.200
                                                       1.200   1.200

     atomic species   valence    mass     pseudopotential
        Rh            15.00   102.90500     Rh( 1.00)

     Starting magnetic structure 
     atomic species   magnetization
        Rh           0.010

      6 Sym. Ops. (no inversion) found



   Cartesian axes

     site n.     atom                  positions (alat units)
         1           Rh  tau(   1) = (   0.0000000   0.0000000   0.0000000  )
         2           Rh  tau(   2) = (   1.0000002   0.5773504   0.8164967  )
         3           Rh  tau(   3) = (   0.5000001   0.2886752   1.6329934  )
         4           Rh  tau(   4) = (   0.0000000   0.0000000   2.4494902  )
         5           Rh  tau(   5) = (   1.0000002   0.5773504   3.2659869  )
         6           Rh  tau(   6) = (   0.5000001   0.2886752   4.0824836  )
         7           Rh  tau(   7) = (   0.0000000   0.0000000   4.8989803  )
         8           Rh  tau(   8) = (   1.0000002   0.5773504   5.7154770  )

     number of k points=    25  Gaussian smearing, width (Ry)=  0.0200
                       cart. coord. in units 2pi/alat
        k(    1) = (   0.0555556   0.0962250   0.0000000), wk =   0.0246914
        k(    2) = (   0.0555556   0.2245251   0.0000000), wk =   0.0493827
        k(    3) = (   0.0555556   0.3528252   0.0000000), wk =   0.0493827
        k(    4) = (   0.0555556   0.4811252   0.0000000), wk =   0.0493827
        k(    5) = (   0.0555556  -0.5452753   0.0000000), wk =   0.0493827
        k(    6) = (   0.0555556  -0.4169752   0.0000000), wk =   0.0493827
        k(    7) = (   0.0555556  -0.2886751   0.0000000), wk =   0.0493827
        k(    8) = (   0.0555556  -0.1603751   0.0000000), wk =   0.0493827
        k(    9) = (   0.0555556  -0.0320750   0.0000000), wk =   0.0246914
        k(   10) = (   0.1666667   0.2886751   0.0000000), wk =   0.0246914
        k(   11) = (   0.1666667   0.4169752   0.0000000), wk =   0.0493827
        k(   12) = (   0.1666667   0.5452753   0.0000000), wk =   0.0493827
        k(   13) = (   0.1666667  -0.4811252   0.0000000), wk =   0.0493827
        k(   14) = (   0.1666667  -0.3528252   0.0000000), wk =   0.0493827
        k(   15) = (   0.1666667  -0.2245251   0.0000000), wk =   0.0493827
        k(   16) = (   0.1666667  -0.0962250   0.0000000), wk =   0.0246914
        k(   17) = (   0.2777778   0.4811252   0.0000000), wk =   0.0246914
        k(   18) = (   0.2777778   0.6094253   0.0000000), wk =   0.0493827
        k(   19) = (   0.2777778  -0.4169752   0.0000000), wk =   0.0493827
        k(   20) = (   0.2777778  -0.2886751   0.0000000), wk =   0.0493827
        k(   21) = (   0.2777778  -0.1603751   0.0000000), wk =   0.0246914
        k(   22) = (   0.3888889   0.6735753   0.0000000), wk =   0.0246914
        k(   23) = (   0.3888889  -0.3528252   0.0000000), wk =   0.0493827
        k(   24) = (   0.3888889  -0.2245251   0.0000000), wk =   0.0246914
        k(   25) = (  -0.5000000  -0.8660254   0.0000000), wk =   0.0123457

     Dense  grid:   101117 G-vectors     FFT dimensions: (  27,  27, 300)

     Smooth grid:    35839 G-vectors     FFT dimensions: (  20,  20, 216)

     Estimated max dynamical RAM per process >     107.23 MB

     Estimated total dynamical RAM >     857.85 MB
     Generating pointlists ...
     new r_m :   0.4125 (alat units)  2.1131 (a.u.) for type    1

     Initial potential from superposition of free atoms

     starting charge  115.99921, renormalised to  120.00000

     negative rho (up, down):  2.254E-01 2.209E-01
     Starting wfcs are   96 randomized atomic wfcs

     total cpu time spent up to now is        9.1 secs

     Self-consistent Calculation

     iteration #  1     ecut=    35.00 Ry     beta= 0.40
     Davidson diagonalization with overlap
     ethr =  1.00E-02,  avg # of iterations =  2.0

     negative rho (up, down):  2.259E-01 2.238E-01

     total cpu time spent up to now is       30.7 secs

     total energy              =   -1369.67598683 Ry
     estimated scf accuracy    <       5.91818292 Ry

     total magnetization       =     0.43 Bohr mag/cell
     absolute magnetization    =     0.44 Bohr mag/cell

     iteration #  2     ecut=    35.00 Ry     beta= 0.40
     Davidson diagonalization with overlap
     ethr =  4.93E-03,  avg # of iterations =  1.0

     negative rho (up, down):  2.299E-01 2.298E-01

     total cpu time spent up to now is       47.2 secs

     total energy              =   -1369.30113573 Ry
     estimated scf accuracy    <       1.56777882 Ry

     total magnetization       =     0.40 Bohr mag/cell
     absolute magnetization    =     0.42 Bohr mag/cell

     iteration #  3     ecut=    35.00 Ry     beta= 0.40
     Davidson diagonalization with overlap
     ethr =  1.31E-03,  avg # of iterations =  2.2

     negative rho (up, down):  2.330E-01 2.341E-01

     total cpu time spent up to now is       67.1 secs

     total energy              =   -1369.38244052 Ry
     estimated scf accuracy    <       0.40804110 Ry

     total magnetization       =     0.34 Bohr mag/cell
     absolute magnetization    =     0.35 Bohr mag/cell

     iteration #  4     ecut=    35.00 Ry     beta= 0.40
     Davidson diagonalization with overlap
     ethr =  3.40E-04,  avg # of iterations =  2.2

     negative rho (up, down):  2.344E-01 2.354E-01

     total cpu time spent up to now is       86.9 secs

     total energy              =   -1369.42376567 Ry
     estimated scf accuracy    <       0.08108995 Ry

     total magnetization       =     0.28 Bohr mag/cell
     absolute magnetization    =     0.29 Bohr mag/cell

     iteration #  5     ecut=    35.00 Ry     beta= 0.40
     Davidson diagonalization with overlap
     ethr =  6.76E-05,  avg # of iterations =  1.5

     negative rho (up, down):  2.358E-01 2.369E-01

     total cpu time spent up to now is      104.2 secs

     total energy              =   -1369.42555282 Ry
     estimated scf accuracy    <       0.00411515 Ry

     total magnetization       =     0.25 Bohr mag/cell
     absolute magnetization    =     0.26 Bohr mag/cell

     iteration #  6     ecut=    35.00 Ry     beta= 0.40
     Davidson diagonalization with overlap
     ethr =  3.43E-06,  avg # of iterations =  5.8

     negative rho (up, down):  2.362E-01 2.372E-01

     total cpu time spent up to now is      126.6 secs

     total energy              =   -1369.42485006 Ry
     estimated scf accuracy    <       0.00664780 Ry

     total magnetization       =     0.20 Bohr mag/cell
     absolute magnetization    =     0.21 Bohr mag/cell

     iteration #  7     ecut=    35.00 Ry     beta= 0.40
     Davidson diagonalization with overlap
     ethr =  3.43E-06,  avg # of iterations =  2.8

     negative rho (up, down):  2.352E-01 2.360E-01

     total cpu time spent up to now is      147.1 secs

     total energy              =   -1369.42555021 Ry
     estimated scf accuracy    <       0.00076521 Ry

     total magnetization       =     0.15 Bohr mag/cell
     absolute magnetization    =     0.16 Bohr mag/cell

     iteration #  8     ecut=    35.00 Ry     beta= 0.40
     Davidson diagonalization with overlap
     ethr =  6.38E-07,  avg # of iterations =  4.4

     negative rho (up, down):  2.329E-01 2.331E-01

     total cpu time spent up to now is      169.9 secs

     total energy              =   -1369.42529365 Ry
     estimated scf accuracy    <       0.00330098 Ry

     total magnetization       =     0.09 Bohr mag/cell
     absolute magnetization    =     0.10 Bohr mag/cell

     iteration #  9     ecut=    35.00 Ry     beta= 0.40
     Davidson diagonalization with overlap
     ethr =  6.38E-07,  avg # of iterations =  3.3

     negative rho (up, down):  2.313E-01 2.309E-01

     total cpu time spent up to now is      187.9 secs

     total energy              =   -1369.42472647 Ry
     estimated scf accuracy    <       0.00227438 Ry

     total magnetization       =     0.02 Bohr mag/cell
     absolute magnetization    =     0.05 Bohr mag/cell

     iteration # 10     ecut=    35.00 Ry     beta= 0.40
     Davidson diagonalization with overlap
     ethr =  6.38E-07,  avg # of iterations =  2.2

     negative rho (up, down):  2.297E-01 2.293E-01

     total cpu time spent up to now is      207.3 secs

     total energy              =   -1369.42447712 Ry
     estimated scf accuracy    <       0.00056608 Ry

     total magnetization       =    -0.03 Bohr mag/cell
     absolute magnetization    =     0.05 Bohr mag/cell

     iteration # 11     ecut=    35.00 Ry     beta= 0.40
     Davidson diagonalization with overlap
     ethr =  4.72E-07,  avg # of iterations =  3.5

     negative rho (up, down):  2.293E-01 2.289E-01

     total cpu time spent up to now is      229.2 secs

     total energy              =   -1369.42454049 Ry
     estimated scf accuracy    <       0.00013932 Ry

     total magnetization       =    -0.05 Bohr mag/cell
     absolute magnetization    =     0.05 Bohr mag/cell

     iteration # 12     ecut=    35.00 Ry     beta= 0.40
     Davidson diagonalization with overlap
     ethr =  1.16E-07,  avg # of iterations =  2.2

     negative rho (up, down):  2.292E-01 2.289E-01

     total cpu time spent up to now is      249.7 secs

     total energy              =   -1369.42456898 Ry
     estimated scf accuracy    <       0.00004081 Ry

     total magnetization       =    -0.06 Bohr mag/cell
     absolute magnetization    =     0.06 Bohr mag/cell

     iteration # 13     ecut=    35.00 Ry     beta= 0.40
     Davidson diagonalization with overlap
     ethr =  3.40E-08,  avg # of iterations =  1.2

     negative rho (up, down):  2.292E-01 2.290E-01

     total cpu time spent up to now is      266.0 secs

     total energy              =   -1369.42457375 Ry
     estimated scf accuracy    <       0.00000255 Ry

     total magnetization       =    -0.05 Bohr mag/cell
     absolute magnetization    =     0.05 Bohr mag/cell

     iteration # 14     ecut=    35.00 Ry     beta= 0.40
     Davidson diagonalization with overlap
     ethr =  2.13E-09,  avg # of iterations =  2.4

     negative rho (up, down):  2.292E-01 2.290E-01
 
     Magnetic moment per site:
     atom:    1    charge:   13.1751    magn:   -0.0053    constr:    0.0000
     atom:    2    charge:   13.2364    magn:   -0.0038    constr:    0.0000
     atom:    3    charge:   13.2472    magn:   -0.0022    constr:    0.0000
     atom:    4    charge:   13.2497    magn:   -0.0027    constr:    0.0000
     atom:    5    charge:   13.2488    magn:   -0.0027    constr:    0.0000
     atom:    6    charge:   13.2472    magn:   -0.0022    constr:    0.0000
     atom:    7    charge:   13.2369    magn:   -0.0038    constr:    0.0000
     atom:    8    charge:   13.1743    magn:   -0.0053    constr:    0.0000

     total cpu time spent up to now is      285.2 secs

     End of self-consistent calculation

 ------ SPIN UP ------------


          k = 0.0556 0.0962 0.0000 (  4451 PWs)   bands (ev):

   -36.7183 -36.6580 -36.5306 -36.3993 -36.2771 -36.2249 -36.2190 -36.2066
   -36.1973 -36.1848 -36.1790 -36.1755 -36.1591 -36.1442 -36.1401 -36.1196
   -36.1190 -36.1004 -35.8088 -35.8087 -35.7848 -35.7846 -35.7528 -35.7526
     2.9213   3.3213   3.9091   4.4810   4.6427   4.6958   5.0449   5.0562
     6.7974   6.8318   7.0486   7.0670   7.1219   7.1887   7.3931   7.4410
     7.5066   7.5073   7.5259   7.6155   7.6420   7.6673   7.7167   7.7771
     7.8392   7.8438   7.9069   8.1464   8.1648   8.2181   8.8109   8.9644
     8.9729   9.1528   9.2504   9.3762   9.4309   9.5411   9.6082   9.7376
     9.8392  10.1932  10.2432  10.5695  10.7333  10.7936  11.5228  12.2979

          k = 0.0556 0.2245 0.0000 (  4420 PWs)   bands (ev):

   -36.6653 -36.6232 -36.5292 -36.4452 -36.3804 -36.3448 -36.3251 -36.3099
   -36.2880 -36.2514 -36.2335 -36.2280 -36.2032 -36.1944 -36.1787 -36.1585
   -36.1380 -36.1241 -35.9116 -35.9112 -35.7966 -35.7963 -35.7858 -35.7857
     3.8402   4.1705   4.6608   5.1406   5.2215   5.3937   5.6760   5.7679
     6.1178   6.3757   6.5017   6.5263   6.6993   6.7802   6.8492   7.2408
     7.4313   7.5174   7.5915   7.6980   7.7500   7.7898   7.8682   7.9619
     8.0964   8.2199   8.3177   8.3713   8.5240   8.6142   8.6856   8.7079
     8.8142   8.9203   9.0757   9.1801   9.4000   9.5780   9.7364   9.8113
    10.0998  10.3015  10.5381  10.7480  10.9412  11.8840  12.9776  14.0280

          k = 0.0556 0.3528 0.0000 (  4467 PWs)   bands (ev):

   -36.6277 -36.5988 -36.5976 -36.5666 -36.5164 -36.5077 -36.4736 -36.4266
   -36.3547 -36.2954 -36.2859 -36.2817 -36.2516 -36.2410 -36.2188 -36.1997
   -36.1701 -36.1562 -36.0674 -36.0672 -35.8300 -35.8298 -35.7851 -35.7850
     4.6396   4.8933   4.9407   5.0144   5.1830   5.2732   5.4589   5.5319
     5.8136   5.9110   6.0521   6.3454   6.7384   6.8826   7.1716   7.2336
     7.5027   7.5218   7.5993   7.6651   7.7855   7.9810   8.1518   8.3998
     8.4882   8.6326   8.7716   8.8646   9.0962   9.2882   9.4147   9.4753
     9.6161   9.7587   9.8264  10.0147  10.1303  10.1549  10.3384  10.3968
    10.4464  10.6219  10.7763  10.8425  11.8308  13.1013  14.4528  15.7628

          k = 0.0556 0.4811 0.0000 (  4463 PWs)   bands (ev):

   -36.7137 -36.6911 -36.6820 -36.6583 -36.6363 -36.6111 -36.4593 -36.4263
   -36.3652 -36.3334 -36.3274 -36.3134 -36.2928 -36.2794 -36.2479 -36.2315
   -36.1976 -36.1896 -36.1698 -36.1668 -35.8631 -35.8629 -35.7767 -35.7763
     4.4630   4.5749   4.6888   4.7918   4.8634   5.0028   5.0560   5.1905
     5.4802   5.5428   5.6434   6.1062   6.5693   6.9256   7.1414   7.3205
     7.4126   7.6239   7.7464   7.9215   8.2428   8.2928   8.6978   8.8608
     9.0223   9.4237   9.6356   9.8737   9.9933  10.1246  10.3535  10.4323
    10.5055  10.5501  10.5972  10.6355  10.7407  10.8171  10.9615  11.0814
    11.4763  11.9593  12.3286  12.4524  13.1086  14.2415  15.5065  16.7029

          k = 0.0556-0.5453 0.0000 (  4486 PWs)   bands (ev):

   -36.7417 -36.7190 -36.7027 -36.6845 -36.6599 -36.6429 -36.4328 -36.4206
   -36.3662 -36.3453 -36.3385 -36.3230 -36.3037 -36.2899 -36.2552 -36.2398
   -36.2070 -36.2000 -36.1876 -36.1841 -35.8707 -35.8706 -35.7750 -35.7746
     4.3437   4.5245   4.5984   4.6855   4.8115   4.9346   4.9497   5.1245
     5.3873   5.4507   5.5691   6.0433   6.5583   6.8555   7.0654   7.2570
     7.3588   7.6649   7.7867   8.0391   8.2129   8.4826   8.8299   8.9104
     9.2829   9.5409   9.7813  10.1161  10.2743  10.3690  10.4643  10.6380
    10.7374  10.7730  10.8178  10.8495  10.9141  10.9849  11.1314  11.1906
    12.0873  12.7875  13.4807  13.8020  13.8777  14.3077  14.9603  15.4453

          k = 0.0556-0.4170 0.0000 (  4465 PWs)   bands (ev):

   -36.6629 -36.6513 -36.6394 -36.6177 -36.5868 -36.5546 -36.4932 -36.4342
   -36.3613 -36.3158 -36.3090 -36.3000 -36.2746 -36.2618 -36.2351 -36.2177
   -36.1854 -36.1739 -36.1289 -36.1281 -35.8492 -35.8491 -35.7802 -35.7799
     4.6450   4.6797   4.8505   4.9355   4.9931   5.1095   5.2450   5.3144
     5.6214   5.7221   5.7954   6.2178   6.6247   6.9834   7.2730   7.3656
     7.5063   7.5183   7.6516   7.8220   7.9578   8.2661   8.3516   8.5356
     8.8537   9.0818   9.2915   9.3980   9.5238   9.7523   9.9256  10.0052
    10.0711  10.2218  10.2514  10.3658  10.4386  10.5829  10.6954  10.8481
    10.9241  11.0993  11.1786  11.4231  12.4153  13.7266  15.1352  16.5324

          k = 0.0556-0.2887 0.0000 (  4439 PWs)   bands (ev):

   -36.6345 -36.6065 -36.5488 -36.5015 -36.4565 -36.4293 -36.3892 -36.3862
   -36.3345 -36.2763 -36.2596 -36.2557 -36.2250 -36.2194 -36.1996 -36.1793
   -36.1532 -36.1390 -35.9913 -35.9911 -35.8077 -35.8076 -35.7906 -35.7903
     4.3628   4.6128   4.9358   5.1681   5.2953   5.5159   5.7015   5.8018
     6.0233   6.0826   6.2709   6.4617   6.5794   6.7366   6.9546   7.0314
     7.3550   7.5682   7.6509   7.7309   7.7444   7.8801   7.9696   8.0721
     8.1640   8.2778   8.5437   8.6538   8.7196   8.8073   8.9906   9.0200
     9.1739   9.2679   9.4197   9.5541   9.6387   9.8512   9.9546  10.0236
    10.1372  10.4709  10.5816  10.7875  11.3512  12.4840  13.7213  14.9090

          k = 0.0556-0.1604 0.0000 (  4443 PWs)   bands (ev):

   -36.6959 -36.6424 -36.5274 -36.4134 -36.3158 -36.2743 -36.2641 -36.2519
   -36.2268 -36.2172 -36.2098 -36.2013 -36.1800 -36.1710 -36.1584 -36.1377
   -36.1265 -36.1115 -35.8410 -35.8409 -35.8019 -35.8017 -35.7669 -35.7668
     3.3166   3.6959   4.2592   4.8187   4.9416   5.0168   5.3571   5.3858
     6.4878   6.6295   6.7737   6.8064   6.9039   6.9735   7.1667   7.3124
     7.5206   7.5324   7.6595   7.7000   7.7657   7.7988   7.8318   7.8455
     7.9205   7.9508   8.1046   8.1399   8.2492   8.4283   8.4711   8.7996
     8.8690   8.9715   9.0531   9.0960   9.3703   9.4845   9.6012   9.7276
    10.0547  10.1466  10.5426  10.5789  10.7281  11.3080  12.2329  13.1407

          k = 0.0556-0.0321 0.0000 (  4465 PWs)   bands (ev):

   -36.7303 -36.6666 -36.5339 -36.3952 -36.2637 -36.1988 -36.1945 -36.1891
   -36.1851 -36.1694 -36.1591 -36.1523 -36.1417 -36.1413 -36.1191 -36.1177
   -36.1047 -36.0932 -35.8111 -35.8107 -35.7568 -35.7564 -35.7454 -35.7451
     2.7120   3.1193   3.7142   4.2882   4.4718   4.5173   4.8642   4.8697
     6.9707   7.0057   7.1941   7.2138   7.2598   7.3150   7.3489   7.4086
     7.4437   7.4508   7.4582   7.5494   7.5687   7.6294   7.6604   7.6974
     7.7281   7.9063   7.9691   8.0245   8.0394   8.4707   9.0896   9.0917
     9.2510   9.2769   9.3339   9.4020   9.4199   9.5844   9.6844   9.9253
     9.9775  10.1082  10.3232  10.3283  10.6226  10.7863  10.9527  11.6470

          k = 0.1667 0.2887 0.0000 (  4425 PWs)   bands (ev):

   -36.6097 -36.6017 -36.5627 -36.5243 -36.4866 -36.4663 -36.4362 -36.4135
   -36.3568 -36.2955 -36.2825 -36.2681 -36.2524 -36.2363 -36.2174 -36.2079
   -36.2036 -36.1439 -36.0236 -36.0235 -35.8407 -35.8407 -35.7862 -35.7861
     4.8416   4.9688   5.1891   5.4750   5.7786   5.8132   5.8165   5.9303
     5.9958   6.0373   6.1613   6.2750   6.4158   6.4738   6.9248   6.9865
     7.0142   7.1766   7.3516   7.4598   7.4968   7.5034   7.5657   8.1362
     8.1552   8.3893   8.3907   8.5725   8.7874   9.0163   9.1907   9.2309
     9.4605   9.6298   9.8298  10.0403  10.0840  10.2198  10.3882  10.4472
    10.4825  10.5610  10.6418  10.8960  11.8856  13.0349  14.2874  15.5255

          k = 0.1667 0.4170 0.0000 (  4459 PWs)   bands (ev):

   -36.6460 -36.6329 -36.6213 -36.6097 -36.5697 -36.5599 -36.5009 -36.4435
   -36.3726 -36.3521 -36.3485 -36.3180 -36.3094 -36.2900 -36.2822 -36.2470
   -36.2344 -36.1764 -36.1205 -36.1201 -35.9036 -35.9032 -35.7771 -35.7767
     5.0131   5.0749   5.2089   5.3365   5.4341   5.4436   5.6762   5.7210
     5.8107   5.9461   6.2276   6.3577   6.4769   6.7348   6.8891   7.0506
     7.0888   7.2586   7.4381   7.6214   7.8255   7.9614   8.0263   8.2240
     8.3346   8.4607   8.6869   8.9697   9.1550   9.2151   9.3420   9.5480
     9.6887   9.8768  10.2427  10.6506  10.7421  10.8373  10.8884  11.0580
    12.0872  12.2291  12.3712  12.7555  13.5511  14.6637  15.9340  17.2381

          k = 0.1667 0.5453 0.0000 (  4490 PWs)   bands (ev):

   -36.7047 -36.6826 -36.6620 -36.6498 -36.6258 -36.6119 -36.4481 -36.4327
   -36.4053 -36.3967 -36.3852 -36.3551 -36.3324 -36.3141 -36.2921 -36.2807
   -36.2389 -36.2067 -36.1667 -36.1663 -35.9377 -35.9374 -35.7721 -35.7716
     4.7047   4.9887   4.9924   5.1407   5.2661   5.3336   5.4075   5.6663
     5.7076   5.8241   6.1096   6.2498   6.3759   6.5645   6.7217   7.1792
     7.2713   7.5286   7.6675   7.8374   7.9746   8.0848   8.3203   8.4787
     8.7151   8.9754   9.1781   9.2917   9.3994   9.7608   9.9714  10.0944
    10.2090  10.3008  10.4608  10.5839  10.6827  10.7900  10.9541  11.0601
    13.9298  14.2996  14.6839  15.0181  15.4128  15.8712  16.2442  16.4494

          k = 0.1667-0.4811 0.0000 (  4476 PWs)   bands (ev):

   -36.6838 -36.6621 -36.6499 -36.6353 -36.6062 -36.5939 -36.4735 -36.4373
   -36.3829 -36.3788 -36.3766 -36.3431 -36.3267 -36.3048 -36.2934 -36.2650
   -36.2390 -36.1940 -36.1510 -36.1507 -35.9257 -35.9255 -35.7737 -35.7735
     4.8142   5.0226   5.0614   5.2454   5.2960   5.3661   5.5096   5.6985
     5.7822   5.8321   6.1622   6.2839   6.4096   6.6738   6.8201   7.0429
     7.2284   7.4930   7.6846   7.7312   7.9103   8.0461   8.1398   8.4014
     8.6042   8.8695   8.9263   9.0339   9.3116   9.6248   9.7378   9.7906
     9.8616  10.0115  10.3337  10.6927  10.7687  10.8775  11.0021  11.1532
    13.0482  13.2860  13.5335  13.9249  14.6023  15.5417  16.6102  17.6039

          k = 0.1667-0.3528 0.0000 (  4458 PWs)   bands (ev):

   -36.6127 -36.5988 -36.5954 -36.5710 -36.5246 -36.5230 -36.4981 -36.4400
   -36.3674 -36.3212 -36.3150 -36.2916 -36.2825 -36.2684 -36.2523 -36.2280
   -36.2246 -36.1592 -36.0770 -36.0768 -35.8737 -35.8736 -35.7817 -35.7814
     5.1032   5.1980   5.2958   5.3920   5.5260   5.6638   5.6749   5.8166
     5.9216   6.1278   6.2131   6.3865   6.4355   6.6817   6.7575   6.9239
     7.1010   7.2857   7.3108   7.3693   7.5863   7.7587   7.8246   8.0585
     8.0844   8.3378   8.6121   8.7613   8.8051   9.1448   9.2499   9.3672
     9.6078   9.7784  10.1063  10.3839  10.5290  10.6117  10.6306  10.8324
    11.1961  11.2615  11.3580  11.6880  12.5988  13.7788  15.0741  16.3728

          k = 0.1667-0.2245 0.0000 (  4433 PWs)   bands (ev):

   -36.6387 -36.6097 -36.5401 -36.4807 -36.4327 -36.4029 -36.3710 -36.3668
   -36.3318 -36.2771 -36.2542 -36.2456 -36.2240 -36.2079 -36.2001 -36.1841
   -36.1655 -36.1331 -35.9663 -35.9662 -35.8103 -35.8102 -35.7916 -35.7915
     4.3141   4.5776   4.9721   5.4007   5.5097   5.6679   5.8619   5.9403
     6.0314   6.1796   6.2936   6.3216   6.5112   6.6290   6.7347   7.0016
     7.2347   7.3090   7.4157   7.5151   7.6237   7.7328   7.7512   7.9809
     8.1141   8.3665   8.4949   8.5467   8.6793   8.8179   8.8938   8.9632
     9.1331   9.2559   9.4571   9.5791   9.5998   9.9158   9.9463   9.9813
    10.0838  10.4056  10.5261  10.6198  11.3693  12.4165  13.5887  14.7353

          k = 0.1667-0.0962 0.0000 (  4427 PWs)   bands (ev):

   -36.6860 -36.6357 -36.5270 -36.4230 -36.3391 -36.3004 -36.2889 -36.2690
   -36.2436 -36.2233 -36.2222 -36.2168 -36.1883 -36.1807 -36.1667 -36.1416
   -36.1306 -36.1127 -35.8671 -35.8669 -35.8001 -35.7999 -35.7716 -35.7714
     3.4960   3.8603   4.4006   4.9300   5.0229   5.1569   5.4727   5.5252
     6.3019   6.5874   6.6425   6.7034   6.8748   6.9139   7.0126   7.3925
     7.5400   7.5673   7.6667   7.6920   7.7819   7.8769   7.9098   7.9296
     8.0218   8.0407   8.1170   8.1876   8.2461   8.4446   8.5634   8.6318
     8.8276   8.8519   9.0244   9.1527   9.3051   9.4388   9.6673   9.7969
     9.9581  10.3440  10.5333  10.6560  10.8385  11.4625  12.4954  13.4643

          k = 0.2778 0.4811 0.0000 (  4485 PWs)   bands (ev):

   -36.6409 -36.6351 -36.6259 -36.6096 -36.5852 -36.5489 -36.5277 -36.4929
   -36.4392 -36.4299 -36.4082 -36.3882 -36.3525 -36.3517 -36.2972 -36.2795
   -36.2559 -36.2129 -36.1283 -36.1282 -35.9975 -35.9975 -35.7707 -35.7706
     5.2461   5.2464   5.4306   5.4505   5.6446   5.8536   5.9483   6.0269
     6.0549   6.1958   6.2516   6.3359   6.3377   6.6212   6.6570   6.9474
     7.0010   7.2820   7.3021   7.5996   7.6889   7.9626   7.9968   8.2002
     8.2243   8.6604   8.7513   8.8371   9.0521   9.1886   9.3563   9.3719
     9.7173  10.0069  10.3651  10.6398  10.7606  10.7661  10.8617  11.0483
    14.4031  14.5813  14.9331  15.4595  16.1846  17.0931  18.0863  18.7680

          k = 0.2778 0.6094 0.0000 (  4491 PWs)   bands (ev):

   -36.6399 -36.6189 -36.6119 -36.5966 -36.5784 -36.5645 -36.5243 -36.5034
   -36.4810 -36.4632 -36.4490 -36.4137 -36.3525 -36.3481 -36.2935 -36.2819
   -36.2563 -36.2311 -36.1197 -36.1195 -36.0303 -36.0302 -35.7691 -35.7689
     5.2061   5.4483   5.4685   5.6280   5.7160   5.8075   5.9280   5.9869
     6.0646   6.1624   6.2535   6.2876   6.3680   6.5954   6.6479   6.9871
     7.1232   7.3140   7.3777   7.5091   7.6779   7.9042   7.9481   8.2580
     8.2698   8.6318   8.7769   8.9530   9.0847   9.2052   9.3614   9.4257
    10.0301  10.1914  10.3815  10.4786  10.5781  10.6409  10.6871  10.8250
    15.6083  15.8447  16.2193  16.6338  16.9827  17.3548  17.7809  18.2665

          k = 0.2778-0.4170 0.0000 (  4462 PWs)   bands (ev):

   -36.6497 -36.6361 -36.6281 -36.6152 -36.5842 -36.5656 -36.5049 -36.4610
   -36.3981 -36.3877 -36.3802 -36.3501 -36.3407 -36.3268 -36.2966 -36.2747
   -36.2459 -36.1929 -36.1300 -36.1299 -35.9514 -35.9512 -35.7732 -35.7729
     5.0936   5.2305   5.2997   5.4502   5.5098   5.6752   5.7577   5.9323
     5.9779   6.1271   6.2819   6.3967   6.5234   6.5773   6.7497   6.8606
     6.9855   7.2205   7.4101   7.5294   7.8102   7.9763   8.0376   8.2174
     8.2542   8.4371   8.6681   8.9049   9.0736   9.2323   9.3416   9.5008
     9.5725   9.8365  10.3171  10.7115  10.8384  10.9001  10.9733  11.1541
    13.2340  13.3509  13.6078  14.0734  14.8233  15.8322  16.9941  18.1850

          k = 0.2778-0.2887 0.0000 (  4463 PWs)   bands (ev):

   -36.6321 -36.6234 -36.6086 -36.5923 -36.5504 -36.5285 -36.5029 -36.4369
   -36.3619 -36.3206 -36.3120 -36.2955 -36.2789 -36.2671 -36.2383 -36.2285
   -36.2011 -36.1647 -36.0992 -36.0989 -35.8613 -35.8612 -35.7810 -35.7808
     4.8546   4.9778   5.1070   5.1335   5.2779   5.3244   5.4904   5.5548
     5.7984   5.8967   6.1218   6.2835   6.5642   6.8501   7.0181   7.2134
     7.3137   7.3882   7.5106   7.6903   7.7583   7.9438   8.0802   8.3649
     8.4348   8.5724   8.7243   8.9516   9.1680   9.2858   9.3824   9.5114
     9.7654  10.0482  10.1588  10.3024  10.5039  10.6123  10.6448  10.8549
    11.0441  11.2308  11.2789  11.5896  12.5187  13.7436  15.0862  16.4255

          k = 0.2778-0.1604 0.0000 (  4458 PWs)   bands (ev):

   -36.6294 -36.6008 -36.5688 -36.5334 -36.4876 -36.4699 -36.4285 -36.4074
   -36.3447 -36.2823 -36.2723 -36.2648 -36.2331 -36.2287 -36.2065 -36.1776
   -36.1583 -36.1456 -36.0288 -36.0286 -35.8125 -35.8124 -35.7884 -35.7882
     4.4704   4.7123   4.9214   5.0052   5.1759   5.3843   5.5152   5.6439
     5.8824   5.9555   6.1359   6.4371   6.7832   6.8673   7.1529   7.2261
     7.4663   7.5580   7.6707   7.6932   7.8776   7.9419   8.1770   8.3250
     8.4025   8.5273   8.6718   8.6778   8.9011   9.1055   9.1843   9.2958
     9.3007   9.3906   9.5725   9.5845   9.7348   9.8507   9.9692  10.0951
    10.3515  10.3675  10.6943  10.9062  11.4438  12.6936  14.0049  15.2550

          k = 0.3889 0.6736 0.0000 (  4511 PWs)   bands (ev):

   -36.6768 -36.6541 -36.6304 -36.6243 -36.6012 -36.5920 -36.4773 -36.4695
   -36.4462 -36.4425 -36.4147 -36.3739 -36.3554 -36.3369 -36.2959 -36.2905
   -36.2481 -36.2204 -36.1465 -36.1463 -35.9877 -35.9876 -35.7703 -35.7700
     4.9303   5.2096   5.3123   5.5049   5.5188   5.6063   5.6913   5.8208
     6.0192   6.0211   6.1985   6.4081   6.4333   6.5088   6.5176   6.9517
     7.0873   7.4440   7.5673   7.7385   7.8645   7.9223   8.2088   8.3055
     8.5342   8.6968   8.7474   8.9127   9.2422   9.4827   9.6548   9.7727
    10.2229  10.2245  10.3926  10.4568  10.5860  10.7093  10.8500  10.8679
    15.1338  15.3886  15.6669  15.9307  16.2172  16.5514  16.8952  17.1957

          k = 0.3889-0.3528 0.0000 (  4485 PWs)   bands (ev):

   -36.7177 -36.6953 -36.6798 -36.6624 -36.6382 -36.6208 -36.4467 -36.4222
   -36.3766 -36.3600 -36.3553 -36.3254 -36.3177 -36.2995 -36.2656 -36.2575
   -36.2198 -36.1976 -36.1740 -36.1726 -35.8942 -35.8942 -35.7746 -35.7740
     4.5440   4.7313   4.8030   4.8910   5.0209   5.1068   5.1801   5.3691
     5.5388   5.6553   5.8115   6.1209   6.4777   6.7734   6.9608   7.3479
     7.3858   7.5435   7.6941   7.8045   8.1506   8.2544   8.5299   8.7670
     8.8808   9.2670   9.4835   9.6022   9.7737   9.9528  10.2250  10.3098
    10.3285  10.3941  10.4438  10.7092  10.7544  10.8588  11.0164  11.1573
    12.6617  13.0971  13.4892  13.7325  14.2037  14.9839  15.8573  16.5443

          k = 0.3889-0.2245 0.0000 (  4444 PWs)   bands (ev):

   -36.6937 -36.6726 -36.6688 -36.6413 -36.6184 -36.5866 -36.4759 -36.4306
   -36.3628 -36.3160 -36.3149 -36.3057 -36.2715 -36.2695 -36.2411 -36.2095
   -36.1942 -36.1754 -36.1546 -36.1521 -35.8481 -35.8478 -35.7785 -35.7783
     4.4994   4.5456   4.6990   4.8333   4.8338   4.9842   5.0999   5.1751
     5.4934   5.5848   5.6333   6.1520   6.6357   7.0023   7.2489   7.3284
     7.4447   7.6712   7.7294   7.9166   8.1963   8.2726   8.7169   8.7622
     9.0105   9.3623   9.6961   9.8736   9.8980  10.2483  10.2678  10.3468
    10.4217  10.4811  10.5119  10.5478  10.6528  10.6957  10.8319  10.9211
    11.0211  11.0403  11.3545  11.4677  12.4920  13.8419  15.2625  16.6658

          k =-0.5000-0.8660 0.0000 (  4492 PWs)   bands (ev):

   -36.7497 -36.7283 -36.7116 -36.6929 -36.6671 -36.6510 -36.4291 -36.4218
   -36.3592 -36.3439 -36.3328 -36.3222 -36.2966 -36.2866 -36.2546 -36.2224
   -36.2193 -36.1970 -36.1874 -36.1868 -35.8623 -35.8622 -35.7752 -35.7752
     4.2689   4.4533   4.5216   4.6208   4.7347   4.8599   4.8877   5.0366
     5.3319   5.3702   5.4920   6.0168   6.5772   6.8938   7.0969   7.2041
     7.3366   7.6342   7.9638   8.1267   8.1970   8.6389   8.7323   9.1185
     9.3954   9.5454  10.0280  10.1171  10.4928  10.4929  10.7321  10.8292
    10.8500  10.9015  10.9396  10.9609  11.0305  11.1434  11.3299  11.3337
    11.6010  12.5818  13.4638  13.7528  14.1335  14.2170  14.5040  14.5229

 ------ SPIN DOWN ----------


          k = 0.0556 0.0962 0.0000 (  4451 PWs)   bands (ev):

   -36.7221 -36.6618 -36.5349 -36.4035 -36.2811 -36.2291 -36.2231 -36.2108
   -36.2013 -36.1890 -36.1831 -36.1793 -36.1633 -36.1481 -36.1441 -36.1234
   -36.1229 -36.1044 -35.8156 -35.8154 -35.7897 -35.7895 -35.7576 -35.7575
     2.9214   3.3213   3.9090   4.4805   4.6410   4.6945   5.0430   5.0544
     6.7946   6.8291   7.0456   7.0638   7.1190   7.1856   7.3899   7.4377
     7.5034   7.5042   7.5223   7.6123   7.6388   7.6640   7.7131   7.7737
     7.8358   7.8404   7.9036   8.1429   8.1611   8.2148   8.8084   8.9608
     8.9693   9.1489   9.2466   9.3720   9.4271   9.5370   9.6042   9.7334
     9.8350  10.1889  10.2394  10.5647  10.7294  10.7898  11.5197  12.2953

          k = 0.0556 0.2245 0.0000 (  4420 PWs)   bands (ev):

   -36.6691 -36.6271 -36.5334 -36.4493 -36.3847 -36.3492 -36.3290 -36.3141
   -36.2917 -36.2553 -36.2376 -36.2321 -36.2074 -36.1984 -36.1827 -36.1623
   -36.1419 -36.1281 -35.9164 -35.9161 -35.8034 -35.8032 -35.7907 -35.7906
     3.8402   4.1704   4.6605   5.1396   5.2197   5.3920   5.6739   5.7661
     6.1153   6.3729   6.4990   6.5238   6.6962   6.7775   6.8459   7.2380
     7.4284   7.5142   7.5881   7.6948   7.7470   7.7869   7.8649   7.9586
     8.0931   8.2166   8.3140   8.3678   8.5204   8.6105   8.6822   8.7039
     8.8105   8.9165   9.0721   9.1762   9.3960   9.5740   9.7322   9.8070
    10.0956  10.2973  10.5335  10.7440  10.9373  11.8809  12.9748  14.0256

          k = 0.0556 0.3528 0.0000 (  4467 PWs)   bands (ev):

   -36.6315 -36.6027 -36.6014 -36.5703 -36.5207 -36.5120 -36.4778 -36.4307
   -36.3588 -36.2994 -36.2899 -36.2858 -36.2558 -36.2449 -36.2228 -36.2035
   -36.1741 -36.1602 -36.0722 -36.0719 -35.8348 -35.8347 -35.7921 -35.7919
     4.6386   4.8922   4.9390   5.0127   5.1811   5.2709   5.4567   5.5294
     5.8113   5.9083   6.0497   6.3428   6.7358   6.8799   7.1690   7.2308
     7.4994   7.5192   7.5969   7.6618   7.7820   7.9776   8.1485   8.3962
     8.4851   8.6298   8.7687   8.8611   9.0922   9.2841   9.4110   9.4717
     9.6120   9.7550   9.8228  10.0111  10.1261  10.1511  10.3344  10.3928
    10.4424  10.6177  10.7728  10.8385  11.8277  13.0987  14.4504  15.7607

          k = 0.0556 0.4811 0.0000 (  4463 PWs)   bands (ev):

   -36.7176 -36.6953 -36.6857 -36.6623 -36.6404 -36.6152 -36.4634 -36.4305
   -36.3693 -36.3373 -36.3314 -36.3174 -36.2968 -36.2836 -36.2520 -36.2353
   -36.2016 -36.1937 -36.1744 -36.1713 -35.8680 -35.8677 -35.7837 -35.7833
     4.4609   4.5732   4.6866   4.7895   4.8615   5.0005   5.0536   5.1882
     5.4776   5.5403   5.6409   6.1035   6.5665   6.9224   7.1382   7.3173
     7.4094   7.6208   7.7429   7.9189   8.2390   8.2894   8.6951   8.8573
     9.0189   9.4200   9.6322   9.8703   9.9892  10.1207  10.3488  10.4280
    10.5017  10.5462  10.5934  10.6317  10.7368  10.8130  10.9574  11.0774
    11.4736  11.9567  12.3263  12.4506  13.1070  14.2398  15.5049  16.7015

          k = 0.0556-0.5453 0.0000 (  4486 PWs)   bands (ev):

   -36.7456 -36.7231 -36.7064 -36.6887 -36.6638 -36.6470 -36.4371 -36.4249
   -36.3701 -36.3491 -36.3425 -36.3271 -36.3076 -36.2942 -36.2593 -36.2437
   -36.2111 -36.2042 -36.1920 -36.1885 -35.8756 -35.8755 -35.7820 -35.7816
     4.3417   4.5227   4.5962   4.6831   4.8096   4.9322   4.9474   5.1222
     5.3846   5.4483   5.5666   6.0406   6.5556   6.8523   7.0621   7.2537
     7.3555   7.6614   7.7837   8.0365   8.2092   8.4791   8.8263   8.9075
     9.2793   9.5370   9.7776  10.1121  10.2707  10.3647  10.4598  10.6338
    10.7336  10.7689  10.8136  10.8455  10.9101  10.9812  11.1273  11.1866
    12.0855  12.7857  13.4790  13.8009  13.8761  14.3065  14.9589  15.4439

          k = 0.0556-0.4170 0.0000 (  4465 PWs)   bands (ev):

   -36.6669 -36.6551 -36.6435 -36.6215 -36.5911 -36.5586 -36.4973 -36.4384
   -36.3654 -36.3198 -36.3130 -36.3040 -36.2788 -36.2658 -36.2391 -36.2215
   -36.1893 -36.1779 -36.1337 -36.1328 -35.8540 -35.8539 -35.7872 -35.7869
     4.6434   4.6778   4.8483   4.9338   4.9907   5.1074   5.2427   5.3122
     5.6189   5.7194   5.7930   6.2152   6.6220   6.9805   7.2697   7.3627
     7.5029   7.5151   7.6492   7.8185   7.9545   8.2634   8.3486   8.5324
     8.8500   9.0790   9.2882   9.3947   9.5203   9.7480   9.9212  10.0015
    10.0672  10.2179  10.2478  10.3617  10.4348  10.5786  10.6913  10.8443
    10.9202  11.0960  11.1756  11.4206  12.4129  13.7244  15.1331  16.5306

          k = 0.0556-0.2887 0.0000 (  4439 PWs)   bands (ev):

   -36.6383 -36.6104 -36.5528 -36.5055 -36.4609 -36.4337 -36.3933 -36.3902
   -36.3383 -36.2802 -36.2636 -36.2598 -36.2294 -36.2232 -36.2036 -36.1831
   -36.1571 -36.1430 -35.9961 -35.9959 -35.8126 -35.8125 -35.7975 -35.7972
     4.3624   4.6123   4.9350   5.1663   5.2935   5.5139   5.6990   5.7995
     6.0208   6.0805   6.2685   6.4588   6.5768   6.7337   6.9523   7.0287
     7.3520   7.5651   7.6479   7.7278   7.7415   7.8769   7.9664   8.0691
     8.1605   8.2744   8.5400   8.6502   8.7157   8.8035   8.9869   9.0163
     9.1703   9.2644   9.4159   9.5504   9.6349   9.8471   9.9506  10.0194
    10.1329  10.4666  10.5772  10.7835  11.3476  12.4810  13.7186  14.9068

          k = 0.0556-0.1604 0.0000 (  4443 PWs)   bands (ev):

   -36.6996 -36.6463 -36.5317 -36.4175 -36.3199 -36.2786 -36.2681 -36.2560
   -36.2307 -36.2210 -36.2138 -36.2055 -36.1841 -36.1752 -36.1623 -36.1415
   -36.1304 -36.1155 -35.8459 -35.8458 -35.8087 -35.8085 -35.7717 -35.7716
     3.3167   3.6959   4.2590   4.8182   4.9399   5.0153   5.3551   5.3840
     6.4851   6.6269   6.7708   6.8035   6.9008   6.9705   7.1636   7.3094
     7.5170   7.5292   7.6564   7.6967   7.7624   7.7954   7.8283   7.8423
     7.9171   7.9475   8.1011   8.1365   8.2466   8.4249   8.4675   8.7960
     8.8655   8.9675   9.0491   9.0918   9.3663   9.4805   9.5971   9.7234
    10.0506  10.1423  10.5379  10.5749  10.7239  11.3046  12.2299  13.1382

          k = 0.0556-0.0321 0.0000 (  4465 PWs)   bands (ev):

   -36.7341 -36.6705 -36.5382 -36.3994 -36.2675 -36.2029 -36.1986 -36.1932
   -36.1893 -36.1737 -36.1634 -36.1563 -36.1456 -36.1453 -36.1229 -36.1216
   -36.1087 -36.0972 -35.8179 -35.8175 -35.7616 -35.7613 -35.7503 -35.7500
     2.7121   3.1193   3.7140   4.2877   4.4702   4.5161   4.8622   4.8679
     6.9681   7.0028   7.1910   7.2104   7.2571   7.3118   7.3458   7.4054
     7.4402   7.4472   7.4551   7.5461   7.5656   7.6262   7.6570   7.6940
     7.7242   7.9027   7.9656   8.0209   8.0358   8.4680   9.0860   9.0881
     9.2474   9.2731   9.3311   9.3980   9.4161   9.5801   9.6803   9.9213
     9.9734  10.1044  10.3186  10.3248  10.6179  10.7821  10.9495  11.6444

          k = 0.1667 0.2887 0.0000 (  4425 PWs)   bands (ev):

   -36.6135 -36.6055 -36.5666 -36.5282 -36.4910 -36.4707 -36.4403 -36.4175
   -36.3608 -36.2995 -36.2867 -36.2725 -36.2564 -36.2400 -36.2213 -36.2117
   -36.2076 -36.1478 -36.0284 -36.0283 -35.8456 -35.8455 -35.7931 -35.7930
     4.8412   4.9680   5.1880   5.4734   5.7766   5.8109   5.8142   5.9279
     5.9937   6.0348   6.1590   6.2721   6.4128   6.4711   6.9225   6.9842
     7.0117   7.1736   7.3484   7.4564   7.4934   7.5003   7.5626   8.1328
     8.1518   8.3854   8.3869   8.5683   8.7833   9.0128   9.1868   9.2274
     9.4564   9.6259   9.8257  10.0361  10.0804  10.2161  10.3843  10.4431
    10.4783  10.5572  10.6379  10.8926  11.8823  13.0321  14.2850  15.5233

          k = 0.1667 0.4170 0.0000 (  4459 PWs)   bands (ev):

   -36.6500 -36.6369 -36.6251 -36.6135 -36.5739 -36.5640 -36.5049 -36.4476
   -36.3767 -36.3564 -36.3529 -36.3218 -36.3135 -36.2938 -36.2860 -36.2508
   -36.2383 -36.1804 -36.1252 -36.1249 -35.9084 -35.9080 -35.7840 -35.7836
     5.0111   5.0731   5.2067   5.3346   5.4318   5.4412   5.6738   5.7189
     5.8084   5.9434   6.2252   6.3551   6.4743   6.7321   6.8862   7.0475
     7.0862   7.2560   7.4357   7.6187   7.8220   7.9579   8.0231   8.2207
     8.3317   8.4577   8.6833   8.9659   9.1515   9.2114   9.3382   9.5434
     9.6844   9.8724  10.2378  10.6462  10.7379  10.8330  10.8845  11.0541
    12.0843  12.2262  12.3683  12.7531  13.5489  14.6615  15.9320  17.2363

          k = 0.1667 0.5453 0.0000 (  4490 PWs)   bands (ev):

   -36.7085 -36.6867 -36.6657 -36.6539 -36.6297 -36.6160 -36.4522 -36.4368
   -36.4092 -36.4009 -36.3895 -36.3592 -36.3365 -36.3180 -36.2959 -36.2844
   -36.2428 -36.2106 -36.1714 -36.1710 -35.9425 -35.9422 -35.7791 -35.7786
     4.7026   4.9863   4.9906   5.1384   5.2641   5.3311   5.4051   5.6639
     5.7049   5.8216   6.1072   6.2471   6.3731   6.5616   6.7189   7.1764
     7.2686   7.5252   7.6640   7.8344   7.9714   8.0815   8.3178   8.4753
     8.7119   8.9720   9.1749   9.2886   9.3956   9.7566   9.9673  10.0904
    10.2048  10.2955  10.4554  10.5801  10.6785  10.7859  10.9502  11.0563
    13.9282  14.2976  14.6820  15.0164  15.4112  15.8696  16.2427  16.4481

          k = 0.1667-0.4811 0.0000 (  4476 PWs)   bands (ev):

   -36.6877 -36.6663 -36.6536 -36.6393 -36.6102 -36.5981 -36.4775 -36.4414
   -36.3871 -36.3831 -36.3808 -36.3471 -36.3307 -36.3088 -36.2972 -36.2688
   -36.2429 -36.1979 -36.1557 -36.1554 -35.9305 -35.9304 -35.7807 -35.7804
     4.8121   5.0208   5.0592   5.2431   5.2940   5.3637   5.5072   5.6962
     5.7795   5.8297   6.1599   6.2813   6.4068   6.6708   6.8173   7.0401
     7.2258   7.4899   7.6819   7.7275   7.9070   8.0438   8.1364   8.3981
     8.6011   8.8663   8.9231   9.0306   9.3078   9.6209   9.7339   9.7863
     9.8572  10.0071  10.3286  10.6881  10.7647  10.8733  10.9981  11.1493
    13.0458  13.2835  13.5311  13.9229  14.6005  15.5399  16.6086  17.6025

          k = 0.1667-0.3528 0.0000 (  4458 PWs)   bands (ev):

   -36.6166 -36.6026 -36.5992 -36.5747 -36.5287 -36.5274 -36.5023 -36.4440
   -36.3715 -36.3254 -36.3193 -36.2956 -36.2866 -36.2721 -36.2562 -36.2320
   -36.2284 -36.1631 -36.0818 -36.0815 -35.8786 -35.8784 -35.7886 -35.7884
     5.1017   5.1963   5.2945   5.3903   5.5240   5.6616   5.6727   5.8142
     5.9191   6.1252   6.2107   6.3839   6.4329   6.6793   6.7550   6.9214
     7.0982   7.2828   7.3077   7.3663   7.5835   7.7555   7.8216   8.0550
     8.0808   8.3342   8.6084   8.7576   8.8010   9.1413   9.2461   9.3631
     9.6034   9.7740  10.1017  10.3799  10.5252  10.6074  10.6264  10.8286
    11.1928  11.2583  11.3545  11.6852  12.5961  13.7763  15.0718  16.3708

          k = 0.1667-0.2245 0.0000 (  4433 PWs)   bands (ev):

   -36.6425 -36.6135 -36.5441 -36.4847 -36.4371 -36.4074 -36.3749 -36.3709
   -36.3356 -36.2810 -36.2583 -36.2499 -36.2281 -36.2118 -36.2041 -36.1879
   -36.1694 -36.1370 -35.9711 -35.9710 -35.8152 -35.8151 -35.7985 -35.7984
     4.3140   4.5772   4.9715   5.3996   5.5077   5.6660   5.8596   5.9385
     6.0289   6.1771   6.2912   6.3187   6.5081   6.6263   6.7320   6.9989
     7.2322   7.3062   7.4123   7.5118   7.6204   7.7295   7.7481   7.9775
     8.1107   8.3626   8.4908   8.5424   8.6758   8.8141   8.8903   8.9596
     9.1296   9.2524   9.4534   9.5756   9.5962   9.9114   9.9423   9.9773
    10.0793  10.4014  10.5219  10.6159  11.3657  12.4134  13.5860  14.7330

          k = 0.1667-0.0962 0.0000 (  4427 PWs)   bands (ev):

   -36.6898 -36.6395 -36.5312 -36.4271 -36.3433 -36.3048 -36.2929 -36.2731
   -36.2474 -36.2272 -36.2263 -36.2209 -36.1927 -36.1847 -36.1707 -36.1454
   -36.1344 -36.1167 -35.8719 -35.8718 -35.8070 -35.8067 -35.7765 -35.7763
     3.4960   3.8603   4.4004   4.9293   5.0211   5.1554   5.4707   5.5235
     6.2993   6.5846   6.6397   6.7006   6.8719   6.9109   7.0094   7.3895
     7.5368   7.5640   7.6633   7.6889   7.7788   7.8734   7.9064   7.9264
     8.0189   8.0374   8.1142   8.1839   8.2427   8.4409   8.5598   8.6282
     8.8235   8.8483   9.0202   9.1488   9.3010   9.4347   9.6632   9.7927
     9.9540  10.3395  10.5295  10.6514  10.8344  11.4593  12.4925  13.4619

          k = 0.2778 0.4811 0.0000 (  4485 PWs)   bands (ev):

   -36.6450 -36.6388 -36.6301 -36.6132 -36.5894 -36.5529 -36.5316 -36.4969
   -36.4436 -36.4341 -36.4124 -36.3923 -36.3565 -36.3555 -36.3012 -36.2833
   -36.2597 -36.2168 -36.1330 -36.1329 -36.0023 -36.0023 -35.7777 -35.7776
     5.2437   5.2443   5.4285   5.4479   5.6421   5.8514   5.9461   6.0247
     6.0527   6.1933   6.2491   6.3326   6.3347   6.6184   6.6547   6.9450
     6.9985   7.2795   7.2993   7.5971   7.6863   7.9588   7.9931   8.1970
     8.2212   8.6571   8.7478   8.8334   9.0485   9.1852   9.3521   9.3675
     9.7131  10.0017  10.3595  10.6349  10.7567  10.7623  10.8576  11.0444
    14.4010  14.5791  14.9309  15.4576  16.1827  17.0913  18.0847  18.7666

          k = 0.2778 0.6094 0.0000 (  4491 PWs)   bands (ev):

   -36.6438 -36.6230 -36.6158 -36.6003 -36.5826 -36.5685 -36.5283 -36.5075
   -36.4852 -36.4673 -36.4530 -36.4178 -36.3566 -36.3522 -36.2972 -36.2856
   -36.2602 -36.2351 -36.1245 -36.1243 -36.0351 -36.0350 -35.7761 -35.7759
     5.2038   5.4459   5.4662   5.6256   5.7135   5.8051   5.9259   5.9845
     6.0621   6.1596   6.2511   6.2850   6.3655   6.5929   6.6451   6.9846
     7.1205   7.3113   7.3751   7.5067   7.6752   7.9004   7.9444   8.2547
     8.2666   8.6285   8.7733   8.9494   9.0812   9.2015   9.3571   9.4215
    10.0255  10.1852  10.3761  10.4745  10.5741  10.6372  10.6832  10.8212
    15.6066  15.8430  16.2175  16.6322  16.9812  17.3532  17.7793  18.2647

          k = 0.2778-0.4170 0.0000 (  4462 PWs)   bands (ev):

   -36.6536 -36.6402 -36.6318 -36.6191 -36.5883 -36.5697 -36.5089 -36.4650
   -36.4024 -36.3920 -36.3846 -36.3539 -36.3446 -36.3305 -36.3006 -36.2786
   -36.2497 -36.1968 -36.1347 -36.1346 -35.9562 -35.9561 -35.7802 -35.7799
     5.0914   5.2285   5.2974   5.4481   5.5073   5.6731   5.7553   5.9300
     5.9755   6.1247   6.2794   6.3941   6.5208   6.5744   6.7469   6.8580
     6.9831   7.2180   7.4072   7.5269   7.8074   7.9725   8.0340   8.2143
     8.2512   8.4339   8.6644   8.9013   9.0701   9.2287   9.3377   9.4963
     9.5683   9.8316  10.3119  10.7065  10.8346  10.8959  10.9693  11.1503
    13.2315  13.3484  13.6053  14.0712  14.8212  15.8302  16.9922  18.1832

          k = 0.2778-0.2887 0.0000 (  4463 PWs)   bands (ev):

   -36.6360 -36.6271 -36.6127 -36.5960 -36.5547 -36.5325 -36.5070 -36.4410
   -36.3660 -36.3246 -36.3162 -36.2993 -36.2831 -36.2711 -36.2421 -36.2323
   -36.2050 -36.1686 -36.1040 -36.1036 -35.8661 -35.8660 -35.7879 -35.7877
     4.8532   4.9759   5.1050   5.1319   5.2756   5.3225   5.4883   5.5524
     5.7957   5.8942   6.1194   6.2809   6.5615   6.8474   7.0153   7.2107
     7.3105   7.3856   7.5081   7.6875   7.7547   7.9404   8.0769   8.3619
     8.4315   8.5694   8.7211   8.9478   9.1640   9.2822   9.3786   9.5071
     9.7611  10.0438  10.1545  10.2986  10.5000  10.6081  10.6405  10.8510
    11.0407  11.2276  11.2755  11.5868  12.5161  13.7412  15.0840  16.4235

          k = 0.2778-0.1604 0.0000 (  4458 PWs)   bands (ev):

   -36.6332 -36.6046 -36.5727 -36.5373 -36.4920 -36.4743 -36.4326 -36.4114
   -36.3486 -36.2862 -36.2763 -36.2689 -36.2375 -36.2325 -36.2106 -36.1814
   -36.1622 -36.1496 -36.0336 -36.0334 -35.8173 -35.8172 -35.7953 -35.7951
     4.4697   4.7115   4.9203   5.0032   5.1740   5.3821   5.5129   5.6414
     5.8801   5.9530   6.1334   6.4344   6.7807   6.8646   7.1505   7.2234
     7.4640   7.5547   7.6674   7.6901   7.8743   7.9385   8.1737   8.3212
     8.3995   8.5244   8.6691   8.6742   8.8974   9.1018   9.1806   9.2922
     9.2969   9.3872   9.5690   9.5803   9.7310   9.8466   9.9650  10.0910
    10.3476  10.3631  10.6897  10.9021  11.4404  12.6908  14.0024  15.2529

          k = 0.3889 0.6736 0.0000 (  4511 PWs)   bands (ev):

   -36.6807 -36.6581 -36.6341 -36.6284 -36.6052 -36.5961 -36.4813 -36.4735
   -36.4505 -36.4464 -36.4190 -36.3782 -36.3594 -36.3408 -36.2997 -36.2942
   -36.2520 -36.2243 -36.1513 -36.1511 -35.9925 -35.9924 -35.7773 -35.7770
     4.9280   5.2072   5.3104   5.5026   5.5168   5.6037   5.6889   5.8183
     6.0165   6.0186   6.1956   6.4058   6.4306   6.5063   6.5150   6.9491
     7.0847   7.4409   7.5647   7.7347   7.8622   7.9187   8.2056   8.3025
     8.5306   8.6936   8.7443   8.9090   9.2385   9.4788   9.6507   9.7688
    10.2177  10.2190  10.3882  10.4520  10.5821  10.7052  10.8463  10.8641
    15.1324  15.3870  15.6651  15.9289  16.2155  16.5497  16.8937  17.1944

          k = 0.3889-0.3528 0.0000 (  4485 PWs)   bands (ev):

   -36.7216 -36.6994 -36.6835 -36.6665 -36.6422 -36.6249 -36.4508 -36.4264
   -36.3806 -36.3641 -36.3593 -36.3294 -36.3215 -36.3037 -36.2694 -36.2613
   -36.2238 -36.2016 -36.1786 -36.1772 -35.8991 -35.8990 -35.7816 -35.7810
     4.5419   4.7295   4.8007   4.8887   5.0190   5.1044   5.1778   5.3668
     5.5361   5.6528   5.8090   6.1182   6.4749   6.7702   6.9578   7.3449
     7.3826   7.5402   7.6908   7.8015   8.1474   8.2509   8.5272   8.7640
     8.8773   9.2639   9.4796   9.5990   9.7703   9.9485  10.2204  10.3057
    10.3246  10.3899  10.4391  10.7054  10.7499  10.8547  11.0123  11.1534
    12.6597  13.0948  13.4870  13.7307  14.2021  14.9824  15.8559  16.5429

          k = 0.3889-0.2245 0.0000 (  4444 PWs)   bands (ev):

   -36.6976 -36.6767 -36.6726 -36.6451 -36.6226 -36.5906 -36.4799 -36.4348
   -36.3669 -36.3199 -36.3188 -36.3098 -36.2759 -36.2732 -36.2452 -36.2133
   -36.1982 -36.1794 -36.1593 -36.1567 -35.8529 -35.8526 -35.7855 -35.7852
     4.4974   4.5440   4.6968   4.8309   4.8320   4.9820   5.0975   5.1728
     5.4909   5.5823   5.6308   6.1494   6.6330   6.9991   7.2454   7.3252
     7.4415   7.6681   7.7260   7.9142   8.1924   8.2692   8.7146   8.7584
     9.0071   9.3584   9.6931   9.8702   9.8937  10.2451  10.2637  10.3432
    10.4180  10.4767  10.5076  10.5439  10.6490  10.6914  10.8278  10.9168
    11.0171  11.0378  11.3524  11.4660  12.4900  13.8400  15.2607  16.6641

          k =-0.5000-0.8660 0.0000 (  4492 PWs)   bands (ev):

   -36.7536 -36.7325 -36.7152 -36.6972 -36.6710 -36.6552 -36.4334 -36.4261
   -36.3630 -36.3477 -36.3368 -36.3263 -36.3004 -36.2910 -36.2587 -36.2262
   -36.2235 -36.2017 -36.1914 -36.1911 -35.8671 -35.8670 -35.7822 -35.7822
     4.2668   4.4515   4.5194   4.6184   4.7327   4.8576   4.8852   5.0344
     5.3292   5.3677   5.4894   6.0141   6.5744   6.8905   7.0934   7.2008
     7.3335   7.6307   7.9609   8.1228   8.1946   8.6351   8.7284   9.1159
     9.3915   9.5410  10.0235  10.1140  10.4879  10.4882  10.7279  10.8254
    10.8462  10.8974  10.9358  10.9568  11.0268  11.1396  11.3255  11.3293
    11.5998  12.5805  13.4625  13.7524  14.1320  14.2157  14.5024  14.5214

     the Fermi energy is    10.2748 ev

!    total energy              =   -1369.42457621 Ry
     estimated scf accuracy    <       0.00000080 Ry
     smearing contrib. (-TS)   =      -0.03489909 Ry
     internal energy E=F+TS    =   -1369.38967713 Ry

     The total energy is F=E-TS. E is the sum of the following terms:
     one-electron contribution =  -12546.93717317 Ry
     hartree contribution      =    6334.25125942 Ry
     xc contribution           =    -239.27679073 Ry
     ewald contribution        =    5082.57302736 Ry

     total magnetization       =    -0.03 Bohr mag/cell
     absolute magnetization    =     0.03 Bohr mag/cell

     convergence has been achieved in  14 iterations

     negative rho (up, down):  2.292E-01 2.290E-01

     Forces acting on atoms (cartesian axes, Ry/au):

     atom    1 type  1   force =     0.00000000    0.00000000    0.01204815
     atom    2 type  1   force =     0.00000000    0.00000000   -0.00716922
     atom    3 type  1   force =     0.00000000    0.00000000   -0.00686865
     atom    4 type  1   force =     0.00000000    0.00000000    0.00106982
     atom    5 type  1   force =     0.00000000    0.00000000   -0.00113566
     atom    6 type  1   force =     0.00000000    0.00000000    0.00688723
     atom    7 type  1   force =     0.00000000    0.00000000    0.00721514
     atom    8 type  1   force =     0.00000000    0.00000000   -0.01204681

     Total force =     0.022154     Total SCF correction =     0.003343
     SCF correction compared to forces is large: reduce conv_thr to get better values

     BFGS Geometry Optimization
     Energy error            =      0.0E+00
     Gradient error          =      1.2E-02

     number of scf cycles    =   1
     number of bfgs steps    =   0

     energy   new            =   -1369.4245762150 Ry

     new trust radius        =       0.0120481468 bohr
     new conv_thr            =       0.0000010000 Ry


ATOMIC_POSITIONS (angstrom)
Rh            0.0000000000        0.0000000000        0.0063756047
Rh            2.7108568000        1.5651139000        2.2096115140
Rh            1.3554284000        0.7825569000        4.4231758683
Rh            0.0000000000        0.0000000000        6.6407820217
Rh            2.7108568000        1.5651139000        8.8530202353
Rh            1.3554284000        0.7825569000       11.0706709649
Rh            0.0000000000        0.0000000000       13.2842497889
Rh            2.7108568000        1.5651139000       15.4874621022



     Writing output data file /home/STUDENTI/leonardo.razzai/WORK/relax_surf/8-L.save/
     NEW-OLD atomic charge density approx. for the potential

     negative rho (up, down):  2.299E-01 2.298E-01
     Generating pointlists ...

     total cpu time spent up to now is      289.9 secs

     Self-consistent Calculation

     iteration #  1     ecut=    35.00 Ry     beta= 0.40
     Davidson diagonalization with overlap
     ethr =  1.00E-06,  avg # of iterations =  6.0

     negative rho (up, down):  2.299E-01 2.298E-01

     total cpu time spent up to now is      325.9 secs

     total energy              =   -1369.42450437 Ry
     estimated scf accuracy    <       0.03036703 Ry

     total magnetization       =    -0.02 Bohr mag/cell
     absolute magnetization    =     0.02 Bohr mag/cell

     iteration #  2     ecut=    35.00 Ry     beta= 0.40
     Davidson diagonalization with overlap
     ethr =  2.53E-05,  avg # of iterations =  1.0

     negative rho (up, down):  2.299E-01 2.298E-01

     total cpu time spent up to now is      342.0 secs

     total energy              =   -1369.42486216 Ry
     estimated scf accuracy    <       0.01823213 Ry

     total magnetization       =    -0.02 Bohr mag/cell
     absolute magnetization    =     0.02 Bohr mag/cell

     iteration #  3     ecut=    35.00 Ry     beta= 0.40
     Davidson diagonalization with overlap
     ethr =  1.52E-05,  avg # of iterations =  1.0

     negative rho (up, down):  2.299E-01 2.299E-01

     total cpu time spent up to now is      358.0 secs

     total energy              =   -1369.42501049 Ry
     estimated scf accuracy    <       0.00063401 Ry

     total magnetization       =    -0.02 Bohr mag/cell
     absolute magnetization    =     0.02 Bohr mag/cell

     iteration #  4     ecut=    35.00 Ry     beta= 0.40
     Davidson diagonalization with overlap
     ethr =  5.28E-07,  avg # of iterations =  1.0

     negative rho (up, down):  2.299E-01 2.299E-01

     total cpu time spent up to now is      374.0 secs

     total energy              =   -1369.42499966 Ry
     estimated scf accuracy    <       0.00030746 Ry

     total magnetization       =    -0.01 Bohr mag/cell
     absolute magnetization    =     0.02 Bohr mag/cell

     iteration #  5     ecut=    35.00 Ry     beta= 0.40
     Davidson diagonalization with overlap
     ethr =  2.56E-07,  avg # of iterations =  1.0

     negative rho (up, down):  2.299E-01 2.299E-01

     total cpu time spent up to now is      390.2 secs

     total energy              =   -1369.42500480 Ry
     estimated scf accuracy    <       0.00001248 Ry

     total magnetization       =    -0.01 Bohr mag/cell
     absolute magnetization    =     0.01 Bohr mag/cell

     iteration #  6     ecut=    35.00 Ry     beta= 0.40
     Davidson diagonalization with overlap
     ethr =  1.04E-08,  avg # of iterations =  1.7

     negative rho (up, down):  2.299E-01 2.299E-01

     total cpu time spent up to now is      407.1 secs

     total energy              =   -1369.42500525 Ry
     estimated scf accuracy    <       0.00000135 Ry

     total magnetization       =    -0.01 Bohr mag/cell
     absolute magnetization    =     0.01 Bohr mag/cell

     iteration #  7     ecut=    35.00 Ry     beta= 0.40
     Davidson diagonalization with overlap
     ethr =  1.13E-09,  avg # of iterations =  2.5

     negative rho (up, down):  2.299E-01 2.299E-01

     total cpu time spent up to now is      425.5 secs

     total energy              =   -1369.42500532 Ry
     estimated scf accuracy    <       0.00000195 Ry

     total magnetization       =    -0.01 Bohr mag/cell
     absolute magnetization    =     0.01 Bohr mag/cell

     iteration #  8     ecut=    35.00 Ry     beta= 0.40
     Davidson diagonalization with overlap
     ethr =  1.13E-09,  avg # of iterations =  1.0

     negative rho (up, down):  2.299E-01 2.299E-01

     total cpu time spent up to now is      441.5 secs

     total energy              =   -1369.42500541 Ry
     estimated scf accuracy    <       0.00000229 Ry

     total magnetization       =    -0.01 Bohr mag/cell
     absolute magnetization    =     0.01 Bohr mag/cell

     iteration #  9     ecut=    35.00 Ry     beta= 0.40
     Davidson diagonalization with overlap
     ethr =  1.13E-09,  avg # of iterations =  1.2

     negative rho (up, down):  2.299E-01 2.299E-01
 
     Magnetic moment per site:
     atom:    1    charge:   13.1787    magn:   -0.0011    constr:    0.0000
     atom:    2    charge:   13.2395    magn:   -0.0006    constr:    0.0000
     atom:    3    charge:   13.2462    magn:    0.0000    constr:    0.0000
     atom:    4    charge:   13.2488    magn:    0.0001    constr:    0.0000
     atom:    5    charge:   13.2481    magn:    0.0001    constr:    0.0000
     atom:    6    charge:   13.2465    magn:    0.0000    constr:    0.0000
     atom:    7    charge:   13.2398    magn:   -0.0006    constr:    0.0000
     atom:    8    charge:   13.1778    magn:   -0.0011    constr:    0.0000

     total cpu time spent up to now is      457.5 secs

     End of self-consistent calculation

 ------ SPIN UP ------------


          k = 0.0556 0.0962 0.0000 (  4451 PWs)   bands (ev):

   -36.7192 -36.6630 -36.5404 -36.4064 -36.2825 -36.2309 -36.2242 -36.2110
   -36.2027 -36.1908 -36.1823 -36.1773 -36.1634 -36.1469 -36.1417 -36.1214
   -36.1206 -36.1019 -35.8234 -35.8232 -35.7969 -35.7967 -35.7649 -35.7647
     2.9229   3.3157   3.8990   4.4761   4.6455   4.6957   5.0271   5.0391
     6.7902   6.8353   7.0478   7.0673   7.1101   7.1843   7.3821   7.4343
     7.5060   7.5069   7.5243   7.6093   7.6363   7.6584   7.7165   7.7713
     7.8285   7.8373   7.8964   8.1372   8.1466   8.2072   8.8047   8.9625
     8.9715   9.1479   9.2447   9.3659   9.4255   9.5354   9.6034   9.7283
     9.8371  10.1859  10.2377  10.5691  10.7297  10.7896  11.5217  12.3028

          k = 0.0556 0.2245 0.0000 (  4420 PWs)   bands (ev):

   -36.6662 -36.6276 -36.5369 -36.4516 -36.3885 -36.3528 -36.3274 -36.3144
   -36.2897 -36.2544 -36.2385 -36.2341 -36.2076 -36.1978 -36.1819 -36.1601
   -36.1396 -36.1257 -35.9235 -35.9231 -35.8114 -35.8111 -35.7979 -35.7978
     3.8420   4.1655   4.6514   5.1362   5.2211   5.3890   5.6600   5.7546
     6.1160   6.3697   6.4963   6.5251   6.6857   6.7748   6.8363   7.2343
     7.4241   7.5084   7.5897   7.6918   7.7489   7.7888   7.8637   7.9538
     8.0905   8.2185   8.3075   8.3611   8.5140   8.6058   8.6814   8.6999
     8.8044   8.9171   9.0664   9.1748   9.3958   9.5727   9.7304   9.8085
    10.0937  10.2993  10.5389  10.7457  10.9395  11.8818  12.9792  14.0328

          k = 0.0556 0.3528 0.0000 (  4467 PWs)   bands (ev):

   -36.6292 -36.6027 -36.5993 -36.5711 -36.5240 -36.5160 -36.4770 -36.4325
   -36.3614 -36.2999 -36.2905 -36.2871 -36.2562 -36.2440 -36.2225 -36.2016
   -36.1717 -36.1578 -36.0785 -36.0782 -35.8420 -35.8418 -35.8006 -35.8005
     4.6409   4.8880   4.9432   5.0103   5.1705   5.2723   5.4483   5.5213
     5.8001   5.8986   6.0415   6.3356   6.7322   6.8742   7.1707   7.2229
     7.4997   7.5178   7.5980   7.6620   7.7804   7.9693   8.1453   8.3836
     8.4796   8.6228   8.7659   8.8543   9.0871   9.2863   9.4118   9.4713
     9.6121   9.7529   9.8233  10.0088  10.1234  10.1498  10.3361  10.3931
    10.4424  10.6229  10.7739  10.8406  11.8311  13.1036  14.4553  15.7650

          k = 0.0556 0.4811 0.0000 (  4463 PWs)   bands (ev):

   -36.7161 -36.6974 -36.6832 -36.6633 -36.6402 -36.6142 -36.4670 -36.4375
   -36.3717 -36.3372 -36.3313 -36.3170 -36.2961 -36.2839 -36.2516 -36.2338
   -36.2000 -36.1928 -36.1793 -36.1747 -35.8751 -35.8749 -35.7927 -35.7923
     4.4642   4.5757   4.6824   4.7914   4.8564   4.9916   5.0483   5.1825
     5.4655   5.5265   5.6289   6.0962   6.5615   6.9200   7.1416   7.3171
     7.4107   7.6173   7.7343   7.9223   8.2239   8.2832   8.6951   8.8510
     9.0132   9.4150   9.6286   9.8678   9.9902  10.1213  10.3526  10.4288
    10.5001  10.5474  10.5953  10.6320  10.7380  10.8122  10.9554  11.0782
    11.4732  11.9538  12.3248  12.4505  13.1079  14.2454  15.5087  16.7010

          k = 0.0556-0.5453 0.0000 (  4486 PWs)   bands (ev):

   -36.7442 -36.7254 -36.7035 -36.6911 -36.6621 -36.6463 -36.4446 -36.4333
   -36.3687 -36.3476 -36.3416 -36.3273 -36.3062 -36.2955 -36.2588 -36.2426
   -36.2113 -36.2059 -36.1936 -36.1901 -35.8827 -35.8826 -35.7911 -35.7908
     4.3449   4.5250   4.5913   4.6857   4.8039   4.9241   4.9406   5.1186
     5.3733   5.4338   5.5534   6.0329   6.5492   6.8517   7.0655   7.2542
     7.3571   7.6532   7.7790   8.0394   8.1942   8.4744   8.8187   8.9060
     9.2763   9.5332   9.7760  10.1116  10.2708  10.3676  10.4631  10.6352
    10.7329  10.7678  10.8147  10.8458  10.9109  10.9801  11.1242  11.1861
    12.0851  12.7821  13.4767  13.8003  13.8768  14.3110  14.9622  15.4438

          k = 0.0556-0.4170 0.0000 (  4465 PWs)   bands (ev):

   -36.6656 -36.6530 -36.6447 -36.6209 -36.5931 -36.5578 -36.4993 -36.4431
   -36.3690 -36.3201 -36.3138 -36.3042 -36.2788 -36.2652 -36.2388 -36.2197
   -36.1870 -36.1758 -36.1394 -36.1382 -35.8612 -35.8611 -35.7960 -35.7957
     4.6458   4.6812   4.8443   4.9307   4.9918   5.0990   5.2384   5.3022
     5.6062   5.7059   5.7842   6.2083   6.6185   6.9761   7.2691   7.3624
     7.5027   7.5163   7.6504   7.8105   7.9483   8.2571   8.3425   8.5265
     8.8425   9.0738   9.2817   9.3887   9.5189   9.7489   9.9247  10.0026
    10.0678  10.2157  10.2487  10.3632  10.4345  10.5796  10.6927  10.8453
    10.9211  11.0946  11.1753  11.4191  12.4155  13.7303  15.1377  16.5328

          k = 0.0556-0.2887 0.0000 (  4439 PWs)   bands (ev):

   -36.6355 -36.6101 -36.5536 -36.5072 -36.4657 -36.4369 -36.3929 -36.3895
   -36.3387 -36.2803 -36.2640 -36.2618 -36.2302 -36.2219 -36.2032 -36.1810
   -36.1548 -36.1406 -36.0029 -36.0027 -35.8198 -35.8197 -35.8057 -35.8054
     4.3645   4.6085   4.9287   5.1668   5.2873   5.5087   5.6947   5.7909
     6.0159   6.0744   6.2640   6.4483   6.5728   6.7230   6.9534   7.0237
     7.3507   7.5650   7.6458   7.7301   7.7381   7.8737   7.9590   8.0646
     8.1547   8.2729   8.5295   8.6500   8.7085   8.8039   8.9830   9.0156
     9.1702   9.2648   9.4139   9.5462   9.6288   9.8464   9.9507  10.0206
    10.1334  10.4712  10.5815  10.7857  11.3506  12.4841  13.7234  14.9128

          k = 0.0556-0.1604 0.0000 (  4443 PWs)   bands (ev):

   -36.6968 -36.6473 -36.5366 -36.4203 -36.3227 -36.2816 -36.2675 -36.2553
   -36.2307 -36.2192 -36.2143 -36.2074 -36.1834 -36.1747 -36.1611 -36.1392
   -36.1282 -36.1130 -35.8533 -35.8532 -35.8163 -35.8161 -35.7790 -35.7789
     3.3183   3.6905   4.2492   4.8134   4.9443   5.0158   5.3391   5.3691
     6.4841   6.6299   6.7664   6.8046   6.8999   6.9677   7.1516   7.3005
     7.5175   7.5258   7.6604   7.6963   7.7650   7.7914   7.8247   7.8435
     7.9142   7.9434   8.0955   8.1334   8.2455   8.4126   8.4555   8.7959
     8.8665   8.9638   9.0472   9.0898   9.3689   9.4775   9.5947   9.7215
    10.0504  10.1404  10.5424  10.5749  10.7264  11.3039  12.2333  13.1460

          k = 0.0556-0.0321 0.0000 (  4465 PWs)   bands (ev):

   -36.7311 -36.6718 -36.5439 -36.4024 -36.2683 -36.2040 -36.2006 -36.1941
   -36.1914 -36.1739 -36.1636 -36.1551 -36.1444 -36.1437 -36.1208 -36.1195
   -36.1062 -36.0947 -35.8256 -35.8252 -35.7689 -35.7685 -35.7576 -35.7573
     2.7136   3.1136   3.7040   4.2835   4.4746   4.5176   4.8466   4.8525
     6.9652   7.0069   7.1934   7.2130   7.2534   7.3105   7.3484   7.4072
     7.4397   7.4447   7.4538   7.5401   7.5635   7.6249   7.6555   7.6918
     7.7285   7.8895   7.9566   8.0064   8.0226   8.4655   9.0886   9.0907
     9.2449   9.2723   9.3277   9.3959   9.4137   9.5750   9.6755   9.9140
     9.9725  10.1073  10.3189  10.3230  10.6218  10.7836  10.9500  11.6513

          k = 0.1667 0.2887 0.0000 (  4425 PWs)   bands (ev):

   -36.6108 -36.6044 -36.5664 -36.5293 -36.4959 -36.4746 -36.4396 -36.4166
   -36.3622 -36.3009 -36.2893 -36.2757 -36.2554 -36.2377 -36.2197 -36.2101
   -36.2051 -36.1455 -36.0349 -36.0348 -35.8528 -35.8527 -35.8014 -35.8014
     4.8440   4.9663   5.1832   5.4668   5.7683   5.8136   5.8150   5.9273
     5.9902   6.0291   6.1459   6.2569   6.4014   6.4700   6.9165   6.9827
     7.0034   7.1682   7.3453   7.4456   7.4804   7.5010   7.5685   8.1328
     8.1515   8.3812   8.3834   8.5669   8.7819   9.0100   9.1884   9.2264
     9.4510   9.6212   9.8277  10.0391  10.0791  10.2136  10.3857  10.4447
    10.4798  10.5563  10.6381  10.8933  11.8857  13.0368  14.2896  15.5281

          k = 0.1667 0.4170 0.0000 (  4459 PWs)   bands (ev):

   -36.6487 -36.6370 -36.6242 -36.6131 -36.5754 -36.5633 -36.5062 -36.4506
   -36.3798 -36.3608 -36.3572 -36.3195 -36.3129 -36.2925 -36.2842 -36.2492
   -36.2365 -36.1779 -36.1311 -36.1307 -35.9154 -35.9151 -35.7929 -35.7925
     5.0146   5.0762   5.2049   5.3304   5.4325   5.4346   5.6639   5.7077
     5.7991   5.9341   6.2189   6.3484   6.4638   6.7251   6.8794   7.0434
     7.0886   7.2505   7.4383   7.6095   7.8184   7.9577   8.0165   8.2167
     8.3239   8.4520   8.6763   8.9658   9.1511   9.2121   9.3368   9.5482
     9.6873   9.8755  10.2414  10.6483  10.7394  10.8319  10.8866  11.0547
    12.0851  12.2261  12.3651  12.7506  13.5498  14.6663  15.9358  17.2382

          k = 0.1667 0.5453 0.0000 (  4490 PWs)   bands (ev):

   -36.7071 -36.6888 -36.6629 -36.6562 -36.6281 -36.6154 -36.4552 -36.4414
   -36.4091 -36.4040 -36.3923 -36.3608 -36.3366 -36.3159 -36.2942 -36.2828
   -36.2407 -36.2079 -36.1769 -36.1764 -35.9495 -35.9492 -35.7883 -35.7878
     4.7060   4.9812   4.9933   5.1411   5.2596   5.3254   5.3925   5.6562
     5.6941   5.8121   6.0965   6.2370   6.3626   6.5596   6.7236   7.1689
     7.2625   7.5195   7.6645   7.8313   7.9668   8.0794   8.3183   8.4664
     8.7073   8.9690   9.1683   9.2847   9.3940   9.7596   9.9692  10.0924
    10.2068  10.3000  10.4597  10.5821  10.6794  10.7875  10.9521  11.0573
    13.9283  14.2957  14.6797  15.0149  15.4101  15.8720  16.2446  16.4477

          k = 0.1667-0.4811 0.0000 (  4476 PWs)   bands (ev):

   -36.6863 -36.6685 -36.6505 -36.6408 -36.6094 -36.5977 -36.4789 -36.4454
   -36.3896 -36.3871 -36.3842 -36.3462 -36.3299 -36.3078 -36.2955 -36.2673
   -36.2408 -36.1955 -36.1614 -36.1610 -35.9375 -35.9374 -35.7898 -35.7895
     4.8156   5.0237   5.0555   5.2443   5.2898   5.3569   5.4962   5.6875
     5.7676   5.8218   6.1511   6.2723   6.3965   6.6666   6.8228   7.0306
     7.2216   7.4854   7.6788   7.7252   7.9026   8.0437   8.1337   8.3898
     8.5956   8.8615   8.9157   9.0276   9.3068   9.6229   9.7348   9.7907
     9.8605  10.0107  10.3323  10.6913  10.7656  10.8738  10.9999  11.1502
    13.0464  13.2821  13.5285  13.9211  14.6005  15.5434  16.6112  17.6022

          k = 0.1667-0.3528 0.0000 (  4458 PWs)   bands (ev):

   -36.6150 -36.6025 -36.5967 -36.5743 -36.5316 -36.5309 -36.5024 -36.4452
   -36.3743 -36.3289 -36.3232 -36.2959 -36.2862 -36.2694 -36.2536 -36.2297
   -36.2275 -36.1607 -36.0880 -36.0877 -35.8857 -35.8855 -35.7973 -35.7970
     5.1047   5.1997   5.2927   5.3863   5.5207   5.6511   5.6724   5.8043
     5.9107   6.1190   6.2022   6.3775   6.4217   6.6744   6.7472   6.9178
     7.0930   7.2818   7.3088   7.3599   7.5772   7.7460   7.8163   8.0538
     8.0794   8.3296   8.6071   8.7522   8.8037   9.1418   9.2405   9.3680
     9.6027   9.7750  10.1052  10.3801  10.5262  10.6092  10.6264  10.8290
    11.1936  11.2595  11.3513  11.6825  12.5984  13.7816  15.0762  16.3740

          k = 0.1667-0.2245 0.0000 (  4433 PWs)   bands (ev):

   -36.6397 -36.6135 -36.5460 -36.4865 -36.4416 -36.4111 -36.3732 -36.3706
   -36.3350 -36.2810 -36.2599 -36.2528 -36.2279 -36.2106 -36.2033 -36.1855
   -36.1670 -36.1348 -35.9780 -35.9778 -35.8224 -35.8224 -35.8066 -35.8065
     4.3160   4.5733   4.9637   5.3946   5.5086   5.6630   5.8522   5.9305
     6.0254   6.1772   6.2831   6.3120   6.4958   6.6269   6.7242   6.9930
     7.2283   7.3007   7.4085   7.5096   7.6146   7.7263   7.7507   7.9761
     8.1110   8.3566   8.4865   8.5381   8.6778   8.8110   8.8888   8.9556
     9.1277   9.2529   9.4477   9.5703   9.5906   9.9138   9.9424   9.9779
    10.0810  10.4034  10.5263  10.6172  11.3688  12.4165  13.5906  14.7392

          k = 0.1667-0.0962 0.0000 (  4427 PWs)   bands (ev):

   -36.6869 -36.6404 -36.5357 -36.4297 -36.3465 -36.3080 -36.2918 -36.2728
   -36.2457 -36.2266 -36.2262 -36.2227 -36.1933 -36.1833 -36.1701 -36.1435
   -36.1322 -36.1142 -35.8792 -35.8790 -35.8147 -35.8145 -35.7837 -35.7835
     3.4977   3.8551   4.3908   4.9249   5.0247   5.1543   5.4552   5.5101
     6.3001   6.5809   6.6404   6.7026   6.8704   6.9028   6.9963   7.3837
     7.5370   7.5602   7.6643   7.6930   7.7786   7.8718   7.9008   7.9293
     8.0166   8.0355   8.1143   8.1741   8.2380   8.4305   8.5482   8.6267
     8.8190   8.8471   9.0206   9.1471   9.3049   9.4308   9.6617   9.7924
     9.9498  10.3421  10.5302  10.6566  10.8360  11.4583  12.4963  13.4696

          k = 0.2778 0.4811 0.0000 (  4485 PWs)   bands (ev):

   -36.6452 -36.6354 -36.6330 -36.6108 -36.5904 -36.5533 -36.5306 -36.4975
   -36.4469 -36.4365 -36.4162 -36.3912 -36.3605 -36.3560 -36.3001 -36.2810
   -36.2571 -36.2141 -36.1391 -36.1390 -36.0091 -36.0090 -35.7869 -35.7868
     5.2453   5.2500   5.4319   5.4393   5.6311   5.8406   5.9435   6.0228
     6.0558   6.1831   6.2399   6.3163   6.3220   6.6082   6.6520   6.9400
     6.9903   7.2768   7.2918   7.5966   7.6857   7.9527   7.9876   8.1869
     8.2120   8.6561   8.7466   8.8346   9.0483   9.1862   9.3566   9.3746
     9.7168  10.0056  10.3629  10.6386  10.7571  10.7639  10.8607  11.0452
    14.4020  14.5775  14.9282  15.4562  16.1828  17.0934  18.0865  18.7663

          k = 0.2778 0.6094 0.0000 (  4491 PWs)   bands (ev):

   -36.6424 -36.6248 -36.6144 -36.5986 -36.5827 -36.5682 -36.5295 -36.5086
   -36.4864 -36.4683 -36.4532 -36.4182 -36.3625 -36.3572 -36.2948 -36.2827
   -36.2575 -36.2322 -36.1308 -36.1306 -36.0416 -36.0415 -35.7854 -35.7852
     5.2076   5.4427   5.4692   5.6233   5.7106   5.7968   5.9269   5.9832
     6.0501   6.1408   6.2419   6.2748   6.3608   6.5835   6.6340   6.9788
     7.1136   7.3043   7.3726   7.5084   7.6715   7.8934   7.9393   8.2455
     8.2580   8.6270   8.7717   8.9518   9.0800   9.2040   9.3650   9.4282
    10.0287  10.1897  10.3796  10.4776  10.5751  10.6397  10.6845  10.8220
    15.6072  15.8412  16.2154  16.6312  16.9797  17.3532  17.7798  18.2635

          k = 0.2778-0.4170 0.0000 (  4462 PWs)   bands (ev):

   -36.6527 -36.6415 -36.6300 -36.6188 -36.5877 -36.5705 -36.5089 -36.4665
   -36.4051 -36.3975 -36.3910 -36.3519 -36.3444 -36.3280 -36.2998 -36.2770
   -36.2476 -36.1942 -36.1406 -36.1405 -35.9632 -35.9630 -35.7892 -35.7890
     5.0950   5.2319   5.2947   5.4473   5.4993   5.6703   5.7450   5.9195
     5.9654   6.1198   6.2716   6.3862   6.5125   6.5660   6.7453   6.8477
     6.9772   7.2181   7.3990   7.5270   7.8032   7.9679   8.0307   8.2051
     8.2444   8.4309   8.6615   8.9022   9.0695   9.2295   9.3375   9.5016
     9.5731   9.8361  10.3153  10.7099  10.8356  10.8968  10.9714  11.1510
    13.2326  13.3473  13.6021  14.0693  14.8215  15.8337  16.9952  18.1843

          k = 0.2778-0.2887 0.0000 (  4463 PWs)   bands (ev):

   -36.6345 -36.6250 -36.6136 -36.5953 -36.5574 -36.5327 -36.5084 -36.4441
   -36.3693 -36.3263 -36.3191 -36.2989 -36.2828 -36.2698 -36.2403 -36.2315
   -36.2026 -36.1663 -36.1100 -36.1096 -35.8733 -35.8731 -35.7966 -35.7965
     4.8558   4.9794   5.1008   5.1316   5.2752   5.3144   5.4832   5.5396
     5.7840   5.8835   6.1121   6.2745   6.5559   6.8381   7.0157   7.2055
     7.3112   7.3830   7.5077   7.6843   7.7546   7.9314   8.0729   8.3580
     8.4216   8.5635   8.7152   8.9434   9.1640   9.2833   9.3764   9.5122
     9.7603  10.0442  10.1562  10.3012  10.4990  10.6092  10.6426  10.8517
    11.0413  11.2287  11.2726  11.5845  12.5185  13.7467  15.0885  16.4265

          k = 0.2778-0.1604 0.0000 (  4458 PWs)   bands (ev):

   -36.6306 -36.6041 -36.5717 -36.5388 -36.4972 -36.4773 -36.4319 -36.4118
   -36.3503 -36.2866 -36.2760 -36.2705 -36.2386 -36.2314 -36.2102 -36.1797
   -36.1597 -36.1472 -36.0402 -36.0400 -35.8245 -35.8244 -35.8037 -35.8035
     4.4719   4.7080   4.9184   5.0023   5.1656   5.3802   5.5068   5.6334
     5.8718   5.9455   6.1247   6.4261   6.7721   6.8651   7.1425   7.2245
     7.4620   7.5545   7.6680   7.6946   7.8729   7.9325   8.1707   8.3064
     8.3926   8.5173   8.6675   8.6687   8.8903   9.0954   9.1827   9.2901
     9.2997   9.3881   9.5646   9.5849   9.7241   9.8431   9.9646  10.0904
    10.3494  10.3681  10.6962  10.9037  11.4437  12.6945  14.0073  15.2583

          k = 0.3889 0.6736 0.0000 (  4511 PWs)   bands (ev):

   -36.6793 -36.6601 -36.6317 -36.6300 -36.6041 -36.5953 -36.4835 -36.4749
   -36.4526 -36.4437 -36.4236 -36.3824 -36.3626 -36.3408 -36.2969 -36.2923
   -36.2497 -36.2215 -36.1572 -36.1570 -35.9993 -35.9991 -35.7866 -35.7863
     4.9316   5.2018   5.3138   5.5014   5.5177   5.5915   5.6851   5.8124
     6.0044   6.0053   6.1799   6.4072   6.4256   6.5006   6.5058   6.9416
     7.0783   7.4320   7.5630   7.7287   7.8651   7.9152   8.2036   8.2987
     8.5254   8.6851   8.7373   8.9111   9.2384   9.4820   9.6545   9.7716
    10.2222  10.2227  10.3915  10.4551  10.5830  10.7081  10.8466  10.8657
    15.1325  15.3860  15.6638  15.9267  16.2121  16.5507  16.8962  17.1937

          k = 0.3889-0.3528 0.0000 (  4485 PWs)   bands (ev):

   -36.7202 -36.7016 -36.6808 -36.6684 -36.6410 -36.6241 -36.4551 -36.4336
   -36.3819 -36.3656 -36.3596 -36.3285 -36.3195 -36.3047 -36.2678 -36.2603
   -36.2218 -36.2001 -36.1837 -36.1814 -35.9061 -35.9061 -35.7907 -35.7901
     4.5453   4.7321   4.7964   4.8905   5.0139   5.0983   5.1676   5.3616
     5.5248   5.6393   5.7973   6.1103   6.4682   6.7679   6.9630   7.3388
     7.3798   7.5391   7.6847   7.8024   8.1426   8.2393   8.5274   8.7597
     8.8707   9.2597   9.4772   9.5933   9.7676   9.9526  10.2232  10.3060
    10.3252  10.3913  10.4429  10.7074  10.7508  10.8548  11.0131  11.1544
    12.6598  13.0922  13.4849  13.7299  14.2020  14.9862  15.8585  16.5425

          k = 0.3889-0.2245 0.0000 (  4444 PWs)   bands (ev):

   -36.6962 -36.6777 -36.6712 -36.6451 -36.6237 -36.5896 -36.4826 -36.4408
   -36.3701 -36.3189 -36.3183 -36.3111 -36.2773 -36.2714 -36.2450 -36.2117
   -36.1966 -36.1771 -36.1648 -36.1613 -35.8601 -35.8598 -35.7945 -35.7942
     4.5005   4.5465   4.6925   4.8265   4.8340   4.9735   5.0930   5.1653
     5.4780   5.5696   5.6194   6.1422   6.6289   6.9965   7.2469   7.3254
     7.4459   7.6651   7.7191   7.9179   8.1752   8.2617   8.7172   8.7498
     9.0008   9.3506   9.6907   9.8680   9.8940  10.2436  10.2634  10.3452
    10.4179  10.4804  10.5092  10.5425  10.6501  10.6929  10.8222  10.9150
    11.0179  11.0355  11.3519  11.4669  12.4926  13.8463  15.2651  16.6649

          k =-0.5000-0.8660 0.0000 (  4492 PWs)   bands (ev):

   -36.7521 -36.7348 -36.7121 -36.6999 -36.6690 -36.6546 -36.4423 -36.4345
   -36.3602 -36.3444 -36.3361 -36.3275 -36.2989 -36.2925 -36.2586 -36.2248
   -36.2246 -36.2068 -36.1926 -36.1891 -35.8742 -35.8741 -35.7914 -35.7914
     4.2700   4.4536   4.5145   4.6210   4.7269   4.8492   4.8791   5.0314
     5.3180   5.3531   5.4756   6.0063   6.5682   6.8902   7.0953   7.2017
     7.3378   7.6235   7.9583   8.1052   8.1983   8.6285   8.7200   9.1166
     9.3842   9.5395  10.0272  10.1099  10.4914  10.4929  10.7289  10.8277
    10.8466  10.8956  10.9357  10.9569  11.0272  11.1395  11.3194  11.3236
    11.5995  12.5763  13.4606  13.7534  14.1336  14.2198  14.5018  14.5247

 ------ SPIN DOWN ----------


          k = 0.0556 0.0962 0.0000 (  4451 PWs)   bands (ev):

   -36.7193 -36.6633 -36.5408 -36.4067 -36.2827 -36.2313 -36.2246 -36.2112
   -36.2031 -36.1912 -36.1824 -36.1773 -36.1636 -36.1471 -36.1417 -36.1214
   -36.1206 -36.1019 -35.8248 -35.8246 -35.7979 -35.7977 -35.7659 -35.7658
     2.9229   3.3157   3.8989   4.4760   4.6455   4.6957   5.0268   5.0387
     6.7901   6.8352   7.0477   7.0670   7.1098   7.1841   7.3818   7.4339
     7.5059   7.5068   7.5240   7.6091   7.6361   7.6581   7.7160   7.7711
     7.8280   7.8372   7.8959   8.1367   8.1459   8.2067   8.8045   8.9623
     8.9714   9.1475   9.2443   9.3652   9.4253   9.5349   9.6028   9.7278
     9.8367  10.1853  10.2374  10.5683  10.7295  10.7891  11.5213  12.3024

          k = 0.0556 0.2245 0.0000 (  4420 PWs)   bands (ev):

   -36.6663 -36.6279 -36.5372 -36.4518 -36.3890 -36.3532 -36.3275 -36.3146
   -36.2897 -36.2545 -36.2388 -36.2345 -36.2077 -36.1979 -36.1821 -36.1601
   -36.1395 -36.1257 -35.9245 -35.9241 -35.8128 -35.8125 -35.7989 -35.7989
     3.8420   4.1655   4.6514   5.1361   5.2211   5.3889   5.6597   5.7543
     6.1159   6.3695   6.4962   6.5250   6.6853   6.7746   6.8359   7.2341
     7.4237   7.5080   7.5891   7.6916   7.7487   7.7886   7.8633   7.9535
     8.0901   8.2184   8.3071   8.3607   8.5137   8.6054   8.6812   8.6993
     8.8039   8.9168   9.0659   9.1743   9.3953   9.5723   9.7299   9.8081
    10.0932  10.2988  10.5382  10.7454  10.9391  11.8815  12.9788  14.0325

          k = 0.0556 0.3528 0.0000 (  4467 PWs)   bands (ev):

   -36.6293 -36.6030 -36.5994 -36.5713 -36.5243 -36.5163 -36.4771 -36.4328
   -36.3617 -36.3001 -36.2908 -36.2874 -36.2564 -36.2441 -36.2227 -36.2017
   -36.1717 -36.1578 -36.0795 -36.0792 -35.8430 -35.8429 -35.8020 -35.8019
     4.6409   4.8879   4.9432   5.0102   5.1703   5.2722   5.4481   5.5210
     5.7998   5.8983   6.0412   6.3353   6.7319   6.8739   7.1704   7.2226
     7.4994   7.5176   7.5979   7.6618   7.7800   7.9689   8.1449   8.3831
     8.4792   8.6224   8.7656   8.8539   9.0866   9.2859   9.4114   9.4711
     9.6116   9.7527   9.8231  10.0084  10.1229  10.1493  10.3358  10.3925
    10.4419  10.6223  10.7736  10.8403  11.8308  13.1033  14.4550  15.7647

          k = 0.0556 0.4811 0.0000 (  4463 PWs)   bands (ev):

   -36.7163 -36.6978 -36.6833 -36.6636 -36.6404 -36.6143 -36.4674 -36.4379
   -36.3719 -36.3374 -36.3316 -36.3171 -36.2962 -36.2841 -36.2517 -36.2339
   -36.2002 -36.1930 -36.1801 -36.1753 -35.8761 -35.8759 -35.7942 -35.7938
     4.4641   4.5756   4.6822   4.7913   4.8563   4.9914   5.0481   5.1824
     5.4652   5.5261   5.6285   6.0959   6.5612   6.9197   7.1413   7.3169
     7.4105   7.6169   7.7339   7.9221   8.2235   8.2827   8.6948   8.8506
     9.0128   9.4147   9.6281   9.8674   9.9897  10.1208  10.3519  10.4284
    10.4998  10.5472  10.5951  10.6317  10.7377  10.8118  10.9548  11.0779
    11.4729  11.9536  12.3246  12.4502  13.1077  14.2452  15.5085  16.7009

          k = 0.0556-0.5453 0.0000 (  4486 PWs)   bands (ev):

   -36.7444 -36.7258 -36.7035 -36.6915 -36.6622 -36.6464 -36.4452 -36.4338
   -36.3688 -36.3477 -36.3418 -36.3275 -36.3063 -36.2957 -36.2590 -36.2427
   -36.2117 -36.2065 -36.1939 -36.1905 -35.8837 -35.8836 -35.7926 -35.7922
     4.3449   4.5250   4.5911   4.6857   4.8038   4.9239   4.9404   5.1185
     5.3730   5.4334   5.5529   6.0325   6.5489   6.8514   7.0651   7.2539
     7.3569   7.6528   7.7787   8.0392   8.1938   8.4739   8.8183   8.9057
     9.2758   9.5327   9.7756  10.1111  10.2704  10.3671  10.4625  10.6349
    10.7326  10.7676  10.8144  10.8455  10.9107  10.9797  11.1235  11.1856
    12.0849  12.7819  13.4766  13.8002  13.8767  14.3108  14.9620  15.4437

          k = 0.0556-0.4170 0.0000 (  4465 PWs)   bands (ev):

   -36.6657 -36.6532 -36.6451 -36.6211 -36.5934 -36.5578 -36.4996 -36.4434
   -36.3692 -36.3204 -36.3141 -36.3044 -36.2789 -36.2653 -36.2389 -36.2198
   -36.1870 -36.1758 -36.1404 -36.1391 -35.8622 -35.8621 -35.7975 -35.7971
     4.6458   4.6812   4.8441   4.9305   4.9917   5.0988   5.2382   5.3020
     5.6059   5.7056   5.7839   6.2080   6.6182   6.9758   7.2688   7.3624
     7.5024   7.5161   7.6501   7.8101   7.9479   8.2567   8.3422   8.5261
     8.8421   9.0735   9.2814   9.3882   9.5184   9.7484   9.9242  10.0023
    10.0674  10.2152  10.2486  10.3627  10.4341  10.5792  10.6922  10.8448
    10.9208  11.0942  11.1750  11.4188  12.4153  13.7301  15.1374  16.5325

          k = 0.0556-0.2887 0.0000 (  4439 PWs)   bands (ev):

   -36.6356 -36.6104 -36.5537 -36.5075 -36.4662 -36.4373 -36.3930 -36.3896
   -36.3388 -36.2804 -36.2643 -36.2623 -36.2304 -36.2220 -36.2034 -36.1810
   -36.1547 -36.1406 -36.0039 -36.0037 -35.8209 -35.8207 -35.8071 -35.8068
     4.3645   4.6085   4.9287   5.1667   5.2872   5.5085   5.6946   5.7907
     6.0156   6.0742   6.2638   6.4480   6.5726   6.7227   6.9532   7.0235
     7.3504   7.5647   7.6455   7.7300   7.7379   7.8734   7.9586   8.0643
     8.1541   8.2724   8.5291   8.6498   8.7080   8.8036   8.9826   9.0153
     9.1700   9.2646   9.4135   9.5458   9.6282   9.8458   9.9503  10.0203
    10.1329  10.4707  10.5809  10.7854  11.3502  12.4838  13.7231  14.9125

          k = 0.0556-0.1604 0.0000 (  4443 PWs)   bands (ev):

   -36.6969 -36.6476 -36.5369 -36.4206 -36.3231 -36.2821 -36.2677 -36.2554
   -36.2309 -36.2192 -36.2146 -36.2077 -36.1835 -36.1748 -36.1612 -36.1392
   -36.1282 -36.1130 -35.8543 -35.8542 -35.8177 -35.8175 -35.7800 -35.7799
     3.3183   3.6905   4.2491   4.8134   4.9443   5.0158   5.3388   5.3688
     6.4839   6.6298   6.7661   6.8045   6.8997   6.9675   7.1512   7.3002
     7.5170   7.5255   7.6603   7.6961   7.7647   7.7910   7.8244   7.8433
     7.9138   7.9429   8.0952   8.1332   8.2453   8.4120   8.4549   8.7956
     8.8663   8.9632   9.0467   9.0891   9.3685   9.4772   9.5942   9.7210
    10.0500  10.1399  10.5417  10.5745  10.7260  11.3036  12.2330  13.1456

          k = 0.0556-0.0321 0.0000 (  4465 PWs)   bands (ev):

   -36.7312 -36.6720 -36.5443 -36.4027 -36.2685 -36.2044 -36.2010 -36.1944
   -36.1918 -36.1741 -36.1638 -36.1552 -36.1446 -36.1438 -36.1208 -36.1195
   -36.1062 -36.0946 -35.8270 -35.8266 -35.7699 -35.7695 -35.7586 -35.7583
     2.7136   3.1136   3.7040   4.2834   4.4746   4.5175   4.8463   4.8522
     6.9652   7.0067   7.1933   7.2127   7.2532   7.3103   7.3483   7.4071
     7.4393   7.4443   7.4536   7.5397   7.5634   7.6248   7.6553   7.6916
     7.7279   7.8888   7.9560   8.0056   8.0219   8.4651   9.0885   9.0906
     9.2445   9.2720   9.3274   9.3956   9.4134   9.5745   9.6750   9.9135
     9.9718  10.1066  10.3183  10.3227  10.6210  10.7833  10.9497  11.6508

          k = 0.1667 0.2887 0.0000 (  4425 PWs)   bands (ev):

   -36.6109 -36.6046 -36.5665 -36.5295 -36.4963 -36.4750 -36.4397 -36.4167
   -36.3624 -36.3012 -36.2897 -36.2761 -36.2555 -36.2377 -36.2198 -36.2101
   -36.2050 -36.1455 -36.0359 -36.0358 -35.8538 -35.8538 -35.8029 -35.8028
     4.8440   4.9662   5.1832   5.4667   5.7681   5.8136   5.8149   5.9271
     5.9900   6.0290   6.1457   6.2566   6.4010   6.4698   6.9163   6.9826
     7.0030   7.1678   7.3449   7.4450   7.4799   7.5008   7.5685   8.1324
     8.1510   8.3808   8.3830   8.5663   8.7815   9.0098   9.1881   9.2262
     9.4504   9.6208   9.8273  10.0387  10.0788  10.2133  10.3853  10.4442
    10.4791  10.5558  10.6379  10.8929  11.8853  13.0364  14.2893  15.5278

          k = 0.1667 0.4170 0.0000 (  4459 PWs)   bands (ev):

   -36.6489 -36.6373 -36.6244 -36.6133 -36.5757 -36.5634 -36.5065 -36.4509
   -36.3800 -36.3613 -36.3576 -36.3195 -36.3131 -36.2926 -36.2842 -36.2493
   -36.2365 -36.1779 -36.1321 -36.1317 -35.9165 -35.9161 -35.7944 -35.7939
     5.0146   5.0761   5.2047   5.3302   5.4325   5.4344   5.6637   5.7075
     5.7989   5.9339   6.2187   6.3481   6.4634   6.7248   6.8791   7.0431
     7.0885   7.2503   7.4381   7.6092   7.8179   7.9573   8.0162   8.2163
     8.3236   8.4516   8.6758   8.9655   9.1509   9.2119   9.3364   9.5476
     9.6867   9.8749  10.2407  10.6478  10.7391  10.8315  10.8863  11.0545
    12.0850  12.2260  12.3647  12.7502  13.5496  14.6660  15.9356  17.2379

          k = 0.1667 0.5453 0.0000 (  4490 PWs)   bands (ev):

   -36.7073 -36.6892 -36.6630 -36.6566 -36.6281 -36.6155 -36.4555 -36.4419
   -36.4093 -36.4045 -36.3926 -36.3609 -36.3368 -36.3159 -36.2943 -36.2829
   -36.2407 -36.2079 -36.1779 -36.1774 -35.9505 -35.9502 -35.7897 -35.7892
     4.7060   4.9810   4.9932   5.1411   5.2594   5.3252   5.3923   5.6560
     5.6938   5.8118   6.0962   6.2366   6.3623   6.5594   6.7234   7.1686
     7.2623   7.5190   7.6641   7.8310   7.9666   8.0790   8.3181   8.4661
     8.7069   8.9686   9.1678   9.2842   9.3936   9.7592   9.9687  10.0921
    10.2064  10.2991  10.4589  10.5818  10.6791  10.7871  10.9517  11.0571
    13.9282  14.2955  14.6795  15.0147  15.4099  15.8718  16.2444  16.4476

          k = 0.1667-0.4811 0.0000 (  4476 PWs)   bands (ev):

   -36.6865 -36.6689 -36.6506 -36.6411 -36.6095 -36.5978 -36.4791 -36.4458
   -36.3899 -36.3876 -36.3846 -36.3463 -36.3300 -36.3079 -36.2956 -36.2674
   -36.2408 -36.1954 -36.1623 -36.1619 -35.9386 -35.9384 -35.7912 -35.7910
     4.8156   5.0237   5.0554   5.2442   5.2897   5.3567   5.4960   5.6873
     5.7674   5.8216   6.1508   6.2719   6.3961   6.6663   6.8227   7.0303
     7.2214   7.4850   7.6785   7.7247   7.9024   8.0435   8.1333   8.3895
     8.5952   8.8612   8.9151   9.0272   9.3064   9.6227   9.7344   9.7902
     9.8599  10.0101  10.3315  10.6907  10.7654  10.8733  10.9995  11.1500
    13.0463  13.2819  13.5282  13.9208  14.6003  15.5432  16.6110  17.6021

          k = 0.1667-0.3528 0.0000 (  4458 PWs)   bands (ev):

   -36.6152 -36.6028 -36.5968 -36.5744 -36.5320 -36.5312 -36.5026 -36.4454
   -36.3745 -36.3293 -36.3237 -36.2962 -36.2863 -36.2694 -36.2536 -36.2297
   -36.2276 -36.1607 -36.0889 -36.0887 -35.8867 -35.8866 -35.7987 -35.7984
     5.1046   5.1997   5.2926   5.3862   5.5206   5.6508   5.6723   5.8041
     5.9104   6.1188   6.2020   6.3773   6.4215   6.6742   6.7469   6.9174
     7.0927   7.2816   7.3086   7.3596   7.5769   7.7454   7.8159   8.0534
     8.0789   8.3292   8.6067   8.7519   8.8032   9.1417   9.2401   9.3675
     9.6021   9.7744  10.1046  10.3798  10.5260  10.6089  10.6258  10.8288
    11.1934  11.2593  11.3507  11.6821  12.5981  13.7813  15.0759  16.3737

          k = 0.1667-0.2245 0.0000 (  4433 PWs)   bands (ev):

   -36.6398 -36.6137 -36.5462 -36.4868 -36.4420 -36.4116 -36.3733 -36.3707
   -36.3351 -36.2812 -36.2603 -36.2533 -36.2280 -36.2107 -36.2035 -36.1854
   -36.1669 -36.1347 -35.9790 -35.9789 -35.8235 -35.8234 -35.8080 -35.8079
     4.3160   4.5732   4.9637   5.3945   5.5085   5.6628   5.8520   5.9303
     6.0252   6.1771   6.2830   6.3118   6.4954   6.6268   6.7240   6.9927
     7.2281   7.3004   7.4079   7.5091   7.6143   7.7260   7.7506   7.9759
     8.1107   8.3562   8.4860   8.5375   8.6777   8.8106   8.8884   8.9553
     9.1274   9.2527   9.4473   9.5698   9.5901   9.9131   9.9419   9.9776
    10.0804  10.4029  10.5257  10.6169  11.3684  12.4161  13.5903  14.7389

          k = 0.1667-0.0962 0.0000 (  4427 PWs)   bands (ev):

   -36.6870 -36.6407 -36.5360 -36.4300 -36.3469 -36.3084 -36.2920 -36.2730
   -36.2457 -36.2269 -36.2262 -36.2231 -36.1935 -36.1833 -36.1703 -36.1435
   -36.1321 -36.1142 -35.8802 -35.8800 -35.8161 -35.8159 -35.7847 -35.7845
     3.4977   3.8551   4.3908   4.9248   5.0247   5.1542   5.4549   5.5098
     6.3000   6.5806   6.6403   6.7025   6.8701   6.9025   6.9959   7.3834
     7.5366   7.5599   7.6641   7.6929   7.7782   7.8713   7.9005   7.9292
     8.0163   8.0352   8.1141   8.1738   8.2379   8.4300   8.5477   8.6263
     8.8183   8.8467   9.0200   9.1466   9.3045   9.4303   9.6614   9.7919
     9.9494  10.3415  10.5298  10.6559  10.8357  11.4580  12.4960  13.4692

          k = 0.2778 0.4811 0.0000 (  4485 PWs)   bands (ev):

   -36.6455 -36.6355 -36.6335 -36.6109 -36.5906 -36.5534 -36.5308 -36.4977
   -36.4472 -36.4369 -36.4165 -36.3913 -36.3608 -36.3561 -36.3001 -36.2810
   -36.2571 -36.2141 -36.1400 -36.1400 -36.0101 -36.0100 -35.7883 -35.7883
     5.2452   5.2500   5.4319   5.4390   5.6309   5.8404   5.9434   6.0228
     6.0558   6.1828   6.2398   6.3159   6.3217   6.6079   6.6519   6.9398
     6.9900   7.2764   7.2915   7.5964   7.6856   7.9520   7.9870   8.1862
     8.2114   8.6560   8.7463   8.8343   9.0480   9.1862   9.3560   9.3739
     9.7164  10.0048  10.3621  10.6379  10.7570  10.7638  10.8602  11.0450
    14.4019  14.5773  14.9279  15.4559  16.1825  17.0932  18.0862  18.7662

          k = 0.2778 0.6094 0.0000 (  4491 PWs)   bands (ev):

   -36.6426 -36.6252 -36.6146 -36.5988 -36.5829 -36.5683 -36.5298 -36.5089
   -36.4866 -36.4685 -36.4533 -36.4184 -36.3629 -36.3575 -36.2948 -36.2827
   -36.2574 -36.2322 -36.1317 -36.1315 -36.0426 -36.0425 -35.7868 -35.7866
     5.2075   5.4425   5.4691   5.6232   5.7104   5.7966   5.9268   5.9831
     6.0499   6.1404   6.2417   6.2746   6.3606   6.5833   6.6337   6.9786
     7.1134   7.3039   7.3724   7.5083   7.6712   7.8927   7.9387   8.2449
     8.2573   8.6269   8.7714   8.9516   9.0798   9.2038   9.3644   9.4277
    10.0282  10.1887  10.3788  10.4772  10.5748  10.6394  10.6842  10.8218
    15.6072  15.8411  16.2152  16.6311  16.9795  17.3530  17.7796  18.2632

          k = 0.2778-0.4170 0.0000 (  4462 PWs)   bands (ev):

   -36.6529 -36.6419 -36.6301 -36.6190 -36.5878 -36.5706 -36.5091 -36.4668
   -36.4054 -36.3980 -36.3915 -36.3520 -36.3445 -36.3281 -36.2998 -36.2770
   -36.2476 -36.1942 -36.1416 -36.1415 -35.9642 -35.9640 -35.7907 -35.7904
     5.0949   5.2319   5.2946   5.4472   5.4991   5.6702   5.7448   5.9193
     5.9652   6.1196   6.2714   6.3860   6.5123   6.5657   6.7451   6.8474
     6.9770   7.2178   7.3987   7.5268   7.8029   7.9673   8.0301   8.2046
     8.2440   8.4307   8.6611   8.9020   9.0693   9.2293   9.3371   9.5009
     9.5725   9.8353  10.3146  10.7092  10.8355  10.8965  10.9710  11.1508
    13.2326  13.3471  13.6018  14.0690  14.8213  15.8334  16.9949  18.1841

          k = 0.2778-0.2887 0.0000 (  4463 PWs)   bands (ev):

   -36.6347 -36.6251 -36.6139 -36.5955 -36.5577 -36.5328 -36.5087 -36.4443
   -36.3695 -36.3267 -36.3195 -36.2991 -36.2830 -36.2699 -36.2403 -36.2317
   -36.2026 -36.1663 -36.1110 -36.1106 -35.8743 -35.8742 -35.7980 -35.7979
     4.8558   4.9794   5.1007   5.1315   5.2751   5.3142   5.4830   5.5394
     5.7837   5.8832   6.1118   6.2742   6.5556   6.8378   7.0154   7.2053
     7.3109   7.3828   7.5075   7.6840   7.7542   7.9311   8.0725   8.3577
     8.4212   8.5630   8.7148   8.9429   9.1635   9.2830   9.3760   9.5118
     9.7597  10.0437  10.1556  10.3010  10.4986  10.6088  10.6420  10.8514
    11.0411  11.2285  11.2720  11.5841  12.5182  13.7464  15.0883  16.4262

          k = 0.2778-0.1604 0.0000 (  4458 PWs)   bands (ev):

   -36.6307 -36.6044 -36.5718 -36.5391 -36.4977 -36.4777 -36.4320 -36.4120
   -36.3505 -36.2867 -36.2763 -36.2708 -36.2388 -36.2315 -36.2104 -36.1798
   -36.1597 -36.1472 -36.0412 -36.0410 -35.8255 -35.8255 -35.8051 -35.8049
     4.4719   4.7080   4.9183   5.0022   5.1655   5.3801   5.5067   5.6332
     5.8715   5.9452   6.1244   6.4258   6.7719   6.8649   7.1423   7.2243
     7.4618   7.5543   7.6678   7.6945   7.8726   7.9322   8.1702   8.3060
     8.3921   8.5168   8.6672   8.6684   8.8900   9.0951   9.1823   9.2899
     9.2993   9.3880   9.5643   9.5845   9.7236   9.8425   9.9641  10.0901
    10.3490  10.3675  10.6956  10.9035  11.4433  12.6942  14.0070  15.2580

          k = 0.3889 0.6736 0.0000 (  4511 PWs)   bands (ev):

   -36.6794 -36.6604 -36.6317 -36.6303 -36.6042 -36.5954 -36.4838 -36.4752
   -36.4530 -36.4437 -36.4240 -36.3827 -36.3629 -36.3409 -36.2969 -36.2924
   -36.2497 -36.2214 -36.1581 -36.1579 -36.0003 -36.0002 -35.7880 -35.7877
     4.9316   5.2016   5.3138   5.5012   5.5177   5.5912   5.6849   5.8122
     6.0041   6.0050   6.1796   6.4071   6.4254   6.5004   6.5054   6.9413
     7.0780   7.4315   7.5628   7.7280   7.8650   7.9146   8.2035   8.2985
     8.5252   8.6845   8.7367   8.9108   9.2382   9.4817   9.6540   9.7713
    10.2214  10.2220  10.3910  10.4546  10.5827  10.7076  10.8466  10.8654
    15.1324  15.3859  15.6637  15.9266  16.2119  16.5505  16.8960  17.1936

          k = 0.3889-0.3528 0.0000 (  4485 PWs)   bands (ev):

   -36.7203 -36.7020 -36.6809 -36.6687 -36.6410 -36.6242 -36.4555 -36.4341
   -36.3822 -36.3659 -36.3599 -36.3286 -36.3196 -36.3049 -36.2679 -36.2604
   -36.2218 -36.2002 -36.1846 -36.1821 -35.9071 -35.9071 -35.7922 -35.7915
     4.5452   4.7321   4.7962   4.8905   5.0137   5.0981   5.1674   5.3614
     5.5245   5.6389   5.7969   6.1099   6.4679   6.7676   6.9628   7.3385
     7.3795   7.5388   7.6844   7.8022   8.1422   8.2389   8.5271   8.7594
     8.8703   9.2594   9.4767   9.5928   9.7672   9.9521  10.2227  10.3056
    10.3249  10.3908  10.4423  10.7072  10.7505  10.8543  11.0126  11.1542
    12.6596  13.0920  13.4847  13.7297  14.2018  14.9860  15.8583  16.5424

          k = 0.3889-0.2245 0.0000 (  4444 PWs)   bands (ev):

   -36.6964 -36.6780 -36.6713 -36.6453 -36.6239 -36.5897 -36.4829 -36.4412
   -36.3703 -36.3191 -36.3185 -36.3115 -36.2775 -36.2715 -36.2452 -36.2117
   -36.1968 -36.1771 -36.1657 -36.1621 -35.8611 -35.8608 -35.7959 -35.7956
     4.5005   4.5465   4.6923   4.8263   4.8339   4.9733   5.0928   5.1652
     5.4776   5.5692   5.6190   6.1419   6.6286   6.9961   7.2464   7.3253
     7.4458   7.6648   7.7188   7.9177   8.1748   8.2613   8.7169   8.7494
     9.0003   9.3502   9.6903   9.8676   9.8935  10.2431  10.2629  10.3451
    10.4176  10.4799  10.5088  10.5423  10.6501  10.6923  10.8216  10.9142
    11.0175  11.0353  11.3518  11.4667  12.4923  13.8460  15.2649  16.6647

          k =-0.5000-0.8660 0.0000 (  4492 PWs)   bands (ev):

   -36.7523 -36.7352 -36.7122 -36.7003 -36.6690 -36.6547 -36.4429 -36.4350
   -36.3603 -36.3443 -36.3363 -36.3279 -36.2990 -36.2927 -36.2588 -36.2253
   -36.2247 -36.2077 -36.1929 -36.1891 -35.8752 -35.8752 -35.7929 -35.7928
     4.2700   4.4536   4.5144   4.6210   4.7267   4.8491   4.8789   5.0313
     5.3178   5.3527   5.4752   6.0060   6.5679   6.8899   7.0948   7.2015
     7.3377   7.6232   7.9581   8.1048   8.1982   8.6279   8.7196   9.1163
     9.3838   9.5388  10.0266  10.1095  10.4907  10.4923  10.7286  10.8276
    10.8463  10.8954  10.9354  10.9567  11.0270  11.1395  11.3185  11.3227
    11.5993  12.5762  13.4605  13.7533  14.1334  14.2196  14.5017  14.5247

     the Fermi energy is    10.2739 ev

!    total energy              =   -1369.42500512 Ry
     estimated scf accuracy    <       0.00000074 Ry
     smearing contrib. (-TS)   =      -0.03480784 Ry
     internal energy E=F+TS    =   -1369.39019728 Ry

     The total energy is F=E-TS. E is the sum of the following terms:
     one-electron contribution =  -12552.79271412 Ry
     hartree contribution      =    6337.22987806 Ry
     xc contribution           =    -239.28419424 Ry
     ewald contribution        =    5085.45683301 Ry

     total magnetization       =    -0.00 Bohr mag/cell
     absolute magnetization    =     0.00 Bohr mag/cell

     convergence has been achieved in   9 iterations

     negative rho (up, down):  2.299E-01 2.299E-01

     Forces acting on atoms (cartesian axes, Ry/au):

     atom    1 type  1   force =     0.00000000    0.00000000    0.00936517
     atom    2 type  1   force =     0.00000000    0.00000000   -0.00447538
     atom    3 type  1   force =     0.00000000    0.00000000   -0.00555424
     atom    4 type  1   force =     0.00000000    0.00000000    0.00006994
     atom    5 type  1   force =     0.00000000    0.00000000   -0.00004122
     atom    6 type  1   force =     0.00000000    0.00000000    0.00554195
     atom    7 type  1   force =     0.00000000    0.00000000    0.00444968
     atom    8 type  1   force =     0.00000000    0.00000000   -0.00935588

     Total force =     0.016632     Total SCF correction =     0.008243
     SCF correction compared to forces is large: reduce conv_thr to get better values
     Energy error            =      4.3E-04
     Gradient error          =      9.4E-03

     number of scf cycles    =   2
     number of bfgs steps    =   1

     energy   old            =   -1369.4245762150 Ry
     energy   new            =   -1369.4250051193 Ry

     CASE: energy  _new < energy  _old

     new trust radius        =       0.0132529614 bohr
     new conv_thr            =       0.0000004289 Ry


ATOMIC_POSITIONS (angstrom)
Rh            0.0000000000        0.0000000000        0.0133887699
Rh            2.7108568000        1.5651139000        2.2062319235
Rh            1.3554284000        0.7825569000        4.4190220635
Rh            0.0000000000        0.0000000000        6.6408539480
Rh            2.7108568000        1.5651139000        8.8529677595
Rh            1.3554284000        0.7825569000       11.0748162486
Rh            0.0000000000        0.0000000000       13.2876117064
Rh            2.7108568000        1.5651139000       15.4804556807



     Writing output data file /home/STUDENTI/leonardo.razzai/WORK/relax_surf/8-L.save/
     NEW-OLD atomic charge density approx. for the potential

     negative rho (up, down):  2.302E-01 2.302E-01
     Generating pointlists ...

     total cpu time spent up to now is      462.2 secs

     Self-consistent Calculation

     iteration #  1     ecut=    35.00 Ry     beta= 0.40
     Davidson diagonalization with overlap
     ethr =  1.00E-06,  avg # of iterations =  6.0

     negative rho (up, down):  2.302E-01 2.302E-01

     total cpu time spent up to now is      498.4 secs

     total energy              =   -1369.42376768 Ry
     estimated scf accuracy    <       0.10405653 Ry

     total magnetization       =    -0.00 Bohr mag/cell
     absolute magnetization    =     0.00 Bohr mag/cell

     iteration #  2     ecut=    35.00 Ry     beta= 0.40
     Davidson diagonalization with overlap
     ethr =  8.67E-05,  avg # of iterations =  1.0

     negative rho (up, down):  2.302E-01 2.302E-01

     total cpu time spent up to now is      514.4 secs

     total energy              =   -1369.42482728 Ry
     estimated scf accuracy    <       0.06216244 Ry

     total magnetization       =    -0.00 Bohr mag/cell
     absolute magnetization    =     0.00 Bohr mag/cell

     iteration #  3     ecut=    35.00 Ry     beta= 0.40
     Davidson diagonalization with overlap
     ethr =  5.18E-05,  avg # of iterations =  1.0

     negative rho (up, down):  2.302E-01 2.302E-01

     total cpu time spent up to now is      530.4 secs

     total energy              =   -1369.42534559 Ry
     estimated scf accuracy    <       0.00234037 Ry

     total magnetization       =    -0.00 Bohr mag/cell
     absolute magnetization    =     0.00 Bohr mag/cell

     iteration #  4     ecut=    35.00 Ry     beta= 0.40
     Davidson diagonalization with overlap
     ethr =  1.95E-06,  avg # of iterations =  1.0

     negative rho (up, down):  2.303E-01 2.302E-01

     total cpu time spent up to now is      546.4 secs

     total energy              =   -1369.42531867 Ry
     estimated scf accuracy    <       0.00121385 Ry

     total magnetization       =    -0.00 Bohr mag/cell
     absolute magnetization    =     0.00 Bohr mag/cell

     iteration #  5     ecut=    35.00 Ry     beta= 0.40
     Davidson diagonalization with overlap
     ethr =  1.01E-06,  avg # of iterations =  1.0

     negative rho (up, down):  2.303E-01 2.302E-01

     total cpu time spent up to now is      562.4 secs

     total energy              =   -1369.42533362 Ry
     estimated scf accuracy    <       0.00001602 Ry

     total magnetization       =    -0.00 Bohr mag/cell
     absolute magnetization    =     0.00 Bohr mag/cell

     iteration #  6     ecut=    35.00 Ry     beta= 0.40
     Davidson diagonalization with overlap
     ethr =  1.34E-08,  avg # of iterations =  2.0

     negative rho (up, down):  2.303E-01 2.302E-01

     total cpu time spent up to now is      580.0 secs

     total energy              =   -1369.42533436 Ry
     estimated scf accuracy    <       0.00000074 Ry

     total magnetization       =    -0.00 Bohr mag/cell
     absolute magnetization    =     0.00 Bohr mag/cell

     iteration #  7     ecut=    35.00 Ry     beta= 0.40
     Davidson diagonalization with overlap
     ethr =  6.14E-10,  avg # of iterations =  3.4

     negative rho (up, down):  2.303E-01 2.302E-01

     total cpu time spent up to now is      600.5 secs

     total energy              =   -1369.42533440 Ry
     estimated scf accuracy    <       0.00000075 Ry

     total magnetization       =    -0.00 Bohr mag/cell
     absolute magnetization    =     0.00 Bohr mag/cell

     iteration #  8     ecut=    35.00 Ry     beta= 0.40
     Davidson diagonalization with overlap
     ethr =  6.14E-10,  avg # of iterations =  1.0

     negative rho (up, down):  2.303E-01 2.303E-01
 
     Magnetic moment per site:
     atom:    1    charge:   13.1821    magn:   -0.0004    constr:    0.0000
     atom:    2    charge:   13.2430    magn:   -0.0002    constr:    0.0000
     atom:    3    charge:   13.2451    magn:    0.0000    constr:    0.0000
     atom:    4    charge:   13.2475    magn:    0.0000    constr:    0.0000
     atom:    5    charge:   13.2468    magn:    0.0000    constr:    0.0000
     atom:    6    charge:   13.2456    magn:    0.0000    constr:    0.0000
     atom:    7    charge:   13.2431    magn:   -0.0002    constr:    0.0000
     atom:    8    charge:   13.1817    magn:   -0.0004    constr:    0.0000

     total cpu time spent up to now is      616.3 secs

     End of self-consistent calculation

 ------ SPIN UP ------------


          k = 0.0556 0.0962 0.0000 (  4451 PWs)   bands (ev):

   -36.7146 -36.6641 -36.5438 -36.4071 -36.2820 -36.2327 -36.2246 -36.2093
   -36.2038 -36.1906 -36.1785 -36.1723 -36.1604 -36.1430 -36.1365 -36.1166
   -36.1156 -36.0965 -35.8314 -35.8313 -35.8031 -35.8028 -35.7712 -35.7710
     2.9283   3.3118   3.8921   4.4745   4.6538   4.6986   5.0129   5.0254
     6.7887   6.8435   7.0514   7.0720   7.1032   7.1837   7.3765   7.4329
     7.5104   7.5112   7.5275   7.6070   7.6362   7.6526   7.7216   7.7714
     7.8235   7.8369   7.8913   8.1322   8.1334   8.2029   8.8031   8.9665
     8.9763   9.1479   9.2440   9.3612   9.4264   9.5355   9.6039   9.7251
     9.8408  10.1844  10.2383  10.5750  10.7321  10.7918  11.5255  12.3131

          k = 0.0556 0.2245 0.0000 (  4420 PWs)   bands (ev):

   -36.6619 -36.6281 -36.5384 -36.4520 -36.3912 -36.3549 -36.3232 -36.3120
   -36.2855 -36.2512 -36.2390 -36.2354 -36.2045 -36.1945 -36.1783 -36.1553
   -36.1344 -36.1205 -35.9296 -35.9292 -35.8196 -35.8193 -35.8041 -35.8041
     3.8475   4.1624   4.6453   5.1351   5.2253   5.3876   5.6475   5.7451
     6.1192   6.3672   6.4964   6.5280   6.6751   6.7741   6.8298   7.2330
     7.4219   7.5042   7.5933   7.6906   7.7530   7.7930   7.8646   7.9487
     8.0903   8.2222   8.3019   8.3551   8.5099   8.6027   8.6831   8.6972
     8.8003   8.9201   9.0627   9.1748   9.3969   9.5734   9.7304   9.8116
    10.0934  10.3028  10.5461  10.7497  10.9437  11.8853  12.9858  14.0433

          k = 0.0556 0.3528 0.0000 (  4467 PWs)   bands (ev):

   -36.6255 -36.6028 -36.5949 -36.5713 -36.5252 -36.5178 -36.4734 -36.4322
   -36.3616 -36.2987 -36.2908 -36.2869 -36.2536 -36.2401 -36.2195 -36.1971
   -36.1665 -36.1527 -36.0838 -36.0834 -35.8482 -35.8480 -35.8096 -35.8094
     4.6465   4.8845   4.9506   5.0095   5.1616   5.2755   5.4417   5.5141
     5.7909   5.8911   6.0357   6.3306   6.7305   6.8707   7.1742   7.2163
     7.5017   7.5185   7.6025   7.6635   7.7809   7.9605   8.1442   8.3726
     8.4761   8.6180   8.7654   8.8493   9.0833   9.2902   9.4146   9.4724
     9.6136   9.7528   9.8265  10.0082  10.1218  10.1506  10.3395  10.3949
    10.4442  10.6303  10.7772  10.8452  11.8369  13.1112  14.4631  15.7726

          k = 0.0556 0.4811 0.0000 (  4463 PWs)   bands (ev):

   -36.7136 -36.6992 -36.6793 -36.6624 -36.6373 -36.6103 -36.4700 -36.4436
   -36.3709 -36.3360 -36.3308 -36.3140 -36.2928 -36.2809 -36.2485 -36.2299
   -36.1970 -36.1909 -36.1819 -36.1746 -35.8812 -35.8810 -35.8023 -35.8019
     4.4699   4.5809   4.6782   4.7951   4.8524   4.9847   5.0436   5.1798
     5.4557   5.5148   5.6193   6.0912   6.5587   6.9193   7.1476   7.3193
     7.4132   7.6152   7.7256   7.9282   8.2108   8.2777   8.6969   8.8470
     9.0098   9.4120   9.6267   9.8671   9.9926  10.1234  10.3577  10.4310
    10.5003  10.5505  10.5992  10.6349  10.7409  10.8132  10.9552  11.0812
    11.4751  11.9530  12.3261  12.4532  13.1119  14.2538  15.5161  16.7038

          k = 0.0556-0.5453 0.0000 (  4486 PWs)   bands (ev):

   -36.7417 -36.7273 -36.6988 -36.6914 -36.6579 -36.6425 -36.4517 -36.4410
   -36.3645 -36.3451 -36.3397 -36.3248 -36.3022 -36.2938 -36.2558 -36.2393
   -36.2109 -36.2079 -36.1911 -36.1877 -35.8888 -35.8887 -35.8008 -35.8004
     4.3506   4.5298   4.5864   4.6904   4.7992   4.9175   4.9349   5.1181
     5.3644   5.4213   5.5422   6.0274   6.5452   6.8527   7.0713   7.2570
     7.3601   7.6437   7.7767   8.0450   8.1814   8.4705   8.8129   8.9065
     9.2755   9.5311   9.7760  10.1128  10.2727  10.3721  10.4680  10.6383
    10.7334  10.7686  10.8180  10.8484  10.9139  10.9808  11.1225  11.1876
    12.0875  12.7807  13.4776  13.8031  13.8807  14.3184  14.9688  15.4470

          k = 0.0556-0.4170 0.0000 (  4465 PWs)   bands (ev):

   -36.6632 -36.6505 -36.6443 -36.6191 -36.5924 -36.5542 -36.4996 -36.4465
   -36.3698 -36.3194 -36.3141 -36.3024 -36.2760 -36.2616 -36.2358 -36.2154
   -36.1819 -36.1712 -36.1440 -36.1422 -35.8673 -35.8672 -35.8053 -35.8050
     4.6511   4.6873   4.8402   4.9285   4.9946   5.0933   5.2347   5.2948
     5.5956   5.6945   5.7779   6.2037   6.6173   6.9736   7.2701   7.3648
     7.5047   7.5188   7.6538   7.8017   7.9435   8.2509   8.3408   8.5226
     8.8367   9.0709   9.2773   9.3845   9.5192   9.7510   9.9297  10.0056
    10.0701  10.2149  10.2523  10.3662  10.4358  10.5822  10.6963  10.8484
    10.9243  11.0950  11.1775  11.4203  12.4208  13.7390  15.1456  16.5381

          k = 0.0556-0.2887 0.0000 (  4439 PWs)   bands (ev):

   -36.6314 -36.6097 -36.5524 -36.5078 -36.4693 -36.4381 -36.3897 -36.3861
   -36.3366 -36.2780 -36.2641 -36.2633 -36.2277 -36.2180 -36.2001 -36.1764
   -36.1496 -36.1354 -36.0086 -36.0084 -35.8261 -35.8259 -35.8142 -35.8140
     4.3702   4.6065   4.9249   5.1696   5.2831   5.5042   5.6931   5.7835
     6.0131   6.0703   6.2619   6.4388   6.5705   6.7140   6.9572   7.0213
     7.3515   7.5671   7.6459   7.7330   7.7379   7.8718   7.9521   8.0622
     8.1514   8.2727   8.5199   8.6521   8.7020   8.8062   8.9804   9.0174
     9.1722   9.2676   9.4136   9.5439   9.6244   9.8473   9.9528  10.0237
    10.1354  10.4771  10.5880  10.7902  11.3557  12.4897  13.7309  14.9221

          k = 0.0556-0.1604 0.0000 (  4443 PWs)   bands (ev):

   -36.6923 -36.6482 -36.5393 -36.4208 -36.3241 -36.2842 -36.2649 -36.2518
   -36.2292 -36.2156 -36.2139 -36.2073 -36.1797 -36.1711 -36.1572 -36.1343
   -36.1233 -36.1077 -35.8597 -35.8596 -35.8241 -35.8240 -35.7852 -35.7851
     3.3237   3.6869   4.2424   4.8114   4.9523   5.0180   5.3247   5.3559
     6.4852   6.6354   6.7616   6.8084   6.9005   6.9662   7.1415   7.2940
     7.5184   7.5259   7.6660   7.6975   7.7698   7.7897   7.8212   7.8463
     7.9115   7.9412   8.0922   8.1328   8.2469   8.4021   8.4453   8.7978
     8.8698   8.9614   9.0471   9.0889   9.3727   9.4767   9.5940   9.7215
    10.0520  10.1401  10.5484  10.5768  10.7311  11.3056  12.2387  13.1568

          k = 0.0556-0.0321 0.0000 (  4465 PWs)   bands (ev):

   -36.7265 -36.6730 -36.5476 -36.4031 -36.2669 -36.2052 -36.2021 -36.1949
   -36.1933 -36.1706 -36.1602 -36.1510 -36.1406 -36.1392 -36.1161 -36.1147
   -36.1008 -36.0893 -35.8335 -35.8331 -35.7751 -35.7748 -35.7639 -35.7636
     2.7189   3.1096   3.6971   4.2821   4.4829   4.5209   4.8325   4.8388
     6.9652   7.0132   7.1975   7.2166   7.2524   7.3102   7.3529   7.4096
     7.4344   7.4510   7.4540   7.5342   7.5627   7.6261   7.6566   7.6924
     7.7343   7.8776   7.9494   7.9930   8.0108   8.4657   9.0933   9.0956
     9.2432   9.2724   9.3269   9.3958   9.4132   9.5716   9.6725   9.9086
     9.9729  10.1119  10.3203  10.3237  10.6275  10.7873  10.9522  11.6608

          k = 0.1667 0.2887 0.0000 (  4425 PWs)   bands (ev):

   -36.6071 -36.6029 -36.5640 -36.5296 -36.4997 -36.4762 -36.4361 -36.4132
   -36.3612 -36.3007 -36.2916 -36.2775 -36.2512 -36.2328 -36.2159 -36.2057
   -36.1994 -36.1403 -36.0403 -36.0403 -35.8590 -35.8589 -35.8102 -35.8101
     4.8506   4.9665   5.1806   5.4620   5.7605   5.8171   5.8197   5.9274
     5.9842   6.0293   6.1339   6.2430   6.3925   6.4725   6.9129   6.9836
     6.9975   7.1647   7.3442   7.4343   7.4682   7.5044   7.5778   8.1351
     8.1531   8.3768   8.3831   8.5672   8.7817   9.0090   9.1924   9.2268
     9.4467   9.6183   9.8318  10.0437  10.0797  10.2131  10.3888  10.4487
    10.4825  10.5572  10.6408  10.8962  11.8914  13.0441  14.2972  15.5361

          k = 0.1667 0.4170 0.0000 (  4459 PWs)   bands (ev):

   -36.6465 -36.6370 -36.6214 -36.6110 -36.5746 -36.5596 -36.5059 -36.4526
   -36.3802 -36.3643 -36.3605 -36.3152 -36.3093 -36.2885 -36.2795 -36.2450
   -36.2319 -36.1727 -36.1359 -36.1354 -35.9215 -35.9211 -35.8023 -35.8018
     5.0207   5.0821   5.2036   5.3267   5.4286   5.4349   5.6548   5.6993
     5.7921   5.9276   6.2149   6.3441   6.4550   6.7195   6.8742   7.0401
     7.0941   7.2467   7.4426   7.6027   7.8166   7.9597   8.0118   8.2143
     8.3188   8.4481   8.6713   8.9677   9.1529   9.2151   9.3374   9.5542
     9.6913   9.8800  10.2465  10.6519  10.7430  10.8325  10.8908  11.0576
    12.0885  12.2283  12.3639  12.7505  13.5535  14.6739  15.9430  17.2432

          k = 0.1667 0.5453 0.0000 (  4490 PWs)   bands (ev):

   -36.7046 -36.6905 -36.6582 -36.6569 -36.6238 -36.6117 -36.4579 -36.4460
   -36.4087 -36.4065 -36.3911 -36.3589 -36.3341 -36.3111 -36.2899 -36.2786
   -36.2359 -36.2023 -36.1813 -36.1807 -35.9554 -35.9551 -35.7980 -35.7975
     4.7120   4.9756   4.9989   5.1461   5.2558   5.3197   5.3819   5.6510
     5.6856   5.8048   6.0883   6.2291   6.3539   6.5585   6.7310   7.1629
     7.2582   7.5154   7.6672   7.8295   7.9635   8.0791   8.3220   8.4597
     8.7051   8.9676   9.1634   9.2828   9.3944   9.7642   9.9728  10.0964
    10.2105  10.3052  10.4651  10.5864  10.6823  10.7912  10.9561  11.0607
    13.9315  14.2961  14.6802  15.0163  15.4120  15.8772  16.2497  16.4507

          k = 0.1667-0.4811 0.0000 (  4476 PWs)   bands (ev):

   -36.6838 -36.6703 -36.6459 -36.6404 -36.6060 -36.5941 -36.4794 -36.4490
   -36.3914 -36.3906 -36.3844 -36.3423 -36.3264 -36.3040 -36.2912 -36.2632
   -36.2359 -36.1901 -36.1659 -36.1653 -35.9435 -35.9433 -35.7993 -35.7991
     4.8217   5.0294   5.0520   5.2470   5.2865   5.3507   5.4866   5.6811
     5.7579   5.8164   6.1448   6.2656   6.3879   6.6631   6.8315   7.0223
     7.2193   7.4824   7.6770   7.7246   7.9002   8.0465   8.1326   8.3840
     8.5923   8.8587   8.9101   9.0267   9.3077   9.6268   9.7377   9.7964
     9.8652  10.0160  10.3373  10.6960  10.7687  10.8761  11.0038  11.1534
    13.0498  13.2829  13.5284  13.9219  14.6034  15.5498  16.6171  17.6052

          k = 0.1667-0.3528 0.0000 (  4458 PWs)   bands (ev):

   -36.6125 -36.6022 -36.5919 -36.5730 -36.5330 -36.5323 -36.4993 -36.4443
   -36.3745 -36.3313 -36.3265 -36.2948 -36.2821 -36.2643 -36.2481 -36.2252
   -36.2234 -36.1555 -36.0931 -36.0928 -35.8918 -35.8917 -35.8063 -35.8061
     5.1106   5.2058   5.2925   5.3830   5.5193   5.6407   5.6740   5.7970
     5.9031   6.1154   6.1952   6.3728   6.4127   6.6725   6.7417   6.9163
     7.0890   7.2820   7.3110   7.3566   7.5732   7.7381   7.8131   8.0547
     8.0799   8.3262   8.6081   8.7486   8.8083   9.1446   9.2366   9.3745
     9.6027   9.7772  10.1103  10.3822  10.5292  10.6124  10.6287  10.8318
    11.1968  11.2631  11.3496  11.6821  12.6033  13.7897  15.0838  16.3805

          k = 0.1667-0.2245 0.0000 (  4433 PWs)   bands (ev):

   -36.6355 -36.6132 -36.5459 -36.4870 -36.4449 -36.4130 -36.3693 -36.3672
   -36.3321 -36.2787 -36.2612 -36.2551 -36.2243 -36.2070 -36.1998 -36.1803
   -36.1616 -36.1297 -35.9838 -35.9837 -35.8287 -35.8287 -35.8150 -35.8149
     4.3217   4.5711   4.9586   5.3918   5.5120   5.6606   5.8464   5.9239
     6.0241   6.1790   6.2759   6.3086   6.4851   6.6302   6.7187   6.9891
     7.2269   7.2969   7.4063   7.5091   7.6103   7.7236   7.7566   7.9769
     8.1139   8.3516   8.4833   8.5348   8.6818   8.8091   8.8881   8.9542
     9.1280   9.2559   9.4439   9.5668   9.5867   9.9174   9.9443   9.9805
    10.0839  10.4075  10.5324  10.6210  11.3741  12.4221  13.5978  14.7487

          k = 0.1667-0.0962 0.0000 (  4427 PWs)   bands (ev):

   -36.6825 -36.6412 -36.5381 -36.4302 -36.3484 -36.3103 -36.2883 -36.2698
   -36.2415 -36.2267 -36.2242 -36.2225 -36.1906 -36.1791 -36.1667 -36.1389
   -36.1271 -36.1089 -35.8854 -35.8853 -35.8227 -35.8225 -35.7899 -35.7898
     3.5031   3.8516   4.3842   4.9231   5.0313   5.1549   5.4411   5.4987
     6.3032   6.5778   6.6430   6.7072   6.8655   6.9006   6.9852   7.3803
     7.5392   7.5586   7.6675   7.6989   7.7806   7.8726   7.8940   7.9342
     8.0168   8.0336   8.1170   8.1661   8.2354   8.4224   8.5386   8.6272
     8.8159   8.8481   9.0229   9.1465   9.3100   9.4288   9.6622   9.7936
     9.9476  10.3459  10.5328  10.6638  10.8399  11.4598  12.5022  13.4805

          k = 0.2778 0.4811 0.0000 (  4485 PWs)   bands (ev):

   -36.6447 -36.6358 -36.6296 -36.6071 -36.5880 -36.5515 -36.5281 -36.4972
   -36.4482 -36.4379 -36.4187 -36.3873 -36.3620 -36.3540 -36.2960 -36.2762
   -36.2517 -36.2083 -36.1440 -36.1440 -36.0147 -36.0146 -35.7965 -35.7965
     5.2492   5.2583   5.4302   5.4373   5.6207   5.8300   5.9423   6.0241
     6.0622   6.1723   6.2320   6.3025   6.3117   6.5998   6.6521   6.9372
     6.9844   7.2762   7.2866   7.5984   7.6881   7.9478   7.9835   8.1784
     8.2045   8.6574   8.7480   8.8381   9.0505   9.1897   9.3626   9.3830
     9.7222  10.0104  10.3673  10.6436  10.7598  10.7678  10.8658  11.0481
    14.4059  14.5780  14.9279  15.4574  16.1856  17.0983  18.0913  18.7696

          k = 0.2778 0.6094 0.0000 (  4491 PWs)   bands (ev):

   -36.6400 -36.6265 -36.6114 -36.5956 -36.5800 -36.5655 -36.5301 -36.5089
   -36.4848 -36.4675 -36.4509 -36.4164 -36.3665 -36.3596 -36.2898 -36.2773
   -36.2518 -36.2263 -36.1359 -36.1357 -36.0470 -36.0469 -35.7951 -35.7949
     5.2137   5.4385   5.4750   5.6221   5.7085   5.7906   5.9283   5.9839
     6.0401   6.1210   6.2310   6.2729   6.3588   6.5758   6.6250   6.9755
     7.1089   7.2996   7.3723   7.5130   7.6701   7.8877   7.9357   8.2379
     8.2510   8.6279   8.7728   8.9565   9.0812   9.2084   9.3744   9.4367
    10.0332  10.1943  10.3842  10.4827  10.5782  10.6446  10.6880  10.8251
    15.6111  15.8420  16.2160  16.6332  16.9811  17.3557  17.7834  18.2651

          k = 0.2778-0.4170 0.0000 (  4462 PWs)   bands (ev):

   -36.6510 -36.6428 -36.6258 -36.6169 -36.5839 -36.5688 -36.5076 -36.4671
   -36.4061 -36.4015 -36.3960 -36.3478 -36.3411 -36.3231 -36.2959 -36.2726
   -36.2429 -36.1886 -36.1454 -36.1453 -35.9690 -35.9689 -35.7988 -35.7985
     5.1011   5.2380   5.2922   5.4474   5.4927   5.6673   5.7376   5.9113
     5.9566   6.1169   6.2662   6.3801   6.5065   6.5589   6.7460   6.8394
     6.9739   7.2200   7.3923   7.5300   7.8014   7.9645   8.0289   8.1978
     8.2399   8.4300   8.6610   8.9054   9.0712   9.2326   9.3393   9.5079
     9.5793   9.8417  10.3200  10.7144  10.8389  10.8995  10.9756  11.1540
    13.2366  13.3484  13.6011  14.0698  14.8246  15.8399  17.0013  18.1886

          k = 0.2778-0.2887 0.0000 (  4463 PWs)   bands (ev):

   -36.6320 -36.6218 -36.6132 -36.5938 -36.5576 -36.5310 -36.5071 -36.4454
   -36.3699 -36.3271 -36.3214 -36.2966 -36.2796 -36.2654 -36.2358 -36.2282
   -36.1974 -36.1612 -36.1149 -36.1144 -35.8794 -35.8793 -35.8058 -35.8056
     4.8615   4.9856   5.0967   5.1330   5.2754   5.3087   5.4796   5.5288
     5.7743   5.8751   6.1072   6.2704   6.5523   6.8305   7.0177   7.2017
     7.3132   7.3825   7.5095   7.6832   7.7566   7.9239   8.0704   8.3558
     8.4142   8.5595   8.7115   8.9406   9.1656   9.2865   9.3763   9.5187
     9.7604  10.0460  10.1595  10.3061  10.4996  10.6117  10.6471  10.8547
    11.0442  11.2321  11.2714  11.5844  12.5235  13.7549  15.0963  16.4326

          k = 0.2778-0.1604 0.0000 (  4458 PWs)   bands (ev):

   -36.6267 -36.6035 -36.5685 -36.5396 -36.5010 -36.4780 -36.4285 -36.4097
   -36.3495 -36.2845 -36.2752 -36.2716 -36.2365 -36.2277 -36.2071 -36.1754
   -36.1544 -36.1421 -36.0457 -36.0455 -35.8307 -35.8306 -35.8125 -35.8123
     4.4775   4.7059   4.9187   5.0039   5.1588   5.3792   5.5039   5.6260
     5.8655   5.9403   6.1182   6.4197   6.7651   6.8681   7.1362   7.2279
     7.4633   7.5567   7.6712   7.7009   7.8737   7.9249   8.1694   8.2931
     8.3876   8.5121   8.6649   8.6683   8.8847   9.0904   9.1868   9.2903
     9.3047   9.3916   9.5621   9.5910   9.7189   9.8412   9.9659  10.0919
    10.3531  10.3742  10.7050  10.9078  11.4491  12.7008  14.0150  15.2670

          k = 0.3889 0.6736 0.0000 (  4511 PWs)   bands (ev):

   -36.6767 -36.6617 -36.6302 -36.6274 -36.6001 -36.5913 -36.4852 -36.4761
   -36.4530 -36.4379 -36.4270 -36.3842 -36.3631 -36.3380 -36.2912 -36.2879
   -36.2445 -36.2156 -36.1620 -36.1618 -36.0050 -36.0049 -35.7963 -35.7960
     4.9377   5.1959   5.3202   5.4995   5.5222   5.5815   5.6811   5.8084
     5.9936   5.9944   6.1655   6.4105   6.4225   6.4987   6.4989   6.9359
     7.0740   7.4245   7.5627   7.7242   7.8711   7.9134   8.2041   8.2969
     8.5231   8.6782   8.7321   8.9152   9.2405   9.4869   9.6601   9.7765
    10.2260  10.2284  10.3969  10.4597  10.5861  10.7130  10.8494  10.8695
    15.1358  15.3878  15.6651  15.9272  16.2115  16.5541  16.9021  17.1965

          k = 0.3889-0.3528 0.0000 (  4485 PWs)   bands (ev):

   -36.7177 -36.7034 -36.6766 -36.6681 -36.6372 -36.6203 -36.4591 -36.4402
   -36.3810 -36.3663 -36.3583 -36.3243 -36.3149 -36.3029 -36.2638 -36.2567
   -36.2174 -36.1972 -36.1875 -36.1827 -35.9122 -35.9121 -35.8003 -35.7997
     4.5511   4.7375   4.7919   4.8944   5.0096   5.0923   5.1596   5.3592
     5.5159   5.6278   5.7879   6.1046   6.4635   6.7666   6.9710   7.3334
     7.3785   7.5406   7.6795   7.8055   8.1387   8.2299   8.5295   8.7582
     8.8662   9.2574   9.4763   9.5895   9.7668   9.9583  10.2275  10.3078
    10.3278  10.3946  10.4482  10.7117  10.7536  10.8566  11.0156  11.1578
    12.6627  13.0918  13.4856  13.7320  14.2049  14.9928  15.8645  16.5454

          k = 0.3889-0.2245 0.0000 (  4444 PWs)   bands (ev):

   -36.6937 -36.6788 -36.6675 -36.6435 -36.6219 -36.5858 -36.4841 -36.4458
   -36.3703 -36.3170 -36.3154 -36.3120 -36.2756 -36.2670 -36.2421 -36.2076
   -36.1930 -36.1720 -36.1691 -36.1638 -35.8662 -35.8659 -35.8039 -35.8036
     4.5061   4.5519   4.6881   4.8219   4.8390   4.9677   5.0886   5.1607
     5.4671   5.5589   5.6104   6.1374   6.6271   6.9958   7.2505   7.3282
     7.4521   7.6642   7.7108   7.9240   8.1598   8.2549   8.7221   8.7432
     8.9964   9.3446   9.6905   9.8677   9.8953  10.2439  10.2642  10.3495
    10.4192  10.4855  10.5123  10.5434  10.6538  10.6961  10.8181  10.9151
    11.0210  11.0355  11.3545  11.4709  12.4979  13.8554  15.2731  16.6689

          k =-0.5000-0.8660 0.0000 (  4492 PWs)   bands (ev):

   -36.7496 -36.7367 -36.7070 -36.7007 -36.6646 -36.6510 -36.4504 -36.4424
   -36.3546 -36.3381 -36.3346 -36.3284 -36.2949 -36.2910 -36.2558 -36.2254
   -36.2206 -36.2107 -36.1906 -36.1840 -35.8803 -35.8803 -35.8011 -35.8011
     4.2757   4.4582   4.5099   4.6256   4.7222   4.8435   4.8729   5.0316
     5.3093   5.3404   5.4638   6.0009   6.5643   6.8918   7.0995   7.2051
     7.3440   7.6149   7.9580   8.0893   8.2047   8.6223   8.7136   9.1193
     9.3788   9.5397  10.0319  10.1081  10.4960  10.4994  10.7316  10.8315
    10.8478  10.8961  10.9376  10.9594  11.0299  11.1419  11.3146  11.3192
    11.6022  12.5746  13.4622  13.7579  14.1384  14.2270  14.5046  14.5311

 ------ SPIN DOWN ----------


          k = 0.0556 0.0962 0.0000 (  4451 PWs)   bands (ev):

   -36.7147 -36.6642 -36.5439 -36.4072 -36.2820 -36.2329 -36.2247 -36.2094
   -36.2040 -36.1907 -36.1785 -36.1723 -36.1604 -36.1430 -36.1365 -36.1165
   -36.1156 -36.0965 -35.8319 -35.8318 -35.8035 -35.8032 -35.7716 -35.7714
     2.9283   3.3118   3.8921   4.4745   4.6538   4.6986   5.0128   5.0253
     6.7886   6.8435   7.0513   7.0719   7.1031   7.1836   7.3764   7.4327
     7.5104   7.5111   7.5274   7.6069   7.6361   7.6525   7.7214   7.7713
     7.8233   7.8368   7.8911   8.1320   8.1331   8.2027   8.8030   8.9664
     8.9762   9.1478   9.2438   9.3610   9.4264   9.5354   9.6037   9.7249
     9.8406  10.1842  10.2381  10.5747  10.7320  10.7917  11.5254  12.3130

          k = 0.0556 0.2245 0.0000 (  4420 PWs)   bands (ev):

   -36.6619 -36.6282 -36.5385 -36.4521 -36.3913 -36.3551 -36.3232 -36.3120
   -36.2855 -36.2513 -36.2392 -36.2356 -36.2046 -36.1945 -36.1784 -36.1552
   -36.1344 -36.1205 -35.9299 -35.9296 -35.8201 -35.8199 -35.8045 -35.8045
     3.8475   4.1624   4.6453   5.1351   5.2253   5.3875   5.6474   5.7450
     6.1191   6.3671   6.4964   6.5280   6.6749   6.7740   6.8297   7.2329
     7.4218   7.5041   7.5931   7.6906   7.7529   7.7930   7.8645   7.9486
     8.0902   8.2221   8.3017   8.3549   8.5098   8.6026   8.6831   8.6970
     8.8002   8.9200   9.0625   9.1746   9.3967   9.5733   9.7302   9.8115
    10.0932  10.3026  10.5459  10.7496  10.9436  11.8852  12.9857  14.0432

          k = 0.0556 0.3528 0.0000 (  4467 PWs)   bands (ev):

   -36.6256 -36.6029 -36.5950 -36.5714 -36.5253 -36.5179 -36.4734 -36.4322
   -36.3617 -36.2988 -36.2910 -36.2870 -36.2536 -36.2402 -36.2195 -36.1971
   -36.1665 -36.1526 -36.0841 -36.0838 -35.8486 -35.8484 -35.8101 -35.8099
     4.6465   4.8845   4.9506   5.0094   5.1615   5.2755   5.4416   5.5140
     5.7908   5.8910   6.0356   6.3305   6.7304   6.8707   7.1741   7.2162
     7.5016   7.5185   7.6025   7.6634   7.7808   7.9603   8.1440   8.3725
     8.4760   8.6178   8.7652   8.8492   9.0831   9.2900   9.4145   9.4723
     9.6134   9.7528   9.8264  10.0081  10.1216  10.1505  10.3394  10.3947
    10.4440  10.6300  10.7771  10.8451  11.8368  13.1111  14.4630  15.7725

          k = 0.0556 0.4811 0.0000 (  4463 PWs)   bands (ev):

   -36.7137 -36.6993 -36.6793 -36.6625 -36.6373 -36.6103 -36.4701 -36.4438
   -36.3710 -36.3361 -36.3309 -36.3141 -36.2929 -36.2810 -36.2486 -36.2299
   -36.1971 -36.1911 -36.1821 -36.1748 -35.8816 -35.8814 -35.8028 -35.8024
     4.4699   4.5809   4.6781   4.7951   4.8523   4.9847   5.0435   5.1798
     5.4556   5.5146   5.6191   6.0911   6.5586   6.9191   7.1475   7.3192
     7.4132   7.6150   7.7255   7.9282   8.2107   8.2776   8.6968   8.8468
     9.0096   9.4119   9.6266   9.8669   9.9924  10.1232  10.3575  10.4309
    10.5002  10.5505  10.5991  10.6348  10.7408  10.8131  10.9550  11.0811
    11.4750  11.9529  12.3261  12.4532  13.1118  14.2537  15.5160  16.7037

          k = 0.0556-0.5453 0.0000 (  4486 PWs)   bands (ev):

   -36.7418 -36.7275 -36.6988 -36.6915 -36.6579 -36.6425 -36.4519 -36.4412
   -36.3646 -36.3452 -36.3397 -36.3248 -36.3022 -36.2938 -36.2559 -36.2393
   -36.2111 -36.2082 -36.1911 -36.1878 -35.8892 -35.8891 -35.8014 -35.8010
     4.3506   4.5298   4.5863   4.6903   4.7991   4.9174   4.9348   5.1181
     5.3643   5.4211   5.5421   6.0273   6.5451   6.8526   7.0712   7.2569
     7.3601   7.6436   7.7765   8.0449   8.1812   8.4703   8.8128   8.9064
     9.2754   9.5309   9.7759  10.1126  10.2725  10.3719  10.4678  10.6382
    10.7333  10.7685  10.8179  10.8483  10.9138  10.9807  11.1223  11.1874
    12.0874  12.7807  13.4775  13.8031  13.8807  14.3183  14.9687  15.4469

          k = 0.0556-0.4170 0.0000 (  4465 PWs)   bands (ev):

   -36.6633 -36.6506 -36.6444 -36.6192 -36.5925 -36.5542 -36.4997 -36.4466
   -36.3699 -36.3195 -36.3143 -36.3025 -36.2760 -36.2616 -36.2358 -36.2154
   -36.1818 -36.1712 -36.1443 -36.1425 -35.8677 -35.8676 -35.8059 -35.8055
     4.6511   4.6873   4.8401   4.9285   4.9946   5.0933   5.2346   5.2947
     5.5955   5.6943   5.7778   6.2036   6.6172   6.9735   7.2700   7.3648
     7.5046   7.5187   7.6537   7.8015   7.9433   8.2508   8.3407   8.5225
     8.8366   9.0708   9.2771   9.3843   9.5190   9.7508   9.9295  10.0055
    10.0700  10.2147  10.2522  10.3661  10.4357  10.5821  10.6961  10.8482
    10.9242  11.0949  11.1774  11.4201  12.4207  13.7389  15.1455  16.5380

          k = 0.0556-0.2887 0.0000 (  4439 PWs)   bands (ev):

   -36.6315 -36.6098 -36.5524 -36.5079 -36.4695 -36.4382 -36.3898 -36.3861
   -36.3367 -36.2781 -36.2643 -36.2635 -36.2277 -36.2180 -36.2001 -36.1764
   -36.1495 -36.1354 -36.0090 -36.0088 -35.8264 -35.8263 -35.8148 -35.8145
     4.3702   4.6064   4.9249   5.1695   5.2831   5.5041   5.6931   5.7834
     6.0130   6.0702   6.2618   6.4387   6.5704   6.7139   6.9572   7.0212
     7.3514   7.5670   7.6458   7.7330   7.7378   7.8717   7.9519   8.0621
     8.1512   8.2726   8.5197   8.6520   8.7019   8.8061   8.9803   9.0173
     9.1722   9.2675   9.4134   9.5438   9.6242   9.8471   9.9526  10.0236
    10.1352  10.4769  10.5878  10.7901  11.3555  12.4896  13.7308  14.9220

          k = 0.0556-0.1604 0.0000 (  4443 PWs)   bands (ev):

   -36.6923 -36.6483 -36.5394 -36.4209 -36.3242 -36.2843 -36.2650 -36.2519
   -36.2293 -36.2156 -36.2140 -36.2074 -36.1797 -36.1711 -36.1572 -36.1343
   -36.1232 -36.1077 -35.8601 -35.8600 -35.8246 -35.8245 -35.7856 -35.7855
     3.3237   3.6869   4.2424   4.8114   4.9523   5.0180   5.3245   5.3558
     6.4851   6.6354   6.7614   6.8084   6.9005   6.9661   7.1414   7.2939
     7.5182   7.5258   7.6660   7.6974   7.7697   7.7896   7.8211   7.8463
     7.9114   7.9410   8.0921   8.1327   8.2469   8.4019   8.4451   8.7977
     8.8698   8.9612   9.0469   9.0886   9.3726   9.4766   9.5938   9.7213
    10.0518  10.1399  10.5482  10.5767  10.7310  11.3055  12.2386  13.1567

          k = 0.0556-0.0321 0.0000 (  4465 PWs)   bands (ev):

   -36.7265 -36.6731 -36.5477 -36.4032 -36.2670 -36.2054 -36.2023 -36.1951
   -36.1934 -36.1706 -36.1603 -36.1511 -36.1407 -36.1391 -36.1160 -36.1147
   -36.1008 -36.0893 -35.8341 -35.8336 -35.7755 -35.7752 -35.7642 -35.7640
     2.7189   3.1096   3.6971   4.2821   4.4829   4.5209   4.8324   4.8387
     6.9652   7.0132   7.1975   7.2165   7.2523   7.3101   7.3528   7.4096
     7.4343   7.4508   7.4539   7.5341   7.5627   7.6261   7.6565   7.6924
     7.7341   7.8774   7.9492   7.9927   8.0105   8.4656   9.0933   9.0955
     9.2431   9.2723   9.3267   9.3957   9.4131   9.5714   9.6723   9.9085
     9.9726  10.1117  10.3201  10.3236  10.6272  10.7872  10.9521  11.6606

          k = 0.1667 0.2887 0.0000 (  4425 PWs)   bands (ev):

   -36.6072 -36.6030 -36.5640 -36.5297 -36.4999 -36.4764 -36.4361 -36.4132
   -36.3613 -36.3008 -36.2917 -36.2776 -36.2512 -36.2328 -36.2159 -36.2057
   -36.1994 -36.1403 -36.0407 -36.0407 -35.8594 -35.8593 -35.8107 -35.8107
     4.8506   4.9665   5.1805   5.4620   5.7604   5.8171   5.8197   5.9274
     5.9841   6.0293   6.1338   6.2429   6.3924   6.4724   6.9128   6.9835
     6.9973   7.1646   7.3440   7.4341   7.4680   7.5044   7.5778   8.1349
     8.1530   8.3766   8.3830   8.5670   8.7815   9.0090   9.1922   9.2267
     9.4465   9.6181   9.8316  10.0435  10.0796  10.2130  10.3886  10.4485
    10.4822  10.5571  10.6407  10.8961  11.8913  13.0440  14.2970  15.5360

          k = 0.1667 0.4170 0.0000 (  4459 PWs)   bands (ev):

   -36.6466 -36.6371 -36.6215 -36.6111 -36.5747 -36.5596 -36.5060 -36.4527
   -36.3803 -36.3645 -36.3607 -36.3152 -36.3094 -36.2885 -36.2795 -36.2450
   -36.2319 -36.1726 -36.1362 -36.1357 -35.9219 -35.9215 -35.8028 -35.8024
     5.0207   5.0821   5.2036   5.3267   5.4285   5.4349   5.6547   5.6992
     5.7920   5.9275   6.2148   6.3440   6.4548   6.7194   6.8741   7.0400
     7.0941   7.2466   7.4425   7.6026   7.8164   7.9595   8.0117   8.2142
     8.3186   8.4480   8.6711   8.9676   9.1528   9.2150   9.3372   9.5540
     9.6911   9.8798  10.2463  10.6518  10.7429  10.8323  10.8907  11.0575
    12.0885  12.2283  12.3638  12.7504  13.5534  14.6738  15.9429  17.2431

          k = 0.1667 0.5453 0.0000 (  4490 PWs)   bands (ev):

   -36.7046 -36.6907 -36.6582 -36.6570 -36.6238 -36.6117 -36.4581 -36.4461
   -36.4088 -36.4067 -36.3911 -36.3590 -36.3342 -36.3111 -36.2899 -36.2786
   -36.2359 -36.2023 -36.1817 -36.1810 -35.9558 -35.9555 -35.7985 -35.7980
     4.7120   4.9755   4.9989   5.1461   5.2557   5.3196   5.3818   5.6509
     5.6855   5.8047   6.0882   6.2290   6.3538   6.5584   6.7310   7.1628
     7.2581   7.5153   7.6670   7.8294   7.9635   8.0790   8.3219   8.4596
     8.7050   8.9675   9.1632   9.2827   9.3942   9.7640   9.9727  10.0963
    10.2103  10.3049  10.4648  10.5863  10.6822  10.7910  10.9559  11.0606
    13.9315  14.2960  14.6801  15.0162  15.4119  15.8771  16.2497  16.4506

          k = 0.1667-0.4811 0.0000 (  4476 PWs)   bands (ev):

   -36.6839 -36.6705 -36.6459 -36.6405 -36.6061 -36.5942 -36.4795 -36.4491
   -36.3916 -36.3908 -36.3844 -36.3423 -36.3264 -36.3040 -36.2912 -36.2632
   -36.2359 -36.1901 -36.1662 -36.1656 -35.9439 -35.9437 -35.7999 -35.7996
     4.8217   5.0294   5.0520   5.2469   5.2865   5.3506   5.4865   5.6811
     5.7578   5.8164   6.1447   6.2655   6.3877   6.6630   6.8315   7.0222
     7.2192   7.4823   7.6769   7.7244   7.9001   8.0465   8.1325   8.3839
     8.5921   8.8586   8.9099   9.0265   9.3075   9.6267   9.7375   9.7962
     9.8650  10.0158  10.3370  10.6957  10.7686  10.8759  11.0036  11.1533
    13.0497  13.2829  13.5283  13.9218  14.6033  15.5497  16.6171  17.6052

          k = 0.1667-0.3528 0.0000 (  4458 PWs)   bands (ev):

   -36.6126 -36.6023 -36.5919 -36.5730 -36.5331 -36.5324 -36.4993 -36.4444
   -36.3746 -36.3315 -36.3266 -36.2949 -36.2821 -36.2643 -36.2481 -36.2252
   -36.2234 -36.1554 -36.0934 -36.0932 -35.8922 -35.8921 -35.8069 -35.8066
     5.1106   5.2058   5.2925   5.3830   5.5193   5.6406   5.6740   5.7969
     5.9030   6.1154   6.1951   6.3727   6.4126   6.6724   6.7416   6.9162
     7.0889   7.2819   7.3109   7.3566   7.5731   7.7379   7.8130   8.0546
     8.0797   8.3261   8.6079   8.7485   8.8082   9.1445   9.2365   9.3744
     9.6025   9.7770  10.1101  10.3821  10.5291  10.6123  10.6284  10.8317
    11.1967  11.2630  11.3494  11.6819  12.6032  13.7896  15.0837  16.3804

          k = 0.1667-0.2245 0.0000 (  4433 PWs)   bands (ev):

   -36.6355 -36.6133 -36.5459 -36.4871 -36.4451 -36.4131 -36.3693 -36.3672
   -36.3321 -36.2787 -36.2613 -36.2553 -36.2243 -36.2070 -36.1998 -36.1803
   -36.1616 -36.1296 -35.9842 -35.9840 -35.8291 -35.8291 -35.8155 -35.8154
     4.3217   4.5710   4.9586   5.3918   5.5120   5.6605   5.8463   5.9238
     6.0240   6.1789   6.2759   6.3085   6.4850   6.6302   6.7186   6.9889
     7.2268   7.2968   7.4061   7.5089   7.6102   7.7235   7.7566   7.9769
     8.1138   8.3514   8.4831   8.5346   8.6818   8.8090   8.8879   8.9541
     9.1279   9.2559   9.4438   9.5666   9.5866   9.9172   9.9441   9.9804
    10.0837  10.4073  10.5322  10.6209  11.3740  12.4220  13.5977  14.7486

          k = 0.1667-0.0962 0.0000 (  4427 PWs)   bands (ev):

   -36.6825 -36.6413 -36.5382 -36.4303 -36.3485 -36.3105 -36.2883 -36.2699
   -36.2415 -36.2268 -36.2244 -36.2226 -36.1906 -36.1790 -36.1667 -36.1389
   -36.1270 -36.1089 -35.8858 -35.8856 -35.8233 -35.8230 -35.7903 -35.7901
     3.5031   3.8516   4.3842   4.9230   5.0313   5.1549   5.4410   5.4986
     6.3032   6.5777   6.6429   6.7071   6.8653   6.9006   6.9850   7.3802
     7.5390   7.5585   7.6674   7.6988   7.7804   7.8724   7.8939   7.9342
     8.0167   8.0335   8.1169   8.1660   8.2353   8.4222   8.5384   8.6270
     8.8156   8.8480   9.0227   9.1464   9.3098   9.4287   9.6621   9.7934
     9.9475  10.3457  10.5327  10.6635  10.8398  11.4596  12.5021  13.4803

          k = 0.2778 0.4811 0.0000 (  4485 PWs)   bands (ev):

   -36.6448 -36.6360 -36.6296 -36.6071 -36.5881 -36.5515 -36.5281 -36.4973
   -36.4483 -36.4380 -36.4188 -36.3873 -36.3621 -36.3540 -36.2960 -36.2761
   -36.2516 -36.2083 -36.1444 -36.1443 -36.0151 -36.0150 -35.7971 -35.7970
     5.2492   5.2583   5.4301   5.4373   5.6206   5.8299   5.9422   6.0241
     6.0622   6.1722   6.2319   6.3024   6.3116   6.5997   6.6520   6.9372
     6.9843   7.2761   7.2865   7.5983   7.6880   7.9476   7.9833   8.1781
     8.2043   8.6574   8.7479   8.8380   9.0504   9.1897   9.3623   9.3827
     9.7221  10.0101  10.3670  10.6434  10.7598  10.7677  10.8656  11.0481
    14.4059  14.5780  14.9278  15.4573  16.1855  17.0982  18.0912  18.7695

          k = 0.2778 0.6094 0.0000 (  4491 PWs)   bands (ev):

   -36.6401 -36.6266 -36.6114 -36.5956 -36.5800 -36.5655 -36.5302 -36.5090
   -36.4848 -36.4675 -36.4509 -36.4164 -36.3667 -36.3597 -36.2898 -36.2773
   -36.2517 -36.2262 -36.1363 -36.1361 -36.0474 -36.0473 -35.7956 -35.7955
     5.2137   5.4384   5.4750   5.6220   5.7084   5.7906   5.9283   5.9839
     6.0400   6.1208   6.2309   6.2728   6.3587   6.5757   6.6249   6.9754
     7.1088   7.2995   7.3722   7.5129   7.6700   7.8874   7.9355   8.2376
     8.2508   8.6278   8.7728   8.9564   9.0812   9.2083   9.3741   9.4365
    10.0331  10.1939  10.3839  10.4825  10.5782  10.6445  10.6879  10.8251
    15.6111  15.8419  16.2159  16.6331  16.9810  17.3556  17.7833  18.2650

          k = 0.2778-0.4170 0.0000 (  4462 PWs)   bands (ev):

   -36.6511 -36.6429 -36.6258 -36.6170 -36.5839 -36.5689 -36.5077 -36.4672
   -36.4062 -36.4016 -36.3961 -36.3478 -36.3411 -36.3231 -36.2959 -36.2726
   -36.2429 -36.1886 -36.1458 -36.1457 -35.9694 -35.9693 -35.7993 -35.7991
     5.1010   5.2380   5.2921   5.4474   5.4926   5.6672   5.7376   5.9112
     5.9565   6.1168   6.2661   6.3800   6.5064   6.5588   6.7460   6.8392
     6.9738   7.2200   7.3922   7.5299   7.8013   7.9643   8.0287   8.1976
     8.2398   8.4299   8.6609   8.9053   9.0712   9.2326   9.3391   9.5077
     9.5791   9.8415  10.3197  10.7142  10.8388  10.8994  10.9755  11.1540
    13.2366  13.3483  13.6010  14.0697  14.8245  15.8398  17.0012  18.1885

          k = 0.2778-0.2887 0.0000 (  4463 PWs)   bands (ev):

   -36.6321 -36.6218 -36.6133 -36.5938 -36.5577 -36.5310 -36.5072 -36.4455
   -36.3700 -36.3273 -36.3216 -36.2966 -36.2796 -36.2654 -36.2358 -36.2282
   -36.1974 -36.1612 -36.1153 -36.1147 -35.8798 -35.8797 -35.8063 -35.8061
     4.8615   4.9856   5.0966   5.1330   5.2754   5.3086   5.4795   5.5287
     5.7741   5.8750   6.1071   6.2703   6.5522   6.8304   7.0176   7.2016
     7.3131   7.3825   7.5094   7.6831   7.7564   7.9237   8.0703   8.3557
     8.4141   8.5593   8.7114   8.9405   9.1654   9.2864   9.3762   9.5186
     9.7602  10.0458  10.1593  10.3060  10.4995  10.6115  10.6468  10.8546
    11.0440  11.2320  11.2713  11.5843  12.5234  13.7548  15.0962  16.4326

          k = 0.2778-0.1604 0.0000 (  4458 PWs)   bands (ev):

   -36.6267 -36.6036 -36.5686 -36.5397 -36.5012 -36.4781 -36.4285 -36.4097
   -36.3496 -36.2845 -36.2754 -36.2718 -36.2365 -36.2278 -36.2072 -36.1755
   -36.1543 -36.1420 -36.0461 -36.0459 -35.8311 -35.8310 -35.8130 -35.8128
     4.4775   4.7059   4.9187   5.0038   5.1588   5.3791   5.5039   5.6259
     5.8654   5.9402   6.1181   6.4196   6.7650   6.8680   7.1361   7.2278
     7.4632   7.5566   7.6711   7.7009   7.8735   7.9247   8.1692   8.2930
     8.3874   8.5119   8.6648   8.6681   8.8846   9.0903   9.1866   9.2902
     9.3045   9.3916   9.5620   9.5908   9.7187   9.8409   9.9657  10.0918
    10.3529  10.3740  10.7047  10.9077  11.4489  12.7007  14.0149  15.2669

          k = 0.3889 0.6736 0.0000 (  4511 PWs)   bands (ev):

   -36.6767 -36.6618 -36.6303 -36.6274 -36.6001 -36.5913 -36.4854 -36.4762
   -36.4531 -36.4379 -36.4272 -36.3843 -36.3632 -36.3380 -36.2912 -36.2879
   -36.2445 -36.2155 -36.1624 -36.1622 -36.0054 -36.0052 -35.7968 -35.7965
     4.9377   5.1958   5.3201   5.4994   5.5222   5.5814   5.6810   5.8083
     5.9935   5.9943   6.1653   6.4104   6.4224   6.4986   6.4988   6.9358
     7.0739   7.4244   7.5626   7.7239   7.8711   7.9132   8.2041   8.2969
     8.5230   8.6780   8.7320   8.9151   9.2404   9.4868   9.6599   9.7764
    10.2257  10.2282  10.3967  10.4595  10.5860  10.7128  10.8494  10.8694
    15.1358  15.3877  15.6651  15.9271  16.2115  16.5540  16.9020  17.1964

          k = 0.3889-0.3528 0.0000 (  4485 PWs)   bands (ev):

   -36.7178 -36.7036 -36.6766 -36.6682 -36.6372 -36.6203 -36.4592 -36.4404
   -36.3811 -36.3665 -36.3584 -36.3243 -36.3149 -36.3029 -36.2638 -36.2568
   -36.2174 -36.1974 -36.1878 -36.1829 -35.9125 -35.9125 -35.8009 -35.8002
     4.5511   4.7375   4.7918   4.8944   5.0096   5.0922   5.1595   5.3591
     5.5158   5.6277   5.7877   6.1045   6.4634   6.7665   6.9710   7.3333
     7.3784   7.5405   7.6794   7.8054   8.1385   8.2297   8.5294   8.7580
     8.8661   9.2572   9.4761   9.5893   9.7666   9.9582  10.2273  10.3077
    10.3277  10.3945  10.4480  10.7116  10.7535  10.8564  11.0154  11.1577
    12.6626  13.0917  13.4855  13.7320  14.2048  14.9927  15.8644  16.5454

          k = 0.3889-0.2245 0.0000 (  4444 PWs)   bands (ev):

   -36.6938 -36.6790 -36.6676 -36.6436 -36.6220 -36.5858 -36.4842 -36.4460
   -36.3704 -36.3171 -36.3155 -36.3122 -36.2756 -36.2670 -36.2422 -36.2076
   -36.1931 -36.1720 -36.1695 -36.1640 -35.8666 -35.8663 -35.8044 -35.8041
     4.5061   4.5519   4.6881   4.8218   4.8390   4.9676   5.0885   5.1606
     5.4670   5.5587   5.6102   6.1373   6.6270   6.9957   7.2504   7.3281
     7.4520   7.6641   7.7106   7.9239   8.1596   8.2548   8.7220   8.7431
     8.9962   9.3445   9.6904   9.8676   9.8951  10.2438  10.2640  10.3495
    10.4192  10.4853  10.5121  10.5434  10.6538  10.6959  10.8178  10.9148
    11.0209  11.0355  11.3545  11.4708  12.4979  13.8553  15.2730  16.6688

          k =-0.5000-0.8660 0.0000 (  4492 PWs)   bands (ev):

   -36.7497 -36.7369 -36.7070 -36.7008 -36.6646 -36.6510 -36.4506 -36.4426
   -36.3546 -36.3380 -36.3347 -36.3285 -36.2949 -36.2910 -36.2558 -36.2256
   -36.2206 -36.2110 -36.1906 -36.1840 -35.8807 -35.8807 -35.8017 -35.8016
     4.2757   4.4581   4.5098   4.6255   4.7221   4.8435   4.8728   5.0316
     5.3092   5.3403   5.4637   6.0008   6.5642   6.8917   7.0993   7.2050
     7.3440   7.6147   7.9579   8.0892   8.2046   8.6221   8.7135   9.1191
     9.3786   9.5394  10.0317  10.1080  10.4957  10.4992  10.7315  10.8315
    10.8477  10.8960  10.9375  10.9593  11.0299  11.1418  11.3142  11.3189
    11.6021  12.5746  13.4621  13.7579  14.1384  14.2269  14.5046  14.5311

     the Fermi energy is    10.2771 ev

!    total energy              =   -1369.42533425 Ry
     estimated scf accuracy    <       0.00000037 Ry
     smearing contrib. (-TS)   =      -0.03470348 Ry
     internal energy E=F+TS    =   -1369.39063077 Ry

     The total energy is F=E-TS. E is the sum of the following terms:
     one-electron contribution =  -12560.29212613 Ry
     hartree contribution      =    6340.96763616 Ry
     xc contribution           =    -239.29024364 Ry
     ewald contribution        =    5089.22410283 Ry

     total magnetization       =    -0.00 Bohr mag/cell
     absolute magnetization    =     0.00 Bohr mag/cell

     convergence has been achieved in   8 iterations

     negative rho (up, down):  2.303E-01 2.303E-01

     Forces acting on atoms (cartesian axes, Ry/au):

     atom    1 type  1   force =     0.00000000    0.00000000    0.00648789
     atom    2 type  1   force =     0.00000000    0.00000000   -0.00198887
     atom    3 type  1   force =     0.00000000    0.00000000   -0.00415425
     atom    4 type  1   force =     0.00000000    0.00000000   -0.00075127
     atom    5 type  1   force =     0.00000000    0.00000000    0.00075290
     atom    6 type  1   force =     0.00000000    0.00000000    0.00414734
     atom    7 type  1   force =     0.00000000    0.00000000    0.00198777
     atom    8 type  1   force =     0.00000000    0.00000000   -0.00648150

     Total force =     0.011296     Total SCF correction =     0.005373
     SCF correction compared to forces is large: reduce conv_thr to get better values
     Energy error            =      3.3E-04
     Gradient error          =      6.5E-03

     number of scf cycles    =   3
     number of bfgs steps    =   2

     energy   old            =   -1369.4250051193 Ry
     energy   new            =   -1369.4253342525 Ry

     CASE: energy  _new < energy  _old

     new trust radius        =       0.0198794422 bohr
     new conv_thr            =       0.0000003291 Ry


ATOMIC_POSITIONS (angstrom)
Rh            0.0000000000        0.0000000000        0.0239085176
Rh            2.7108568000        1.5651139000        2.2023589677
Rh            1.3554284000        0.7825569000        4.4124581377
Rh            0.0000000000        0.0000000000        6.6400999628
Rh            2.7108568000        1.5651139000        8.8537275000
Rh            1.3554284000        0.7825569000       11.0813702061
Rh            0.0000000000        0.0000000000       13.2914791317
Rh            2.7108568000        1.5651139000       15.4699456764



     Writing output data file /home/STUDENTI/leonardo.razzai/WORK/relax_surf/8-L.save/
     NEW-OLD atomic charge density approx. for the potential

     negative rho (up, down):  2.297E-01 2.297E-01
     Generating pointlists ...
     new r_m :   0.4082 (alat units)  2.0910 (a.u.) for type    1

     total cpu time spent up to now is      621.0 secs

     Self-consistent Calculation

     iteration #  1     ecut=    35.00 Ry     beta= 0.40
     Davidson diagonalization with overlap
     ethr =  1.00E-06,  avg # of iterations =  6.2

     negative rho (up, down):  2.297E-01 2.297E-01

     total cpu time spent up to now is      660.5 secs

     total energy              =   -1369.42348923 Ry
     estimated scf accuracy    <       0.12229540 Ry

     total magnetization       =    -0.00 Bohr mag/cell
     absolute magnetization    =     0.00 Bohr mag/cell

     iteration #  2     ecut=    35.00 Ry     beta= 0.40
     Davidson diagonalization with overlap
     ethr =  1.02E-04,  avg # of iterations =  1.0

     negative rho (up, down):  2.298E-01 2.297E-01

     total cpu time spent up to now is      676.5 secs

     total energy              =   -1369.42499545 Ry
     estimated scf accuracy    <       0.07036321 Ry

     total magnetization       =    -0.00 Bohr mag/cell
     absolute magnetization    =     0.00 Bohr mag/cell

     iteration #  3     ecut=    35.00 Ry     beta= 0.40
     Davidson diagonalization with overlap
     ethr =  5.86E-05,  avg # of iterations =  1.0

     negative rho (up, down):  2.298E-01 2.298E-01

     total cpu time spent up to now is      692.6 secs

     total energy              =   -1369.42560958 Ry
     estimated scf accuracy    <       0.00264178 Ry

     total magnetization       =    -0.00 Bohr mag/cell
     absolute magnetization    =     0.00 Bohr mag/cell

     iteration #  4     ecut=    35.00 Ry     beta= 0.40
     Davidson diagonalization with overlap
     ethr =  2.20E-06,  avg # of iterations =  1.0

     negative rho (up, down):  2.298E-01 2.298E-01

     total cpu time spent up to now is      708.9 secs

     total energy              =   -1369.42556691 Ry
     estimated scf accuracy    <       0.00127638 Ry

     total magnetization       =    -0.00 Bohr mag/cell
     absolute magnetization    =     0.00 Bohr mag/cell

     iteration #  5     ecut=    35.00 Ry     beta= 0.40
     Davidson diagonalization with overlap
     ethr =  1.06E-06,  avg # of iterations =  1.0

     negative rho (up, down):  2.298E-01 2.298E-01

     total cpu time spent up to now is      725.0 secs

     total energy              =   -1369.42559078 Ry
     estimated scf accuracy    <       0.00000740 Ry

     total magnetization       =    -0.00 Bohr mag/cell
     absolute magnetization    =     0.00 Bohr mag/cell

     iteration #  6     ecut=    35.00 Ry     beta= 0.40
     Davidson diagonalization with overlap
     ethr =  6.16E-09,  avg # of iterations =  3.2

     negative rho (up, down):  2.298E-01 2.298E-01

     total cpu time spent up to now is      749.6 secs

     total energy              =   -1369.42559189 Ry
     estimated scf accuracy    <       0.00000436 Ry

     total magnetization       =    -0.00 Bohr mag/cell
     absolute magnetization    =     0.00 Bohr mag/cell

     iteration #  7     ecut=    35.00 Ry     beta= 0.40
     Davidson diagonalization with overlap
     ethr =  3.64E-09,  avg # of iterations =  1.0

     negative rho (up, down):  2.298E-01 2.298E-01

     total cpu time spent up to now is      779.1 secs

     total energy              =   -1369.42559192 Ry
     estimated scf accuracy    <       0.00000405 Ry

     total magnetization       =    -0.00 Bohr mag/cell
     absolute magnetization    =     0.00 Bohr mag/cell

     iteration #  8     ecut=    35.00 Ry     beta= 0.40
     Davidson diagonalization with overlap
     ethr =  3.37E-09,  avg # of iterations =  1.0

     negative rho (up, down):  2.298E-01 2.298E-01

     total cpu time spent up to now is      806.7 secs

     total energy              =   -1369.42559198 Ry
     estimated scf accuracy    <       0.00000371 Ry

     total magnetization       =    -0.00 Bohr mag/cell
     absolute magnetization    =     0.00 Bohr mag/cell

     iteration #  9     ecut=    35.00 Ry     beta= 0.40
     Davidson diagonalization with overlap
     ethr =  3.09E-09,  avg # of iterations =  1.1

     negative rho (up, down):  2.298E-01 2.298E-01

     total cpu time spent up to now is      836.2 secs

     total energy              =   -1369.42559224 Ry
     estimated scf accuracy    <       0.00000254 Ry

     total magnetization       =    -0.00 Bohr mag/cell
     absolute magnetization    =     0.00 Bohr mag/cell

     iteration # 10     ecut=    35.00 Ry     beta= 0.40
     Davidson diagonalization with overlap
     ethr =  2.11E-09,  avg # of iterations =  1.1

     negative rho (up, down):  2.298E-01 2.298E-01
 
     Magnetic moment per site:
     atom:    1    charge:   13.1061    magn:   -0.0000    constr:    0.0000
     atom:    2    charge:   13.1606    magn:   -0.0000    constr:    0.0000
     atom:    3    charge:   13.1581    magn:    0.0000    constr:    0.0000
     atom:    4    charge:   13.1572    magn:    0.0000    constr:    0.0000
     atom:    5    charge:   13.1580    magn:    0.0000    constr:    0.0000
     atom:    6    charge:   13.1573    magn:    0.0000    constr:    0.0000
     atom:    7    charge:   13.1606    magn:   -0.0000    constr:    0.0000
     atom:    8    charge:   13.1059    magn:   -0.0000    constr:    0.0000

     total cpu time spent up to now is      872.8 secs

     End of self-consistent calculation

 ------ SPIN UP ------------


          k = 0.0556 0.0962 0.0000 (  4451 PWs)   bands (ev):

   -36.7096 -36.6687 -36.5465 -36.4067 -36.2811 -36.2369 -36.2259 -36.2095
   -36.2074 -36.1868 -36.1715 -36.1643 -36.1539 -36.1364 -36.1278 -36.1084
   -36.1073 -36.0872 -35.8414 -35.8412 -35.8104 -35.8102 -35.7787 -35.7785
     2.9358   3.3050   3.8841   4.4726   4.6664   4.7006   4.9940   5.0075
     6.7874   6.8543   7.0536   7.0778   7.0960   7.1815   7.3703   7.4317
     7.5154   7.5155   7.5314   7.6027   7.6371   7.6429   7.7296   7.7729
     7.8189   7.8381   7.8860   8.1163   8.1249   8.2005   8.8008   8.9728
     8.9839   9.1475   9.2430   9.3564   9.4293   9.5371   9.6052   9.7222
     9.8466  10.1832  10.2402  10.5850  10.7359  10.7969  11.5309  12.3295

          k = 0.0556 0.2245 0.0000 (  4420 PWs)   bands (ev):

   -36.6576 -36.6318 -36.5388 -36.4522 -36.3952 -36.3573 -36.3164 -36.3068
   -36.2795 -36.2462 -36.2419 -36.2382 -36.1976 -36.1881 -36.1720 -36.1475
   -36.1256 -36.1115 -35.9368 -35.9364 -35.8297 -35.8295 -35.8116 -35.8115
     3.8552   4.1567   4.6379   5.1332   5.2311   5.3841   5.6307   5.7331
     6.1238   6.3618   6.4975   6.5311   6.6588   6.7724   6.8251   7.2319
     7.4200   7.4988   7.5996   7.6892   7.7587   7.7989   7.8670   7.9390
     8.0918   8.2265   8.2943   8.3457   8.5065   8.5993   8.6867   8.6948
     8.7963   8.9258   9.0588   9.1753   9.3987   9.5759   9.7320   9.8168
    10.0940  10.3083  10.5579  10.7567  10.9508  11.8913  12.9957  14.0597

          k = 0.0556 0.3528 0.0000 (  4467 PWs)   bands (ev):

   -36.6223 -36.6054 -36.5900 -36.5741 -36.5255 -36.5174 -36.4664 -36.4304
   -36.3604 -36.2982 -36.2939 -36.2860 -36.2467 -36.2335 -36.2140 -36.1899
   -36.1575 -36.1438 -36.0898 -36.0893 -35.8555 -35.8554 -35.8207 -35.8205
     4.6540   4.8771   4.9606   5.0076   5.1497   5.2786   5.4333   5.5029
     5.7796   5.8822   6.0287   6.3246   6.7284   6.8668   7.1784   7.2076
     7.5045   7.5198   7.6104   7.6645   7.7829   7.9459   8.1440   8.3589
     8.4722   8.6125   8.7656   8.8433   9.0786   9.2963   9.4197   9.4738
     9.6163   9.7535   9.8323  10.0082  10.1204  10.1530  10.3448  10.3985
    10.4478  10.6423  10.7830  10.8533  11.8460  13.1229  14.4756  15.7844

          k = 0.0556 0.4811 0.0000 (  4463 PWs)   bands (ev):

   -36.7123 -36.7033 -36.6745 -36.6600 -36.6314 -36.6027 -36.4756 -36.4527
   -36.3673 -36.3364 -36.3324 -36.3086 -36.2860 -36.2745 -36.2431 -36.2236
   -36.1956 -36.1911 -36.1792 -36.1694 -35.8885 -35.8882 -35.8142 -35.8138
     4.4773   4.5878   4.6694   4.7982   4.8462   4.9758   5.0351   5.1781
     5.4438   5.4999   5.6075   6.0857   6.5559   6.9184   7.1574   7.3231
     7.4154   7.6115   7.7125   7.9368   8.1947   8.2699   8.6991   8.8427
     9.0068   9.4088   9.6248   9.8668   9.9962  10.1269  10.3658  10.4345
    10.5014  10.5557  10.6053  10.6408  10.7453  10.8159  10.9564  11.0868
    11.4787  11.9524  12.3293  12.4583  13.1185  14.2663  15.5284  16.7084

          k = 0.0556-0.5453 0.0000 (  4486 PWs)   bands (ev):

   -36.7405 -36.7317 -36.6940 -36.6890 -36.6511 -36.6347 -36.4623 -36.4522
   -36.3585 -36.3447 -36.3383 -36.3181 -36.2954 -36.2885 -36.2503 -36.2347
   -36.2121 -36.2101 -36.1840 -36.1805 -35.8960 -35.8959 -35.8130 -35.8126
     4.3580   4.5356   4.5772   4.6954   4.7918   4.9079   4.9258   5.1192
     5.3539   5.4053   5.5283   6.0212   6.5406   6.8542   7.0810   7.2622
     7.3632   7.6266   7.7750   8.0535   8.1656   8.4648   8.8061   8.9072
     9.2761   9.5291   9.7763  10.1151  10.2760  10.3791  10.4760  10.6433
    10.7339  10.7706  10.8240  10.8535  10.9192  10.9826  11.1215  11.1910
    12.0915  12.7794  13.4803  13.8078  13.8874  14.3294  14.9798  15.4523

          k = 0.0556-0.4170 0.0000 (  4465 PWs)   bands (ev):

   -36.6619 -36.6523 -36.6408 -36.6183 -36.5886 -36.5476 -36.5000 -36.4511
   -36.3689 -36.3200 -36.3167 -36.2991 -36.2692 -36.2548 -36.2303 -36.2084
   -36.1732 -36.1642 -36.1491 -36.1452 -35.8746 -35.8745 -35.8169 -35.8165
     4.6581   4.6952   4.8315   4.9232   4.9975   5.0876   5.2273   5.2861
     5.5828   5.6800   5.7706   6.1987   6.6164   6.9707   7.2715   7.3691
     7.5084   7.5214   7.6588   7.7862   7.9374   8.2408   8.3421   8.5186
     8.8300   9.0680   9.2721   9.3795   9.5202   9.7539   9.9373  10.0104
    10.0742  10.2141  10.2585  10.3713  10.4384  10.5866  10.7032  10.8539
    10.9303  11.0963  11.1817  11.4232  12.4293  13.7521  15.1585  16.5464

          k = 0.0556-0.2887 0.0000 (  4439 PWs)   bands (ev):

   -36.6280 -36.6123 -36.5495 -36.5095 -36.4741 -36.4379 -36.3836 -36.3800
   -36.3329 -36.2744 -36.2673 -36.2657 -36.2209 -36.2116 -36.1942 -36.1688
   -36.1407 -36.1265 -36.0153 -36.0151 -35.8335 -35.8334 -35.8248 -35.8245
     4.3781   4.6020   4.9201   5.1729   5.2772   5.4960   5.6920   5.7729
     6.0097   6.0648   6.2597   6.4252   6.5666   6.7029   6.9635   7.0192
     7.3534   7.5710   7.6469   7.7312   7.7426   7.8693   7.9409   8.0597
     8.1497   8.2727   8.5068   8.6556   8.6930   8.8103   8.9772   9.0217
     9.1760   9.2726   9.4138   9.5419   9.6194   9.8498   9.9568  10.0289
    10.1390  10.4856  10.5994  10.7982  11.3639  12.4987  13.7423  14.9366

          k = 0.0556-0.1604 0.0000 (  4443 PWs)   bands (ev):

   -36.6876 -36.6525 -36.5412 -36.4205 -36.3264 -36.2884 -36.2614 -36.2458
   -36.2290 -36.2165 -36.2098 -36.2036 -36.1719 -36.1640 -36.1505 -36.1263
   -36.1148 -36.0986 -35.8675 -35.8673 -35.8336 -35.8335 -35.7927 -35.7926
     3.3313   3.6804   4.2345   4.8087   4.9639   5.0192   5.3053   5.3387
     6.4866   6.6436   6.7516   6.8146   6.9010   6.9639   7.1292   7.2864
     7.5181   7.5294   7.6724   7.6990   7.7759   7.7895   7.8148   7.8501
     7.9062   7.9397   8.0894   8.1337   8.2494   8.3896   8.4328   8.8012
     8.8753   8.9592   9.0486   9.0880   9.3778   9.4771   9.5940   9.7227
    10.0550  10.1406  10.5582  10.5807  10.7392  11.3093  12.2465  13.1738

          k = 0.0556-0.0321 0.0000 (  4465 PWs)   bands (ev):

   -36.7214 -36.6777 -36.5506 -36.4026 -36.2643 -36.2091 -36.2056 -36.1985
   -36.1975 -36.1629 -36.1524 -36.1442 -36.1340 -36.1314 -36.1084 -36.1067
   -36.0915 -36.0800 -35.8433 -35.8429 -35.7826 -35.7822 -35.7714 -35.7711
     2.7264   3.1027   3.6891   4.2806   4.4954   4.5236   4.8139   4.8206
     6.9660   7.0218   7.2018   7.2207   7.2520   7.3087   7.3580   7.4092
     7.4281   7.4547   7.4614   7.5250   7.5607   7.6284   7.6596   7.6955
     7.7437   7.8626   7.9410   7.9755   7.9958   8.4678   9.1004   9.1029
     9.2400   9.2717   9.3265   9.3971   9.4136   9.5683   9.6700   9.9026
     9.9743  10.1196  10.3229  10.3263  10.6372  10.7939  10.9553  11.6759

          k = 0.1667 0.2887 0.0000 (  4425 PWs)   bands (ev):

   -36.6053 -36.6037 -36.5591 -36.5318 -36.5048 -36.4760 -36.4291 -36.4074
   -36.3586 -36.3014 -36.2960 -36.2787 -36.2433 -36.2257 -36.2097 -36.1983
   -36.1894 -36.1315 -36.0468 -36.0467 -35.8664 -35.8663 -35.8211 -35.8210
     4.8596   4.9653   5.1768   5.4552   5.7486   5.8181   5.8287   5.9253
     5.9704   6.0343   6.1168   6.2249   6.3828   6.4784   6.9085   6.9828
     6.9927   7.1607   7.3437   7.4173   7.4510   7.5097   7.5928   8.1395
     8.1564   8.3705   8.3837   8.5693   8.7818   9.0082   9.1994   9.2266
     9.4413   9.6152   9.8387  10.0505  10.0815  10.2133  10.3935  10.4563
    10.4871  10.5598  10.6459  10.9015  11.9005  13.0554  14.3091  15.5486

          k = 0.1667 0.4170 0.0000 (  4459 PWs)   bands (ev):

   -36.6458 -36.6397 -36.6179 -36.6085 -36.5716 -36.5524 -36.5055 -36.4555
   -36.3790 -36.3697 -36.3656 -36.3095 -36.3021 -36.2818 -36.2713 -36.2381
   -36.2239 -36.1638 -36.1413 -36.1404 -35.9286 -35.9283 -35.8140 -35.8135
     5.0289   5.0901   5.1990   5.3192   5.4187   5.4369   5.6415   5.6896
     5.7837   5.9207   6.2101   6.3396   6.4432   6.7117   6.8668   7.0343
     7.1035   7.2416   7.4477   7.5949   7.8152   7.9638   8.0058   8.2114
     8.3136   8.4436   8.6662   8.9714   9.1560   9.2203   9.3395   9.5632
     9.6972   9.8872  10.2551  10.6579  10.7490  10.8342  10.8975  11.0627
    12.0939  12.2319  12.3634  12.7515  13.5597  14.6854  15.9547  17.2509

          k = 0.1667 0.5453 0.0000 (  4490 PWs)   bands (ev):

   -36.7032 -36.6947 -36.6562 -36.6524 -36.6170 -36.6036 -36.4638 -36.4540
   -36.4113 -36.4111 -36.3844 -36.3535 -36.3292 -36.3036 -36.2827 -36.2717
   -36.2278 -36.1932 -36.1863 -36.1850 -35.9624 -35.9621 -35.8101 -35.8096
     4.7198   4.9644   5.0068   5.1519   5.2484   5.3094   5.3683   5.6450
     5.6754   5.7961   6.0785   6.2197   6.3424   6.5555   6.7426   7.1544
     7.2521   7.5108   7.6724   7.8268   7.9585   8.0798   8.3286   8.4519
     8.7033   8.9662   9.1573   9.2814   9.3958   9.7712   9.9791  10.1028
    10.2163  10.3132  10.4737  10.5936  10.6874  10.7974  10.9626  11.0663
    13.9366  14.2971  14.6818  15.0191  15.4155  15.8851  16.2587  16.4558

          k = 0.1667-0.4811 0.0000 (  4476 PWs)   bands (ev):

   -36.6827 -36.6745 -36.6416 -36.6377 -36.6002 -36.5865 -36.4816 -36.4552
   -36.3962 -36.3956 -36.3808 -36.3352 -36.3201 -36.2974 -36.2841 -36.2564
   -36.2276 -36.1817 -36.1711 -36.1693 -35.9505 -35.9504 -35.8113 -35.8111
     4.8296   5.0362   5.0448   5.2486   5.2803   5.3410   5.4732   5.6737
     5.7458   5.8107   6.1375   6.2580   6.3765   6.6570   6.8452   7.0104
     7.2159   7.4786   7.6738   7.7252   7.8976   8.0516   8.1317   8.3780
     8.5887   8.8556   8.9038   9.0265   9.3097   9.6326   9.7431   9.8047
     9.8727  10.0245  10.3456  10.7035  10.7740  10.8803  11.0101  11.1588
    13.0551  13.2845  13.5295  13.9241  14.6085  15.5596  16.6271  17.6101

          k = 0.1667-0.3528 0.0000 (  4458 PWs)   bands (ev):

   -36.6113 -36.6041 -36.5864 -36.5740 -36.5334 -36.5318 -36.4924 -36.4423
   -36.3731 -36.3356 -36.3318 -36.2925 -36.2743 -36.2570 -36.2387 -36.2195
   -36.2144 -36.1465 -36.0990 -36.0986 -35.8991 -35.8989 -35.8177 -35.8174
     5.1186   5.2133   5.2910   5.3761   5.5168   5.6257   5.6745   5.7895
     5.8914   6.1122   6.1850   6.3649   6.4027   6.6714   6.7353   6.9152
     7.0827   7.2811   7.3107   7.3567   7.5690   7.7286   7.8099   8.0572
     8.0820   8.3215   8.6110   8.7446   8.8162   9.1492   9.2321   9.3843
     9.6028   9.7808  10.1187  10.3860  10.5339  10.6171  10.6340  10.8369
    11.2019  11.2688  11.3482  11.6827  12.6113  13.8020  15.0961  16.3905

          k = 0.1667-0.2245 0.0000 (  4433 PWs)   bands (ev):

   -36.6319 -36.6161 -36.5441 -36.4881 -36.4497 -36.4140 -36.3630 -36.3603
   -36.3275 -36.2748 -36.2645 -36.2590 -36.2169 -36.2010 -36.1936 -36.1719
   -36.1523 -36.1209 -35.9906 -35.9905 -35.8363 -35.8362 -35.8254 -35.8252
     4.3297   4.5665   4.9524   5.3879   5.5165   5.6545   5.8380   5.9142
     6.0229   6.1801   6.2657   6.3056   6.4712   6.6360   6.7124   6.9843
     7.2255   7.2916   7.4046   7.5092   7.6041   7.7181   7.7669   7.9789
     8.1196   8.3444   8.4795   8.5310   8.6873   8.8072   8.8863   8.9541
     9.1295   9.2613   9.4400   9.5630   9.5826   9.9234   9.9482   9.9851
    10.0886  10.4150  10.5419  10.6277  11.3826  12.4311  13.6089  14.7635

          k = 0.1667-0.0962 0.0000 (  4427 PWs)   bands (ev):

   -36.6779 -36.6454 -36.5395 -36.4300 -36.3515 -36.3139 -36.2827 -36.2639
   -36.2352 -36.2293 -36.2280 -36.2163 -36.1833 -36.1715 -36.1604 -36.1317
   -36.1184 -36.0998 -35.8929 -35.8927 -35.8326 -35.8324 -35.7974 -35.7972
     3.5107   3.8454   4.3765   4.9205   5.0404   5.1545   5.4222   5.4843
     6.3077   6.5717   6.6462   6.7139   6.8515   6.9041   6.9717   7.3768
     7.5429   7.5576   7.6726   7.7059   7.7849   7.8755   7.8803   7.9404
     8.0183   8.0287   8.1217   8.1569   8.2324   8.4137   8.5271   8.6287
     8.8126   8.8508   9.0277   9.1459   9.3169   9.4277   9.6643   9.7961
     9.9459  10.3516  10.5374  10.6757  10.8467  11.4630  12.5107  13.4975

          k = 0.2778 0.4811 0.0000 (  4485 PWs)   bands (ev):

   -36.6462 -36.6407 -36.6222 -36.6037 -36.5809 -36.5484 -36.5258 -36.4979
   -36.4489 -36.4404 -36.4215 -36.3800 -36.3620 -36.3502 -36.2888 -36.2687
   -36.2427 -36.1983 -36.1499 -36.1498 -36.0214 -36.0213 -35.8086 -35.8086
     5.2536   5.2693   5.4143   5.4437   5.6055   5.8134   5.9393   6.0267
     6.0718   6.1541   6.2197   6.2873   6.2995   6.5892   6.6535   6.9339
     6.9774   7.2759   7.2809   7.6012   7.6926   7.9421   7.9787   8.1677
     8.1954   8.6599   8.7516   8.8445   9.0549   9.1954   9.3717   9.3953
     9.7305  10.0180  10.3749  10.6515  10.7646  10.7739  10.8742  11.0533
    14.4122  14.5792  14.9286  15.4602  16.1905  17.1061  18.0993  18.7751

          k = 0.2778 0.6094 0.0000 (  4491 PWs)   bands (ev):

   -36.6390 -36.6306 -36.6075 -36.5929 -36.5733 -36.5613 -36.5325 -36.5098
   -36.4805 -36.4659 -36.4468 -36.4124 -36.3708 -36.3610 -36.2825 -36.2694
   -36.2419 -36.2158 -36.1420 -36.1418 -36.0533 -36.0532 -35.8073 -35.8072
     5.2215   5.4281   5.4826   5.6187   5.7037   5.7833   5.9249   5.9863
     6.0274   6.0918   6.2132   6.2779   6.3573   6.5654   6.6140   6.9718
     7.1032   7.2945   7.3722   7.5202   7.6691   7.8807   7.9317   8.2283
     8.2425   8.6298   8.7767   8.9641   9.0842   9.2148   9.3885   9.4497
    10.0403  10.2014  10.3921  10.4907  10.5836  10.6526  10.6940  10.8305
    15.6172  15.8435  16.2179  16.6367  16.9838  17.3597  17.7898  18.2682

          k = 0.2778-0.4170 0.0000 (  4462 PWs)   bands (ev):

   -36.6513 -36.6466 -36.6203 -36.6142 -36.5761 -36.5651 -36.5066 -36.4691
   -36.4103 -36.4056 -36.3993 -36.3417 -36.3346 -36.3159 -36.2886 -36.2652
   -36.2351 -36.1790 -36.1510 -36.1508 -35.9760 -35.9758 -35.8107 -35.8105
     5.1089   5.2458   5.2855   5.4444   5.4846   5.6587   5.7300   5.9014
     5.9440   6.1130   6.2597   6.3721   6.4995   6.5490   6.7473   6.8287
     6.9705   7.2228   7.3837   7.5348   7.8001   7.9605   8.0272   8.1889
     8.2354   8.4293   8.6626   8.9109   9.0747   9.2378   9.3430   9.5173
     9.5884   9.8505  10.3278  10.7218  10.8444  10.9042  10.9826  11.1592
    13.2429  13.3503  13.6009  14.0717  14.8299  15.8496  17.0114  18.1951

          k = 0.2778-0.2887 0.0000 (  4463 PWs)   bands (ev):

   -36.6305 -36.6215 -36.6115 -36.5942 -36.5551 -36.5282 -36.5029 -36.4467
   -36.3690 -36.3297 -36.3257 -36.2931 -36.2724 -36.2578 -36.2286 -36.2224
   -36.1885 -36.1525 -36.1206 -36.1196 -35.8867 -35.8866 -35.8172 -35.8170
     4.8693   4.9937   5.0882   5.1331   5.2719   5.3031   5.4742   5.5148
     5.7625   5.8649   6.1015   6.2660   6.5480   6.8201   7.0200   7.1963
     7.3145   7.3831   7.5122   7.6822   7.7609   7.9137   8.0677   8.3528
     8.4062   8.5549   8.7078   8.9378   9.1685   9.2918   9.3778   9.5282
     9.7606  10.0493  10.1652  10.3138  10.5011  10.6156  10.6553  10.8601
    11.0489  11.2373  11.2711  11.5856  12.5316  13.7675  15.1088  16.4421

          k = 0.2778-0.1604 0.0000 (  4458 PWs)   bands (ev):

   -36.6234 -36.6060 -36.5637 -36.5423 -36.5053 -36.4768 -36.4219 -36.4053
   -36.3472 -36.2806 -36.2767 -36.2749 -36.2301 -36.2216 -36.2013 -36.1685
   -36.1451 -36.1332 -36.0521 -36.0519 -35.8381 -35.8380 -35.8233 -35.8232
     4.4852   4.7010   4.9186   5.0064   5.1493   5.3754   5.5023   5.6142
     5.8575   5.9346   6.1100   6.4113   6.7552   6.8729   7.1274   7.2332
     7.4667   7.5607   7.6772   7.7084   7.8758   7.9093   8.1684   8.2762
     8.3813   8.5059   8.6601   8.6702   8.8772   9.0839   9.1935   9.2917
     9.3130   9.3974   9.5591   9.5999   9.7131   9.8397   9.9690  10.0951
    10.3592  10.3830  10.7193  10.9149  11.4576  12.7108  14.0270  15.2805

          k = 0.3889 0.6736 0.0000 (  4511 PWs)   bands (ev):

   -36.6752 -36.6658 -36.6296 -36.6225 -36.5933 -36.5831 -36.4895 -36.4799
   -36.4538 -36.4329 -36.4272 -36.3844 -36.3619 -36.3328 -36.2820 -36.2812
   -36.2359 -36.2053 -36.1676 -36.1674 -36.0117 -36.0116 -35.8085 -35.8082
     4.9456   5.1841   5.3288   5.4930   5.5279   5.5702   5.6717   5.8033
     5.9779   5.9821   6.1455   6.4139   6.4185   6.4901   6.5006   6.9284
     7.0687   7.4148   7.5618   7.7191   7.8803   7.9121   8.2056   8.2949
     8.5221   8.6696   8.7262   8.9219   9.2441   9.4942   9.6691   9.7844
    10.2320  10.2368  10.4061  10.4672  10.5916  10.7212  10.8544  10.8759
    15.1411  15.3909  15.6677  15.9285  16.2117  16.5593  16.9122  17.2014

          k = 0.3889-0.3528 0.0000 (  4485 PWs)   bands (ev):

   -36.7164 -36.7076 -36.6724 -36.6654 -36.6307 -36.6124 -36.4662 -36.4501
   -36.3797 -36.3691 -36.3553 -36.3161 -36.3076 -36.2981 -36.2572 -36.2508
   -36.2107 -36.1963 -36.1906 -36.1783 -35.9193 -35.9193 -35.8124 -35.8118
     4.5588   4.7447   4.7825   4.8988   5.0022   5.0816   5.1495   5.3577
     5.5052   5.6134   5.7765   6.0982   6.4579   6.7639   6.9834   7.3247
     7.3767   7.5444   7.6721   7.8103   8.1326   8.2187   8.5322   8.7579
     8.8615   9.2547   9.4755   9.5854   9.7662   9.9671  10.2342  10.3112
    10.3324  10.4005  10.4568  10.7187  10.7586  10.8602  11.0201  11.1635
    12.6674  13.0916  13.4877  13.7361  14.2099  15.0029  15.8747  16.5502

          k = 0.3889-0.2245 0.0000 (  4444 PWs)   bands (ev):

   -36.6925 -36.6826 -36.6626 -36.6417 -36.6169 -36.5785 -36.4872 -36.4531
   -36.3680 -36.3177 -36.3151 -36.3096 -36.2698 -36.2597 -36.2366 -36.2009
   -36.1888 -36.1740 -36.1635 -36.1633 -35.8735 -35.8732 -35.8157 -35.8154
     4.5132   4.5592   4.6791   4.8133   4.8453   4.9614   5.0799   5.1562
     5.4537   5.5452   5.5998   6.1321   6.6256   6.9957   7.2573   7.3331
     7.4596   7.6639   7.6945   7.9326   8.1405   8.2452   8.7290   8.7358
     8.9917   9.3374   9.6912   9.8683   9.8970  10.2453  10.2652  10.3559
    10.4212  10.4934  10.5172  10.5459  10.6601  10.7014  10.8134  10.9176
    11.0270  11.0365  11.3591  11.4781  12.5064  13.8689  15.2862  16.6751

          k =-0.5000-0.8660 0.0000 (  4492 PWs)   bands (ev):

   -36.7484 -36.7411 -36.7004 -36.6999 -36.6577 -36.6432 -36.4621 -36.4539
   -36.3459 -36.3349 -36.3313 -36.3277 -36.2882 -36.2856 -36.2503 -36.2270
   -36.2150 -36.2140 -36.1842 -36.1753 -35.8876 -35.8875 -35.8133 -35.8132
     4.2830   4.4629   4.5016   4.6302   4.7151   4.8369   4.8613   5.0336
     5.2992   5.3242   5.4490   5.9948   6.5601   6.8947   7.1071   7.2112
     7.3516   7.5982   7.9584   8.0696   8.2139   8.6137   8.7066   9.1226
     9.3724   9.5417  10.0384  10.1070  10.5034  10.5100  10.7359  10.8360
    10.8484  10.8990  10.9413  10.9646  11.0346  11.1461  11.3093  11.3147
    11.6065  12.5727  13.4658  13.7647  14.1464  14.2390  14.5096  14.5408

 ------ SPIN DOWN ----------


          k = 0.0556 0.0962 0.0000 (  4451 PWs)   bands (ev):

   -36.7096 -36.6687 -36.5466 -36.4067 -36.2811 -36.2370 -36.2259 -36.2095
   -36.2074 -36.1868 -36.1715 -36.1643 -36.1539 -36.1364 -36.1278 -36.1084
   -36.1073 -36.0871 -35.8414 -35.8412 -35.8105 -35.8102 -35.7787 -35.7785
     2.9358   3.3050   3.8841   4.4726   4.6664   4.7006   4.9940   5.0074
     6.7874   6.8543   7.0536   7.0778   7.0960   7.1815   7.3703   7.4317
     7.5154   7.5155   7.5314   7.6027   7.6371   7.6429   7.7296   7.7729
     7.8189   7.8381   7.8859   8.1163   8.1249   8.2004   8.8007   8.9728
     8.9839   9.1475   9.2430   9.3564   9.4293   9.5371   9.6052   9.7222
     9.8466  10.1832  10.2402  10.5850  10.7359  10.7969  11.5309  12.3295

          k = 0.0556 0.2245 0.0000 (  4420 PWs)   bands (ev):

   -36.6576 -36.6319 -36.5388 -36.4522 -36.3952 -36.3574 -36.3164 -36.3068
   -36.2795 -36.2462 -36.2419 -36.2382 -36.1975 -36.1881 -36.1720 -36.1475
   -36.1256 -36.1115 -35.9368 -35.9364 -35.8298 -35.8296 -35.8116 -35.8115
     3.8552   4.1567   4.6379   5.1332   5.2311   5.3841   5.6307   5.7331
     6.1238   6.3618   6.4975   6.5311   6.6588   6.7724   6.8251   7.2319
     7.4200   7.4988   7.5996   7.6892   7.7587   7.7989   7.8670   7.9390
     8.0918   8.2265   8.2943   8.3457   8.5065   8.5992   8.6867   8.6947
     8.7963   8.9258   9.0588   9.1752   9.3987   9.5759   9.7319   9.8168
    10.0940  10.3083  10.5579  10.7567  10.9508  11.8913  12.9956  14.0597

          k = 0.0556 0.3528 0.0000 (  4467 PWs)   bands (ev):

   -36.6223 -36.6055 -36.5900 -36.5742 -36.5255 -36.5174 -36.4664 -36.4304
   -36.3604 -36.2982 -36.2940 -36.2860 -36.2467 -36.2335 -36.2140 -36.1899
   -36.1575 -36.1438 -36.0899 -36.0893 -35.8556 -35.8554 -35.8208 -35.8206
     4.6540   4.8771   4.9606   5.0076   5.1497   5.2786   5.4333   5.5029
     5.7796   5.8821   6.0287   6.3246   6.7284   6.8668   7.1784   7.2076
     7.5045   7.5198   7.6104   7.6645   7.7829   7.9459   8.1440   8.3589
     8.4722   8.6124   8.7656   8.8432   9.0786   9.2963   9.4197   9.4738
     9.6163   9.7535   9.8323  10.0082  10.1204  10.1530  10.3448  10.3985
    10.4478  10.6423  10.7830  10.8533  11.8460  13.1229  14.4756  15.7844

          k = 0.0556 0.4811 0.0000 (  4463 PWs)   bands (ev):

   -36.7123 -36.7033 -36.6745 -36.6601 -36.6314 -36.6027 -36.4756 -36.4527
   -36.3673 -36.3364 -36.3324 -36.3086 -36.2860 -36.2745 -36.2431 -36.2236
   -36.1956 -36.1911 -36.1792 -36.1694 -35.8885 -35.8883 -35.8143 -35.8139
     4.4773   4.5878   4.6694   4.7982   4.8462   4.9758   5.0350   5.1781
     5.4438   5.4998   5.6075   6.0857   6.5559   6.9184   7.1574   7.3231
     7.4154   7.6115   7.7125   7.9368   8.1947   8.2699   8.6991   8.8427
     9.0068   9.4088   9.6248   9.8668   9.9962  10.1269  10.3658  10.4345
    10.5014  10.5557  10.6053  10.6408  10.7453  10.8159  10.9564  11.0868
    11.4787  11.9523  12.3293  12.4583  13.1185  14.2663  15.5284  16.7084

          k = 0.0556-0.5453 0.0000 (  4486 PWs)   bands (ev):

   -36.7405 -36.7317 -36.6940 -36.6890 -36.6511 -36.6347 -36.4623 -36.4522
   -36.3585 -36.3447 -36.3383 -36.3181 -36.2954 -36.2885 -36.2503 -36.2347
   -36.2121 -36.2101 -36.1840 -36.1805 -35.8961 -35.8959 -35.8130 -35.8126
     4.3580   4.5356   4.5772   4.6954   4.7917   4.9079   4.9258   5.1192
     5.3539   5.4053   5.5283   6.0212   6.5406   6.8542   7.0809   7.2622
     7.3632   7.6266   7.7750   8.0535   8.1656   8.4648   8.8061   8.9071
     9.2761   9.5291   9.7763  10.1151  10.2760  10.3791  10.4759  10.6433
    10.7339  10.7706  10.8240  10.8535  10.9192  10.9826  11.1215  11.1909
    12.0915  12.7794  13.4803  13.8078  13.8874  14.3294  14.9798  15.4523

          k = 0.0556-0.4170 0.0000 (  4465 PWs)   bands (ev):

   -36.6619 -36.6523 -36.6408 -36.6183 -36.5886 -36.5476 -36.5000 -36.4511
   -36.3689 -36.3201 -36.3167 -36.2991 -36.2692 -36.2548 -36.2303 -36.2084
   -36.1732 -36.1642 -36.1491 -36.1452 -35.8746 -35.8745 -35.8170 -35.8166
     4.6581   4.6952   4.8315   4.9232   4.9975   5.0876   5.2273   5.2861
     5.5828   5.6800   5.7706   6.1987   6.6164   6.9706   7.2715   7.3691
     7.5084   7.5214   7.6588   7.7862   7.9374   8.2408   8.3421   8.5186
     8.8300   9.0680   9.2721   9.3795   9.5202   9.7539   9.9373  10.0104
    10.0742  10.2141  10.2584  10.3713  10.4384  10.5865  10.7032  10.8539
    10.9302  11.0963  11.1817  11.4232  12.4293  13.7521  15.1585  16.5464

          k = 0.0556-0.2887 0.0000 (  4439 PWs)   bands (ev):

   -36.6280 -36.6123 -36.5495 -36.5095 -36.4741 -36.4379 -36.3836 -36.3799
   -36.3329 -36.2744 -36.2673 -36.2657 -36.2209 -36.2116 -36.1942 -36.1688
   -36.1407 -36.1265 -36.0154 -36.0151 -35.8336 -35.8334 -35.8249 -35.8246
     4.3781   4.6020   4.9201   5.1729   5.2771   5.4960   5.6920   5.7729
     6.0097   6.0648   6.2597   6.4252   6.5666   6.7029   6.9635   7.0192
     7.3534   7.5710   7.6469   7.7312   7.7426   7.8693   7.9408   8.0597
     8.1497   8.2726   8.5068   8.6556   8.6929   8.8103   8.9772   9.0217
     9.1760   9.2726   9.4138   9.5419   9.6194   9.8497   9.9568  10.0289
    10.1390  10.4856  10.5994  10.7982  11.3639  12.4987  13.7422  14.9366

          k = 0.0556-0.1604 0.0000 (  4443 PWs)   bands (ev):

   -36.6876 -36.6525 -36.5413 -36.4205 -36.3264 -36.2884 -36.2614 -36.2458
   -36.2290 -36.2165 -36.2098 -36.2036 -36.1719 -36.1640 -36.1505 -36.1263
   -36.1148 -36.0986 -35.8675 -35.8674 -35.8337 -35.8336 -35.7927 -35.7927
     3.3313   3.6804   4.2345   4.8087   4.9639   5.0192   5.3053   5.3387
     6.4866   6.6436   6.7516   6.8146   6.9010   6.9639   7.1291   7.2864
     7.5181   7.5294   7.6724   7.6990   7.7759   7.7895   7.8148   7.8501
     7.9062   7.9397   8.0894   8.1337   8.2494   8.3896   8.4328   8.8012
     8.8753   8.9592   9.0485   9.0880   9.3778   9.4771   9.5940   9.7227
    10.0550  10.1405  10.5582  10.5807  10.7392  11.3093  12.2465  13.1738

          k = 0.0556-0.0321 0.0000 (  4465 PWs)   bands (ev):

   -36.7214 -36.6777 -36.5506 -36.4027 -36.2643 -36.2091 -36.2056 -36.1985
   -36.1976 -36.1629 -36.1524 -36.1442 -36.1340 -36.1314 -36.1084 -36.1067
   -36.0915 -36.0800 -35.8434 -35.8429 -35.7826 -35.7823 -35.7714 -35.7711
     2.7264   3.1027   3.6891   4.2806   4.4954   4.5236   4.8139   4.8206
     6.9660   7.0218   7.2018   7.2207   7.2520   7.3087   7.3580   7.4092
     7.4281   7.4547   7.4613   7.5250   7.5606   7.6284   7.6596   7.6955
     7.7437   7.8626   7.9410   7.9755   7.9958   8.4678   9.1004   9.1029
     9.2400   9.2717   9.3265   9.3971   9.4136   9.5683   9.6700   9.9026
     9.9743  10.1196  10.3229  10.3263  10.6372  10.7939  10.9553  11.6759

          k = 0.1667 0.2887 0.0000 (  4425 PWs)   bands (ev):

   -36.6053 -36.6037 -36.5591 -36.5318 -36.5048 -36.4760 -36.4291 -36.4074
   -36.3586 -36.3014 -36.2960 -36.2787 -36.2433 -36.2257 -36.2097 -36.1983
   -36.1894 -36.1315 -36.0468 -36.0467 -35.8664 -35.8664 -35.8211 -35.8210
     4.8596   4.9653   5.1768   5.4552   5.7486   5.8181   5.8287   5.9253
     5.9704   6.0343   6.1168   6.2249   6.3828   6.4784   6.9085   6.9828
     6.9927   7.1607   7.3437   7.4173   7.4510   7.5097   7.5928   8.1395
     8.1564   8.3705   8.3837   8.5693   8.7818   9.0082   9.1994   9.2266
     9.4413   9.6152   9.8387  10.0505  10.0815  10.2133  10.3935  10.4563
    10.4871  10.5598  10.6459  10.9015  11.9005  13.0554  14.3091  15.5486

          k = 0.1667 0.4170 0.0000 (  4459 PWs)   bands (ev):

   -36.6458 -36.6397 -36.6179 -36.6085 -36.5716 -36.5524 -36.5055 -36.4555
   -36.3790 -36.3697 -36.3656 -36.3095 -36.3021 -36.2818 -36.2713 -36.2381
   -36.2239 -36.1638 -36.1414 -36.1405 -35.9287 -35.9283 -35.8140 -35.8136
     5.0289   5.0901   5.1990   5.3192   5.4187   5.4369   5.6415   5.6896
     5.7837   5.9207   6.2100   6.3396   6.4432   6.7117   6.8668   7.0343
     7.1035   7.2416   7.4477   7.5949   7.8151   7.9637   8.0057   8.2114
     8.3136   8.4435   8.6662   8.9714   9.1560   9.2203   9.3395   9.5632
     9.6972   9.8871  10.2551  10.6579  10.7490  10.8342  10.8975  11.0627
    12.0939  12.2319  12.3634  12.7515  13.5597  14.6854  15.9547  17.2509

          k = 0.1667 0.5453 0.0000 (  4490 PWs)   bands (ev):

   -36.7032 -36.6947 -36.6562 -36.6524 -36.6170 -36.6036 -36.4638 -36.4540
   -36.4113 -36.4111 -36.3844 -36.3535 -36.3292 -36.3036 -36.2827 -36.2717
   -36.2278 -36.1932 -36.1863 -36.1850 -35.9624 -35.9621 -35.8102 -35.8097
     4.7198   4.9644   5.0068   5.1519   5.2484   5.3094   5.3683   5.6450
     5.6754   5.7961   6.0785   6.2197   6.3424   6.5555   6.7426   7.1544
     7.2521   7.5108   7.6724   7.8268   7.9585   8.0798   8.3286   8.4519
     8.7033   8.9662   9.1573   9.2813   9.3958   9.7712   9.9791  10.1028
    10.2163  10.3132  10.4737  10.5936  10.6874  10.7974  10.9626  11.0663
    13.9366  14.2971  14.6818  15.0191  15.4155  15.8851  16.2587  16.4558

          k = 0.1667-0.4811 0.0000 (  4476 PWs)   bands (ev):

   -36.6827 -36.6745 -36.6416 -36.6378 -36.6002 -36.5865 -36.4816 -36.4552
   -36.3962 -36.3956 -36.3808 -36.3352 -36.3201 -36.2974 -36.2841 -36.2564
   -36.2276 -36.1817 -36.1711 -36.1694 -35.9506 -35.9504 -35.8114 -35.8111
     4.8296   5.0362   5.0448   5.2486   5.2803   5.3410   5.4732   5.6737
     5.7458   5.8107   6.1375   6.2580   6.3765   6.6570   6.8452   7.0104
     7.2159   7.4785   7.6738   7.7252   7.8976   8.0516   8.1317   8.3780
     8.5887   8.8556   8.9038   9.0265   9.3097   9.6326   9.7431   9.8047
     9.8727  10.0245  10.3455  10.7035  10.7740  10.8802  11.0101  11.1588
    13.0551  13.2845  13.5295  13.9241  14.6085  15.5596  16.6271  17.6101

          k = 0.1667-0.3528 0.0000 (  4458 PWs)   bands (ev):

   -36.6113 -36.6041 -36.5864 -36.5740 -36.5334 -36.5318 -36.4924 -36.4423
   -36.3731 -36.3356 -36.3319 -36.2925 -36.2743 -36.2570 -36.2387 -36.2195
   -36.2144 -36.1465 -36.0990 -36.0987 -35.8992 -35.8990 -35.8177 -35.8174
     5.1186   5.2133   5.2910   5.3761   5.5168   5.6257   5.6745   5.7895
     5.8914   6.1121   6.1850   6.3649   6.4027   6.6714   6.7353   6.9151
     7.0827   7.2811   7.3107   7.3567   7.5690   7.7286   7.8099   8.0572
     8.0820   8.3215   8.6110   8.7446   8.8162   9.1492   9.2321   9.3843
     9.6028   9.7808  10.1187  10.3860  10.5339  10.6171  10.6340  10.8369
    11.2019  11.2688  11.3482  11.6827  12.6113  13.8020  15.0961  16.3905

          k = 0.1667-0.2245 0.0000 (  4433 PWs)   bands (ev):

   -36.6319 -36.6161 -36.5441 -36.4881 -36.4497 -36.4140 -36.3630 -36.3603
   -36.3275 -36.2748 -36.2645 -36.2590 -36.2169 -36.2010 -36.1936 -36.1719
   -36.1523 -36.1209 -35.9906 -35.9906 -35.8363 -35.8363 -35.8254 -35.8253
     4.3297   4.5665   4.9524   5.3879   5.5165   5.6545   5.8380   5.9142
     6.0229   6.1801   6.2657   6.3056   6.4712   6.6360   6.7124   6.9843
     7.2255   7.2915   7.4046   7.5091   7.6041   7.7181   7.7669   7.9789
     8.1196   8.3444   8.4795   8.5310   8.6873   8.8072   8.8863   8.9541
     9.1295   9.2613   9.4400   9.5630   9.5825   9.9233   9.9482   9.9851
    10.0886  10.4149  10.5419  10.6277  11.3826  12.4311  13.6089  14.7635

          k = 0.1667-0.0962 0.0000 (  4427 PWs)   bands (ev):

   -36.6779 -36.6454 -36.5395 -36.4300 -36.3515 -36.3139 -36.2827 -36.2639
   -36.2352 -36.2293 -36.2280 -36.2163 -36.1833 -36.1715 -36.1604 -36.1317
   -36.1184 -36.0998 -35.8930 -35.8928 -35.8326 -35.8324 -35.7974 -35.7972
     3.5107   3.8454   4.3765   4.9205   5.0404   5.1545   5.4222   5.4843
     6.3077   6.5717   6.6462   6.7139   6.8515   6.9040   6.9717   7.3768
     7.5428   7.5576   7.6726   7.7059   7.7849   7.8755   7.8803   7.9404
     8.0183   8.0286   8.1217   8.1569   8.2324   8.4137   8.5271   8.6287
     8.8126   8.8507   9.0277   9.1459   9.3169   9.4277   9.6643   9.7960
     9.9459  10.3516  10.5374  10.6757  10.8467  11.4630  12.5107  13.4975

          k = 0.2778 0.4811 0.0000 (  4485 PWs)   bands (ev):

   -36.6462 -36.6408 -36.6222 -36.6037 -36.5809 -36.5484 -36.5258 -36.4979
   -36.4489 -36.4404 -36.4215 -36.3800 -36.3620 -36.3502 -36.2888 -36.2687
   -36.2427 -36.1983 -36.1499 -36.1498 -36.0214 -36.0213 -35.8087 -35.8087
     5.2536   5.2693   5.4142   5.4437   5.6055   5.8134   5.9393   6.0267
     6.0718   6.1541   6.2197   6.2873   6.2995   6.5892   6.6535   6.9339
     6.9774   7.2759   7.2809   7.6012   7.6926   7.9421   7.9787   8.1677
     8.1954   8.6599   8.7516   8.8444   9.0549   9.1954   9.3717   9.3953
     9.7305  10.0180  10.3748  10.6515  10.7646  10.7739  10.8742  11.0533
    14.4122  14.5792  14.9286  15.4602  16.1905  17.1061  18.0993  18.7751

          k = 0.2778 0.6094 0.0000 (  4491 PWs)   bands (ev):

   -36.6390 -36.6306 -36.6075 -36.5929 -36.5733 -36.5613 -36.5325 -36.5098
   -36.4805 -36.4659 -36.4468 -36.4124 -36.3708 -36.3610 -36.2825 -36.2694
   -36.2419 -36.2158 -36.1420 -36.1418 -36.0533 -36.0533 -35.8074 -35.8072
     5.2215   5.4281   5.4826   5.6187   5.7036   5.7833   5.9249   5.9863
     6.0273   6.0918   6.2132   6.2779   6.3573   6.5654   6.6140   6.9718
     7.1032   7.2945   7.3722   7.5202   7.6691   7.8807   7.9317   8.2283
     8.2425   8.6298   8.7767   8.9641   9.0842   9.2148   9.3885   9.4497
    10.0403  10.2014  10.3921  10.4907  10.5836  10.6526  10.6940  10.8305
    15.6172  15.8435  16.2179  16.6367  16.9838  17.3597  17.7898  18.2682

          k = 0.2778-0.4170 0.0000 (  4462 PWs)   bands (ev):

   -36.6513 -36.6466 -36.6203 -36.6142 -36.5761 -36.5651 -36.5067 -36.4691
   -36.4103 -36.4057 -36.3993 -36.3417 -36.3346 -36.3159 -36.2886 -36.2652
   -36.2351 -36.1790 -36.1510 -36.1508 -35.9760 -35.9759 -35.8107 -35.8105
     5.1089   5.2458   5.2855   5.4444   5.4846   5.6586   5.7300   5.9014
     5.9440   6.1130   6.2597   6.3721   6.4995   6.5490   6.7472   6.8287
     6.9705   7.2228   7.3836   7.5348   7.8001   7.9605   8.0271   8.1889
     8.2353   8.4292   8.6626   8.9109   9.0747   9.2378   9.3430   9.5173
     9.5884   9.8505  10.3278  10.7218  10.8444  10.9042  10.9825  11.1592
    13.2429  13.3502  13.6009  14.0717  14.8299  15.8496  17.0114  18.1951

          k = 0.2778-0.2887 0.0000 (  4463 PWs)   bands (ev):

   -36.6305 -36.6215 -36.6115 -36.5942 -36.5551 -36.5282 -36.5029 -36.4467
   -36.3690 -36.3297 -36.3257 -36.2931 -36.2724 -36.2578 -36.2286 -36.2224
   -36.1884 -36.1525 -36.1206 -36.1197 -35.8867 -35.8866 -35.8172 -35.8171
     4.8693   4.9937   5.0882   5.1331   5.2719   5.3031   5.4742   5.5148
     5.7625   5.8648   6.1014   6.2660   6.5480   6.8201   7.0200   7.1963
     7.3145   7.3831   7.5122   7.6822   7.7608   7.9137   8.0676   8.3528
     8.4062   8.5549   8.7078   8.9378   9.1685   9.2917   9.3778   9.5281
     9.7606  10.0493  10.1652  10.3138  10.5011  10.6156  10.6553  10.8601
    11.0489  11.2373  11.2711  11.5856  12.5316  13.7675  15.1088  16.4421

          k = 0.2778-0.1604 0.0000 (  4458 PWs)   bands (ev):

   -36.6234 -36.6060 -36.5637 -36.5423 -36.5053 -36.4768 -36.4219 -36.4053
   -36.3473 -36.2806 -36.2768 -36.2750 -36.2301 -36.2216 -36.2013 -36.1685
   -36.1451 -36.1332 -36.0522 -36.0520 -35.8381 -35.8380 -35.8234 -35.8232
     4.4852   4.7010   4.9186   5.0064   5.1493   5.3754   5.5023   5.6142
     5.8574   5.9346   6.1100   6.4113   6.7552   6.8729   7.1274   7.2332
     7.4667   7.5607   7.6772   7.7084   7.8758   7.9093   8.1684   8.2762
     8.3813   8.5059   8.6601   8.6702   8.8772   9.0839   9.1935   9.2917
     9.3130   9.3974   9.5591   9.5999   9.7131   9.8397   9.9690  10.0951
    10.3591  10.3830  10.7193  10.9149  11.4576  12.7108  14.0270  15.2805

          k = 0.3889 0.6736 0.0000 (  4511 PWs)   bands (ev):

   -36.6752 -36.6658 -36.6296 -36.6225 -36.5933 -36.5831 -36.4895 -36.4800
   -36.4538 -36.4329 -36.4272 -36.3844 -36.3619 -36.3328 -36.2820 -36.2812
   -36.2359 -36.2053 -36.1676 -36.1674 -36.0117 -36.0116 -35.8085 -35.8082
     4.9456   5.1841   5.3288   5.4930   5.5279   5.5702   5.6717   5.8033
     5.9779   5.9820   6.1454   6.4139   6.4185   6.4901   6.5006   6.9284
     7.0687   7.4148   7.5618   7.7191   7.8803   7.9121   8.2056   8.2948
     8.5221   8.6696   8.7262   8.9219   9.2441   9.4942   9.6691   9.7844
    10.2320  10.2368  10.4061  10.4672  10.5916  10.7212  10.8544  10.8759
    15.1411  15.3909  15.6677  15.9285  16.2117  16.5593  16.9122  17.2014

          k = 0.3889-0.3528 0.0000 (  4485 PWs)   bands (ev):

   -36.7164 -36.7077 -36.6724 -36.6654 -36.6307 -36.6124 -36.4662 -36.4501
   -36.3798 -36.3691 -36.3553 -36.3161 -36.3076 -36.2981 -36.2572 -36.2508
   -36.2107 -36.1963 -36.1906 -36.1783 -35.9194 -35.9193 -35.8124 -35.8118
     4.5588   4.7447   4.7825   4.8988   5.0022   5.0816   5.1495   5.3577
     5.5052   5.6134   5.7764   6.0982   6.4579   6.7638   6.9834   7.3246
     7.3767   7.5444   7.6721   7.8103   8.1326   8.2187   8.5322   8.7579
     8.8615   9.2547   9.4754   9.5854   9.7662   9.9671  10.2342  10.3111
    10.3323  10.4005  10.4568  10.7187  10.7586  10.8601  11.0201  11.1635
    12.6674  13.0916  13.4877  13.7361  14.2099  15.0029  15.8747  16.5502

          k = 0.3889-0.2245 0.0000 (  4444 PWs)   bands (ev):

   -36.6925 -36.6826 -36.6626 -36.6417 -36.6169 -36.5785 -36.4872 -36.4531
   -36.3680 -36.3177 -36.3151 -36.3096 -36.2698 -36.2597 -36.2366 -36.2009
   -36.1888 -36.1741 -36.1635 -36.1633 -35.8735 -35.8733 -35.8157 -35.8154
     4.5132   4.5592   4.6791   4.8133   4.8453   4.9614   5.0799   5.1562
     5.4537   5.5452   5.5998   6.1321   6.6256   6.9957   7.2573   7.3331
     7.4596   7.6639   7.6945   7.9326   8.1405   8.2452   8.7290   8.7357
     8.9917   9.3374   9.6912   9.8683   9.8970  10.2453  10.2652  10.3559
    10.4212  10.4934  10.5172  10.5459  10.6601  10.7014  10.8133  10.9175
    11.0270  11.0365  11.3591  11.4781  12.5064  13.8689  15.2862  16.6751

          k =-0.5000-0.8660 0.0000 (  4492 PWs)   bands (ev):

   -36.7484 -36.7411 -36.7004 -36.7000 -36.6577 -36.6432 -36.4621 -36.4539
   -36.3459 -36.3349 -36.3313 -36.3277 -36.2882 -36.2856 -36.2503 -36.2270
   -36.2150 -36.2140 -36.1842 -36.1753 -35.8876 -35.8876 -35.8133 -35.8133
     4.2830   4.4629   4.5016   4.6302   4.7151   4.8369   4.8613   5.0336
     5.2992   5.3242   5.4490   5.9948   6.5601   6.8947   7.1071   7.2112
     7.3516   7.5982   7.9583   8.0696   8.2139   8.6137   8.7066   9.1225
     9.3724   9.5417  10.0384  10.1070  10.5034  10.5100  10.7359  10.8360
    10.8483  10.8990  10.9413  10.9646  11.0346  11.1461  11.3093  11.3147
    11.6065  12.5727  13.4658  13.7647  14.1464  14.2390  14.5096  14.5408

     the Fermi energy is    10.2824 ev

!    total energy              =   -1369.42559252 Ry
     estimated scf accuracy    <       0.00000008 Ry
     smearing contrib. (-TS)   =      -0.03454527 Ry
     internal energy E=F+TS    =   -1369.39104725 Ry

     The total energy is F=E-TS. E is the sum of the following terms:
     one-electron contribution =  -12573.11230625 Ry
     hartree contribution      =    6347.33871981 Ry
     xc contribution           =    -239.29954272 Ry
     ewald contribution        =    5095.68208190 Ry

     total magnetization       =    -0.00 Bohr mag/cell
     absolute magnetization    =     0.00 Bohr mag/cell

     convergence has been achieved in  10 iterations

     negative rho (up, down):  2.298E-01 2.298E-01

     Forces acting on atoms (cartesian axes, Ry/au):

     atom    1 type  1   force =     0.00000000    0.00000000    0.00213903
     atom    2 type  1   force =     0.00000000    0.00000000    0.00127935
     atom    3 type  1   force =     0.00000000    0.00000000   -0.00184186
     atom    4 type  1   force =     0.00000000    0.00000000   -0.00143518
     atom    5 type  1   force =     0.00000000    0.00000000    0.00141785
     atom    6 type  1   force =     0.00000000    0.00000000    0.00184571
     atom    7 type  1   force =     0.00000000    0.00000000   -0.00126547
     atom    8 type  1   force =     0.00000000    0.00000000   -0.00213943

     Total force =     0.004823     Total SCF correction =     0.001067
     SCF correction compared to forces is large: reduce conv_thr to get better values
     Energy error            =      2.6E-04
     Gradient error          =      2.1E-03

     number of scf cycles    =   4
     number of bfgs steps    =   3

     energy   old            =   -1369.4253342525 Ry
     energy   new            =   -1369.4255925226 Ry

     CASE: energy  _new < energy  _old

     new trust radius        =       0.0095324404 bohr
     new conv_thr            =       0.0000002139 Ry


ATOMIC_POSITIONS (angstrom)
Rh            0.0000000000        0.0000000000        0.0289528678
Rh            2.7108568000        1.5651139000        2.2018756997
Rh            1.3554284000        0.7825569000        4.4089743478
Rh            0.0000000000        0.0000000000        6.6389028174
Rh            2.7108568000        1.5651139000        8.8549112426
Rh            1.3554284000        0.7825569000       11.0848548909
Rh            0.0000000000        0.0000000000       13.2919724666
Rh            2.7108568000        1.5651139000       15.4649037673



     Writing output data file /home/STUDENTI/leonardo.razzai/WORK/relax_surf/8-L.save/
     NEW-OLD atomic charge density approx. for the potential

     negative rho (up, down):  2.298E-01 2.298E-01
     Generating pointlists ...

     total cpu time spent up to now is      878.6 secs

     Self-consistent Calculation

     iteration #  1     ecut=    35.00 Ry     beta= 0.40
     Davidson diagonalization with overlap
     ethr =  1.00E-06,  avg # of iterations =  5.9

     negative rho (up, down):  2.298E-01 2.298E-01

     total cpu time spent up to now is      956.2 secs

     total energy              =   -1369.42536007 Ry
     estimated scf accuracy    <       0.00955847 Ry

     total magnetization       =    -0.00 Bohr mag/cell
     absolute magnetization    =     0.00 Bohr mag/cell

     iteration #  2     ecut=    35.00 Ry     beta= 0.40
     Davidson diagonalization with overlap
     ethr =  7.97E-06,  avg # of iterations =  1.0

     negative rho (up, down):  2.298E-01 2.298E-01

     total cpu time spent up to now is      993.7 secs

     total energy              =   -1369.42558498 Ry
     estimated scf accuracy    <       0.00381821 Ry

     total magnetization       =    -0.00 Bohr mag/cell
     absolute magnetization    =     0.00 Bohr mag/cell

     iteration #  3     ecut=    35.00 Ry     beta= 0.40
     Davidson diagonalization with overlap
     ethr =  3.18E-06,  avg # of iterations =  1.0

     negative rho (up, down):  2.298E-01 2.298E-01

     total cpu time spent up to now is     1031.0 secs

     total energy              =   -1369.42563979 Ry
     estimated scf accuracy    <       0.00024837 Ry

     total magnetization       =    -0.00 Bohr mag/cell
     absolute magnetization    =     0.00 Bohr mag/cell

     iteration #  4     ecut=    35.00 Ry     beta= 0.40
     Davidson diagonalization with overlap
     ethr =  2.07E-07,  avg # of iterations =  1.0

     negative rho (up, down):  2.298E-01 2.298E-01

     total cpu time spent up to now is     1067.0 secs

     total energy              =   -1369.42563181 Ry
     estimated scf accuracy    <       0.00012033 Ry

     total magnetization       =    -0.00 Bohr mag/cell
     absolute magnetization    =     0.00 Bohr mag/cell

     iteration #  5     ecut=    35.00 Ry     beta= 0.40
     Davidson diagonalization with overlap
     ethr =  1.00E-07,  avg # of iterations =  1.1

     negative rho (up, down):  2.298E-01 2.298E-01

     total cpu time spent up to now is     1096.0 secs

     total energy              =   -1369.42563569 Ry
     estimated scf accuracy    <       0.00000384 Ry

     total magnetization       =    -0.00 Bohr mag/cell
     absolute magnetization    =     0.00 Bohr mag/cell

     iteration #  6     ecut=    35.00 Ry     beta= 0.40
     Davidson diagonalization with overlap
     ethr =  3.20E-09,  avg # of iterations =  2.7

     negative rho (up, down):  2.298E-01 2.298E-01

     total cpu time spent up to now is     1115.0 secs

     total energy              =   -1369.42563588 Ry
     estimated scf accuracy    <       0.00000216 Ry

     total magnetization       =    -0.00 Bohr mag/cell
     absolute magnetization    =     0.00 Bohr mag/cell

     iteration #  7     ecut=    35.00 Ry     beta= 0.40
     Davidson diagonalization with overlap
     ethr =  1.80E-09,  avg # of iterations =  1.0

     negative rho (up, down):  2.298E-01 2.298E-01

     total cpu time spent up to now is     1131.7 secs

     total energy              =   -1369.42563590 Ry
     estimated scf accuracy    <       0.00000298 Ry

     total magnetization       =    -0.00 Bohr mag/cell
     absolute magnetization    =     0.00 Bohr mag/cell

     iteration #  8     ecut=    35.00 Ry     beta= 0.40
     Davidson diagonalization with overlap
     ethr =  1.80E-09,  avg # of iterations =  1.0

     negative rho (up, down):  2.298E-01 2.298E-01

     total cpu time spent up to now is     1148.4 secs

     total energy              =   -1369.42563612 Ry
     estimated scf accuracy    <       0.00000284 Ry

     total magnetization       =    -0.00 Bohr mag/cell
     absolute magnetization    =     0.00 Bohr mag/cell

     iteration #  9     ecut=    35.00 Ry     beta= 0.40
     Davidson diagonalization with overlap
     ethr =  1.80E-09,  avg # of iterations =  1.4

     negative rho (up, down):  2.298E-01 2.298E-01

     total cpu time spent up to now is     1165.6 secs

     total energy              =   -1369.42563627 Ry
     estimated scf accuracy    <       0.00000025 Ry

     total magnetization       =    -0.00 Bohr mag/cell
     absolute magnetization    =     0.00 Bohr mag/cell

     iteration # 10     ecut=    35.00 Ry     beta= 0.40
     Davidson diagonalization with overlap
     ethr =  2.11E-10,  avg # of iterations =  2.0

     negative rho (up, down):  2.298E-01 2.298E-01
 
     Magnetic moment per site:
     atom:    1    charge:   13.1081    magn:   -0.0000    constr:    0.0000
     atom:    2    charge:   13.1631    magn:   -0.0000    constr:    0.0000
     atom:    3    charge:   13.1584    magn:    0.0000    constr:    0.0000
     atom:    4    charge:   13.1560    magn:    0.0000    constr:    0.0000
     atom:    5    charge:   13.1567    magn:    0.0000    constr:    0.0000
     atom:    6    charge:   13.1575    magn:    0.0000    constr:    0.0000
     atom:    7    charge:   13.1632    magn:   -0.0000    constr:    0.0000
     atom:    8    charge:   13.1078    magn:   -0.0000    constr:    0.0000

     total cpu time spent up to now is     1183.3 secs

     End of self-consistent calculation

 ------ SPIN UP ------------


          k = 0.0556 0.0962 0.0000 (  4451 PWs)   bands (ev):

   -36.7092 -36.6733 -36.5462 -36.4064 -36.2814 -36.2396 -36.2271 -36.2114
   -36.2101 -36.1840 -36.1688 -36.1608 -36.1508 -36.1340 -36.1237 -36.1046
   -36.1035 -36.0824 -35.8444 -35.8443 -35.8125 -35.8123 -35.7809 -35.7807
     2.9388   3.3001   3.8816   4.4713   4.6726   4.6990   4.9869   5.0006
     6.7872   6.8574   7.0524   7.0793   7.0943   7.1782   7.3693   7.4324
     7.5159   7.5163   7.5318   7.5993   7.6352   7.6396   7.7327   7.7741
     7.8184   7.8397   7.8848   8.1104   8.1222   8.2012   8.7995   8.9755
     8.9875   9.1464   9.2419   9.3554   9.4315   9.5382   9.6059   9.7218
     9.8491  10.1828  10.2419  10.5899  10.7375  10.8003  11.5329  12.3376

          k = 0.0556 0.2245 0.0000 (  4420 PWs)   bands (ev):

   -36.6579 -36.6361 -36.5376 -36.4528 -36.3974 -36.3582 -36.3136 -36.3044
   -36.2780 -36.2450 -36.2442 -36.2391 -36.1938 -36.1851 -36.1697 -36.1442
   -36.1214 -36.1071 -35.9388 -35.9385 -35.8329 -35.8327 -35.8137 -35.8136
     3.8583   4.1523   4.6353   5.1317   5.2328   5.3814   5.6239   5.7286
     6.1256   6.3578   6.4990   6.5305   6.6516   6.7705   6.8252   7.2320
     7.4197   7.4970   7.6026   7.6882   7.7605   7.8008   7.8686   7.9322
     8.0935   8.2275   8.2913   8.3407   8.5068   8.5982   8.6883   8.6944
     8.7955   8.9291   9.0579   9.1752   9.3990   9.5776   9.7333   9.8191
    10.0945  10.3105  10.5635  10.7602  10.9546  11.8949  13.0000  14.0679

          k = 0.0556 0.3528 0.0000 (  4467 PWs)   bands (ev):

   -36.6231 -36.6089 -36.5894 -36.5772 -36.5242 -36.5157 -36.4629 -36.4297
   -36.3595 -36.2995 -36.2965 -36.2857 -36.2426 -36.2309 -36.2120 -36.1869
   -36.1531 -36.1394 -36.0915 -36.0909 -35.8576 -35.8575 -35.8242 -35.8240
     4.6568   4.8714   4.9643   5.0055   5.1447   5.2783   5.4301   5.4970
     5.7759   5.8795   6.0264   6.3225   6.7273   6.8654   7.1786   7.2038
     7.5051   7.5203   7.6144   7.6636   7.7841   7.9377   8.1448   8.3548
     8.4711   8.6108   8.7659   8.8412   9.0765   9.2989   9.4222   9.4738
     9.6172   9.7544   9.8353  10.0084  10.1204  10.1540  10.3467  10.4003
    10.4495  10.6481  10.7861  10.8576  11.8505  13.1286  14.4820  15.7903

          k = 0.0556 0.4811 0.0000 (  4463 PWs)   bands (ev):

   -36.7135 -36.7064 -36.6736 -36.6601 -36.6280 -36.5984 -36.4787 -36.4569
   -36.3652 -36.3381 -36.3342 -36.3068 -36.2820 -36.2714 -36.2410 -36.2212
   -36.1958 -36.1917 -36.1757 -36.1657 -35.8906 -35.8903 -35.8179 -35.8175
     4.4796   4.5900   4.6628   4.7976   4.8422   4.9720   5.0299   5.1784
     5.4402   5.4948   5.6037   6.0842   6.5551   6.9174   7.1621   7.3249
     7.4148   7.6086   7.7062   7.9401   8.1900   8.2655   8.6995   8.8417
     9.0068   9.4078   9.6243   9.8671   9.9973  10.1284  10.3694  10.4359
    10.5020  10.5580  10.6078  10.6442  10.7467  10.8176  10.9578  11.0897
    11.4804  11.9520  12.3314  12.4609  13.1217  14.2716  15.5351  16.7110

          k = 0.0556-0.5453 0.0000 (  4486 PWs)   bands (ev):

   -36.7416 -36.7349 -36.6931 -36.6882 -36.6479 -36.6301 -36.4672 -36.4572
   -36.3574 -36.3464 -36.3380 -36.3146 -36.2924 -36.2853 -36.2482 -36.2330
   -36.2131 -36.2100 -36.1799 -36.1764 -35.8981 -35.8980 -35.8168 -35.8163
     4.3603   4.5367   4.5710   4.6961   4.7870   4.9025   4.9216   5.1206
     5.3510   5.3998   5.5236   6.0195   6.5392   6.8539   7.0855   7.2647
     7.3632   7.6160   7.7753   8.0570   8.1610   8.4613   8.8040   8.9069
     9.2775   9.5287   9.7764  10.1162  10.2777  10.3822  10.4798  10.6453
    10.7334  10.7718  10.8272  10.8562  10.9218  10.9834  11.1217  11.1929
    12.0933  12.7786  13.4824  13.8101  13.8908  14.3338  14.9853  15.4549

          k = 0.0556-0.4170 0.0000 (  4465 PWs)   bands (ev):

   -36.6631 -36.6551 -36.6400 -36.6201 -36.5854 -36.5439 -36.5004 -36.4533
   -36.3677 -36.3218 -36.3191 -36.2981 -36.2651 -36.2519 -36.2282 -36.2055
   -36.1691 -36.1613 -36.1505 -36.1448 -35.8767 -35.8766 -35.8206 -35.8202
     4.6605   4.6978   4.8250   4.9185   4.9973   5.0863   5.2218   5.2838
     5.5787   5.6752   5.7684   6.1973   6.6163   6.9693   7.2716   7.3710
     7.5098   7.5215   7.6602   7.7770   7.9346   8.2372   8.3440   8.5177
     8.8279   9.0675   9.2704   9.3779   9.5205   9.7546   9.9403  10.0124
    10.0760  10.2142  10.2617  10.3733  10.4394  10.5883  10.7070  10.8569
    10.9333  11.0970  11.1839  11.4252  12.4333  13.7580  15.1655  16.5508

          k = 0.0556-0.2887 0.0000 (  4439 PWs)   bands (ev):

   -36.6289 -36.6162 -36.5476 -36.5112 -36.4760 -36.4370 -36.3805 -36.3774
   -36.3318 -36.2738 -36.2699 -36.2669 -36.2171 -36.2089 -36.1921 -36.1657
   -36.1363 -36.1221 -36.0172 -36.0170 -35.8357 -35.8356 -35.8281 -35.8278
     4.3812   4.5981   4.9180   5.1736   5.2739   5.4907   5.6925   5.7673
     6.0085   6.0625   6.2594   6.4192   6.5642   6.6979   6.9664   7.0189
     7.3544   7.5729   7.6478   7.7291   7.7446   7.8674   7.9351   8.0588
     8.1510   8.2722   8.5022   8.6568   8.6887   8.8122   8.9758   9.0244
     9.1779   9.2750   9.4140   9.5416   9.6181   9.8510   9.9590  10.0312
    10.1405  10.4886  10.6054  10.8022  11.3681  12.5034  13.7477  14.9439

          k = 0.0556-0.1604 0.0000 (  4443 PWs)   bands (ev):

   -36.6874 -36.6570 -36.5406 -36.4204 -36.3280 -36.2906 -36.2602 -36.2439
   -36.2306 -36.2179 -36.2084 -36.2010 -36.1679 -36.1605 -36.1480 -36.1229
   -36.1107 -36.0939 -35.8698 -35.8696 -35.8365 -35.8364 -35.7948 -35.7948
     3.3343   3.6757   4.2319   4.8070   4.9690   5.0178   5.2978   5.3321
     6.4869   6.6467   6.7454   6.8167   6.9006   6.9613   7.1255   7.2846
     7.5181   7.5312   7.6735   7.6992   7.7764   7.7907   7.8115   7.8507
     7.9021   7.9401   8.0896   8.1352   8.2503   8.3857   8.4288   8.8030
     8.8778   8.9588   9.0498   9.0876   9.3788   9.4782   9.5944   9.7238
    10.0567  10.1409  10.5630  10.5828  10.7432  11.3118  12.2496  13.1823

          k = 0.0556-0.0321 0.0000 (  4465 PWs)   bands (ev):

   -36.7209 -36.6823 -36.5503 -36.4023 -36.2636 -36.2118 -36.2079 -36.2012
   -36.2004 -36.1590 -36.1482 -36.1420 -36.1318 -36.1279 -36.1053 -36.1031
   -36.0868 -36.0752 -35.8463 -35.8459 -35.7848 -35.7844 -35.7735 -35.7733
     2.7294   3.0977   3.6866   4.2795   4.5015   4.5224   4.8069   4.8137
     6.9672   7.0242   7.2023   7.2213   7.2527   7.3061   7.3591   7.4066
     7.4261   7.4539   7.4666   7.5196   7.5589   7.6295   7.6616   7.6981
     7.7475   7.8576   7.9385   7.9694   7.9907   8.4701   9.1032   9.1059
     9.2378   9.2702   9.3267   9.3984   9.4141   9.5677   9.6699   9.9009
     9.9753  10.1234  10.3236  10.3285  10.6422  10.7972  10.9562  11.6833

          k = 0.1667 0.2887 0.0000 (  4425 PWs)   bands (ev):

   -36.6075 -36.6067 -36.5567 -36.5341 -36.5064 -36.4749 -36.4255 -36.4049
   -36.3574 -36.3028 -36.2987 -36.2788 -36.2397 -36.2236 -36.2073 -36.1950
   -36.1840 -36.1272 -36.0486 -36.0485 -35.8685 -35.8684 -35.8245 -35.8244
     4.8632   4.9630   5.1746   5.4515   5.7430   5.8164   5.8319   5.9215
     5.9618   6.0379   6.1100   6.2186   6.3798   6.4819   6.9070   6.9810
     6.9929   7.1593   7.3438   7.4104   7.4438   7.5103   7.6001   8.1419
     8.1582   8.3674   8.3844   8.5713   8.7819   9.0080   9.2025   9.2252
     9.4390   9.6145   9.8422  10.0530  10.0828  10.2136  10.3955  10.4606
    10.4890  10.5611  10.6488  10.9041  11.9049  13.0609  14.3152  15.5549

          k = 0.1667 0.4170 0.0000 (  4459 PWs)   bands (ev):

   -36.6473 -36.6425 -36.6176 -36.6092 -36.5691 -36.5482 -36.5059 -36.4573
   -36.3779 -36.3726 -36.3678 -36.3075 -36.2992 -36.2797 -36.2672 -36.2353
   -36.2200 -36.1595 -36.1429 -36.1417 -35.9307 -35.9303 -35.8176 -35.8172
     5.0315   5.0929   5.1943   5.3133   5.4130   5.4361   5.6359   5.6865
     5.7808   5.9193   6.2082   6.3385   6.4385   6.7079   6.8631   7.0303
     7.1080   7.2386   7.4485   7.5930   7.8153   7.9660   8.0036   8.2105
     8.3128   8.4419   8.6654   8.9731   9.1572   9.2229   9.3409   9.5665
     9.6991   9.8901  10.2594  10.6608  10.7519  10.8354  10.9004  11.0651
    12.0963  12.2333  12.3637  12.7525  13.5628  14.6907  15.9611  17.2550

          k = 0.1667 0.5453 0.0000 (  4490 PWs)   bands (ev):

   -36.7044 -36.6978 -36.6560 -36.6516 -36.6138 -36.5988 -36.4673 -36.4582
   -36.4139 -36.4137 -36.3800 -36.3507 -36.3273 -36.3009 -36.2796 -36.2688
   -36.2239 -36.1902 -36.1876 -36.1846 -35.9644 -35.9641 -35.8139 -35.8134
     4.7224   4.9563   5.0096   5.1532   5.2428   5.3027   5.3636   5.6433
     5.6725   5.7933   6.0752   6.2167   6.3376   6.5518   6.7478   7.1506
     7.2493   7.5095   7.6754   7.8243   7.9556   8.0806   8.3321   8.4499
     8.7033   8.9658   9.1555   9.2812   9.3965   9.7740   9.9821  10.1057
    10.2188  10.3165  10.4777  10.5971  10.6900  10.8005  10.9657  11.0690
    13.9389  14.2974  14.6830  15.0207  15.4173  15.8884  16.2633  16.4584

          k = 0.1667-0.4811 0.0000 (  4476 PWs)   bands (ev):

   -36.6840 -36.6776 -36.6414 -36.6373 -36.5972 -36.5820 -36.4836 -36.4587
   -36.3992 -36.3983 -36.3779 -36.3322 -36.3178 -36.2948 -36.2810 -36.2535
   -36.2236 -36.1784 -36.1726 -36.1693 -35.9525 -35.9524 -35.8151 -35.8148
     4.8322   5.0348   5.0424   5.2472   5.2756   5.3357   5.4677   5.6715
     5.7422   5.8091   6.1351   6.2557   6.3718   6.6522   6.8516   7.0048
     7.2143   7.4767   7.6711   7.7263   7.8968   8.0544   8.1310   8.3773
     8.5880   8.8549   8.9020   9.0267   9.3105   9.6348   9.7460   9.8076
     9.8758  10.0283  10.3498  10.7071  10.7765  10.8824  11.0130  11.1613
    13.0575  13.2849  13.5304  13.9255  14.6111  15.5641  16.6326  17.6126

          k = 0.1667-0.3528 0.0000 (  4458 PWs)   bands (ev):

   -36.6128 -36.6070 -36.5859 -36.5767 -36.5322 -36.5301 -36.4889 -36.4415
   -36.3719 -36.3382 -36.3348 -36.2916 -36.2710 -36.2550 -36.2341 -36.2174
   -36.2096 -36.1421 -36.1007 -36.1003 -35.9012 -35.9010 -35.8212 -35.8209
     5.1213   5.2153   5.2888   5.3707   5.5154   5.6184   5.6724   5.7880
     5.8856   6.1122   6.1801   6.3601   6.3999   6.6719   6.7329   6.9146
     7.0789   7.2792   7.3086   7.3594   7.5683   7.7255   7.8090   8.0589
     8.0836   8.3192   8.6133   8.7434   8.8201   9.1511   9.2306   9.3882
     9.6019   9.7822  10.1228  10.3880  10.5361  10.6192  10.6369  10.8394
    11.2043  11.2714  11.3478  11.6836  12.6152  13.8077  15.1027  16.3956

          k = 0.1667-0.2245 0.0000 (  4433 PWs)   bands (ev):

   -36.6328 -36.6200 -36.5423 -36.4894 -36.4520 -36.4139 -36.3599 -36.3574
   -36.3263 -36.2737 -36.2668 -36.2608 -36.2132 -36.1985 -36.1916 -36.1683
   -36.1475 -36.1167 -35.9926 -35.9925 -35.8385 -35.8384 -35.8285 -35.8284
     4.3329   4.5626   4.9499   5.3860   5.5175   5.6492   5.8343   5.9096
     6.0222   6.1788   6.2619   6.3053   6.4653   6.6386   6.7104   6.9826
     7.2254   7.2893   7.4041   7.5095   7.6016   7.7139   7.7719   7.9798
     8.1229   8.3409   8.4783   8.5301   8.6888   8.8069   8.8843   8.9547
     9.1305   9.2639   9.4390   9.5620   9.5814   9.9258   9.9502   9.9873
    10.0903  10.4193  10.5460  10.6310  11.3869  12.4358  13.6142  14.7708

          k = 0.1667-0.0962 0.0000 (  4427 PWs)   bands (ev):

   -36.6778 -36.6498 -36.5387 -36.4301 -36.3535 -36.3156 -36.2804 -36.2614
   -36.2334 -36.2318 -36.2308 -36.2134 -36.1792 -36.1677 -36.1582 -36.1288
   -36.1142 -36.0953 -35.8951 -35.8949 -35.8356 -35.8354 -35.7995 -35.7994
     3.5138   3.8407   4.3739   4.9188   5.0437   5.1532   5.4148   5.4790
     6.3093   6.5675   6.6467   6.7162   6.8440   6.9058   6.9675   7.3764
     7.5443   7.5579   7.6748   7.7075   7.7872   7.8708   7.8776   7.9421
     8.0197   8.0240   8.1239   8.1548   8.2321   8.4114   8.5235   8.6298
     8.8119   8.8523   9.0308   9.1451   9.3189   9.4283   9.6659   9.7973
     9.9457  10.3533  10.5401  10.6817  10.8502  11.4655  12.5142  13.5060

          k = 0.2778 0.4811 0.0000 (  4485 PWs)   bands (ev):

   -36.6484 -36.6441 -36.6203 -36.6043 -36.5760 -36.5473 -36.5262 -36.4990
   -36.4489 -36.4421 -36.4219 -36.3765 -36.3616 -36.3490 -36.2858 -36.2660
   -36.2384 -36.1931 -36.1516 -36.1515 -36.0232 -36.0231 -35.8124 -35.8124
     5.2544   5.2728   5.4045   5.4448   5.5986   5.8048   5.9364   6.0288
     6.0762   6.1449   6.2141   6.2826   6.2933   6.5855   6.6546   6.9323
     6.9751   7.2755   7.2793   7.6021   7.6952   7.9403   7.9773   8.1643
     8.1926   8.6611   8.7543   8.8480   9.0574   9.1978   9.3755   9.3999
     9.7338  10.0212  10.3788  10.6551  10.7669  10.7766  10.8784  11.0557
    14.4150  14.5795  14.9294  15.4619  16.1930  17.1098  18.1036  18.7780

          k = 0.2778 0.6094 0.0000 (  4491 PWs)   bands (ev):

   -36.6404 -36.6338 -36.6069 -36.5937 -36.5693 -36.5601 -36.5347 -36.5099
   -36.4782 -36.4655 -36.4449 -36.4101 -36.3723 -36.3613 -36.2804 -36.2667
   -36.2369 -36.2102 -36.1437 -36.1435 -36.0551 -36.0550 -35.8111 -35.8110
     5.2239   5.4199   5.4851   5.6153   5.7012   5.7799   5.9192   5.9882
     6.0213   6.0790   6.2067   6.2818   6.3570   6.5610   6.6098   6.9705
     7.1010   7.2932   7.3719   7.5232   7.6692   7.8785   7.9306   8.2252
     8.2398   8.6308   8.7801   8.9678   9.0860   9.2171   9.3943   9.4549
    10.0432  10.2043  10.3962  10.4943  10.5862  10.6565  10.6969  10.8330
    15.6199  15.8439  16.2191  16.6385  16.9852  17.3612  17.7934  18.2700

          k = 0.2778-0.4170 0.0000 (  4462 PWs)   bands (ev):

   -36.6533 -36.6497 -36.6194 -36.6143 -36.5717 -36.5628 -36.5073 -36.4709
   -36.4132 -36.4084 -36.3977 -36.3394 -36.3322 -36.3136 -36.2848 -36.2620
   -36.2316 -36.1742 -36.1526 -36.1524 -35.9779 -35.9778 -35.8144 -35.8142
     5.1114   5.2483   5.2796   5.4398   5.4818   5.6522   5.7278   5.8982
     5.9383   6.1116   6.2571   6.3688   6.4973   6.5435   6.7473   6.8247
     6.9697   7.2230   7.3802   7.5369   7.8004   7.9592   8.0269   8.1863
     8.2344   8.4289   8.6648   8.9136   9.0763   9.2401   9.3452   9.5208
     9.5916   9.8542  10.3319  10.7254  10.8469  10.9065  10.9859  11.1616
    13.2457  13.3508  13.6013  14.0730  14.8326  15.8542  17.0170  18.1986

          k = 0.2778-0.2887 0.0000 (  4463 PWs)   bands (ev):

   -36.6316 -36.6239 -36.6114 -36.5968 -36.5524 -36.5261 -36.5006 -36.4474
   -36.3680 -36.3318 -36.3284 -36.2921 -36.2685 -36.2548 -36.2257 -36.2201
   -36.1840 -36.1483 -36.1222 -36.1210 -35.8887 -35.8887 -35.8207 -35.8206
     4.8721   4.9964   5.0822   5.1307   5.2679   5.3013   5.4709   5.5100
     5.7588   5.8616   6.0996   6.2648   6.5463   6.8157   7.0200   7.1928
     7.3135   7.3835   7.5129   7.6822   7.7633   7.9095   8.0666   8.3521
     8.4044   8.5534   8.7069   8.9370   9.1698   9.2941   9.3791   9.5314
     9.7601  10.0508  10.1681  10.3171  10.5019  10.6176  10.6596  10.8627
    11.0512  11.2395  11.2714  11.5868  12.5355  13.7733  15.1155  16.4471

          k = 0.2778-0.1604 0.0000 (  4458 PWs)   bands (ev):

   -36.6244 -36.6098 -36.5621 -36.5447 -36.5060 -36.4752 -36.4187 -36.4033
   -36.3463 -36.2790 -36.2789 -36.2776 -36.2260 -36.2192 -36.1991 -36.1659
   -36.1405 -36.1288 -36.0540 -36.0537 -35.8402 -35.8401 -35.8267 -35.8265
     4.4881   4.6968   4.9179   5.0071   5.1446   5.3718   5.5031   5.6075
     5.8544   5.9333   6.1071   6.4080   6.7509   6.8746   7.1231   7.2351
     7.4693   7.5628   7.6803   7.7100   7.8770   7.8986   8.1683   8.2711
     8.3795   8.5040   8.6583   8.6712   8.8738   9.0808   9.1966   9.2931
     9.3171   9.4000   9.5579   9.6032   9.7116   9.8396   9.9707  10.0969
    10.3621  10.3858  10.7264  10.9186  11.4618  12.7158  14.0329  15.2874

          k = 0.3889 0.6736 0.0000 (  4511 PWs)   bands (ev):

   -36.6763 -36.6689 -36.6297 -36.6223 -36.5900 -36.5784 -36.4927 -36.4828
   -36.4548 -36.4355 -36.4220 -36.3836 -36.3614 -36.3308 -36.2791 -36.2780
   -36.2318 -36.2000 -36.1693 -36.1691 -36.0136 -36.0134 -35.8123 -35.8120
     4.9481   5.1757   5.3318   5.4876   5.5285   5.5678   5.6645   5.8013
     5.9717   5.9785   6.1364   6.4150   6.4158   6.4870   6.5033   6.9254
     7.0666   7.4111   7.5597   7.7180   7.8845   7.9120   8.2066   8.2940
     8.5237   8.6670   8.7245   8.9248   9.2457   9.4968   9.6732   9.7880
    10.2345  10.2398  10.4108  10.4708  10.5942  10.7253  10.8567  10.8789
    15.1435  15.3922  15.6688  15.9293  16.2122  16.5612  16.9176  17.2041

          k = 0.3889-0.3528 0.0000 (  4485 PWs)   bands (ev):

   -36.7176 -36.7108 -36.6717 -36.6649 -36.6275 -36.6078 -36.4700 -36.4547
   -36.3804 -36.3716 -36.3532 -36.3122 -36.3048 -36.2958 -36.2546 -36.2485
   -36.2081 -36.1966 -36.1905 -36.1745 -35.9214 -35.9213 -35.8162 -35.8156
     4.5613   4.7470   4.7755   4.8993   4.9968   5.0746   5.1462   5.3581
     5.5021   5.6085   5.7727   6.0963   6.4557   6.7609   6.9890   7.3197
     7.3756   7.5470   7.6689   7.8116   8.1287   8.2158   8.5327   8.7590
     8.8604   9.2538   9.4750   9.5845   9.7662   9.9706  10.2371  10.3126
    10.3345  10.4033  10.4608  10.7220  10.7611  10.8620  11.0222  11.1663
    12.6695  13.0913  13.4893  13.7382  14.2125  15.0072  15.8801  16.5527

          k = 0.3889-0.2245 0.0000 (  4444 PWs)   bands (ev):

   -36.6937 -36.6857 -36.6616 -36.6426 -36.6134 -36.5745 -36.4891 -36.4564
   -36.3662 -36.3196 -36.3176 -36.3077 -36.2659 -36.2566 -36.2345 -36.1984
   -36.1874 -36.1755 -36.1615 -36.1589 -35.8756 -35.8753 -35.8194 -35.8190
     4.5153   4.5618   4.6724   4.8074   4.8467   4.9599   5.0736   5.1555
     5.4494   5.5407   5.5965   6.1306   6.6254   6.9956   7.2608   7.3355
     7.4615   7.6640   7.6835   7.9356   8.1347   8.2401   8.7315   8.7337
     8.9909   9.3348   9.6922   9.8691   9.8969  10.2462  10.2656  10.3582
    10.4214  10.4966  10.5189  10.5473  10.6632  10.7040  10.8118  10.9199
    11.0303  11.0370  11.3615  11.4820  12.5104  13.8749  15.2933  16.6785

          k =-0.5000-0.8660 0.0000 (  4492 PWs)   bands (ev):

   -36.7496 -36.7442 -36.6994 -36.6991 -36.6547 -36.6385 -36.4672 -36.4590
   -36.3430 -36.3366 -36.3338 -36.3231 -36.2854 -36.2818 -36.2482 -36.2275
   -36.2164 -36.2115 -36.1804 -36.1710 -35.8896 -35.8896 -35.8171 -35.8170
     4.2852   4.4631   4.4962   4.6306   4.7109   4.8352   4.8535   5.0353
     5.2965   5.3185   5.4439   5.9931   6.5589   6.8954   7.1110   7.2142
     7.3535   7.5871   7.9586   8.0638   8.2176   8.6091   8.7048   9.1232
     9.3703   9.5438  10.0402  10.1075  10.5069  10.5151  10.7377  10.8365
    10.8472  10.9017  10.9432  10.9674  11.0366  11.1481  11.3080  11.3138
    11.6085  12.5716  13.4682  13.7676  14.1503  14.2449  14.5121  14.5448

 ------ SPIN DOWN ----------


          k = 0.0556 0.0962 0.0000 (  4451 PWs)   bands (ev):

   -36.7092 -36.6733 -36.5462 -36.4064 -36.2814 -36.2396 -36.2271 -36.2114
   -36.2101 -36.1840 -36.1688 -36.1608 -36.1508 -36.1340 -36.1237 -36.1046
   -36.1035 -36.0824 -35.8444 -35.8443 -35.8125 -35.8123 -35.7809 -35.7807
     2.9388   3.3001   3.8816   4.4713   4.6726   4.6990   4.9869   5.0006
     6.7872   6.8574   7.0524   7.0793   7.0943   7.1782   7.3693   7.4324
     7.5159   7.5163   7.5318   7.5993   7.6352   7.6396   7.7327   7.7741
     7.8184   7.8397   7.8848   8.1104   8.1222   8.2012   8.7995   8.9755
     8.9875   9.1464   9.2419   9.3554   9.4315   9.5382   9.6059   9.7218
     9.8491  10.1828  10.2419  10.5899  10.7375  10.8003  11.5329  12.3376

          k = 0.0556 0.2245 0.0000 (  4420 PWs)   bands (ev):

   -36.6579 -36.6361 -36.5376 -36.4528 -36.3974 -36.3582 -36.3136 -36.3044
   -36.2781 -36.2450 -36.2442 -36.2391 -36.1938 -36.1851 -36.1697 -36.1442
   -36.1214 -36.1071 -35.9388 -35.9385 -35.8329 -35.8327 -35.8137 -35.8136
     3.8583   4.1523   4.6353   5.1317   5.2328   5.3814   5.6239   5.7286
     6.1256   6.3578   6.4990   6.5305   6.6516   6.7705   6.8252   7.2320
     7.4197   7.4970   7.6026   7.6882   7.7605   7.8008   7.8686   7.9322
     8.0935   8.2275   8.2913   8.3407   8.5068   8.5982   8.6883   8.6944
     8.7955   8.9291   9.0579   9.1752   9.3990   9.5776   9.7333   9.8191
    10.0945  10.3105  10.5635  10.7602  10.9546  11.8949  13.0000  14.0679

          k = 0.0556 0.3528 0.0000 (  4467 PWs)   bands (ev):

   -36.6231 -36.6089 -36.5894 -36.5772 -36.5242 -36.5157 -36.4629 -36.4297
   -36.3595 -36.2995 -36.2965 -36.2857 -36.2426 -36.2309 -36.2120 -36.1869
   -36.1531 -36.1394 -36.0915 -36.0909 -35.8576 -35.8575 -35.8242 -35.8240
     4.6568   4.8714   4.9643   5.0055   5.1447   5.2783   5.4301   5.4970
     5.7759   5.8795   6.0264   6.3225   6.7273   6.8654   7.1786   7.2038
     7.5051   7.5203   7.6144   7.6636   7.7841   7.9377   8.1448   8.3548
     8.4711   8.6108   8.7659   8.8412   9.0765   9.2989   9.4222   9.4738
     9.6172   9.7544   9.8353  10.0084  10.1204  10.1540  10.3467  10.4003
    10.4495  10.6481  10.7861  10.8576  11.8505  13.1286  14.4820  15.7903

          k = 0.0556 0.4811 0.0000 (  4463 PWs)   bands (ev):

   -36.7135 -36.7064 -36.6736 -36.6601 -36.6280 -36.5984 -36.4787 -36.4569
   -36.3652 -36.3381 -36.3342 -36.3068 -36.2820 -36.2714 -36.2410 -36.2212
   -36.1958 -36.1917 -36.1757 -36.1657 -35.8906 -35.8903 -35.8180 -35.8175
     4.4796   4.5900   4.6628   4.7976   4.8422   4.9720   5.0299   5.1784
     5.4402   5.4948   5.6037   6.0842   6.5551   6.9174   7.1621   7.3249
     7.4148   7.6086   7.7062   7.9401   8.1900   8.2655   8.6995   8.8417
     9.0068   9.4078   9.6243   9.8671   9.9973  10.1284  10.3694  10.4359
    10.5020  10.5580  10.6078  10.6442  10.7467  10.8176  10.9578  11.0897
    11.4804  11.9520  12.3314  12.4609  13.1217  14.2716  15.5351  16.7110

          k = 0.0556-0.5453 0.0000 (  4486 PWs)   bands (ev):

   -36.7416 -36.7349 -36.6931 -36.6882 -36.6479 -36.6301 -36.4672 -36.4572
   -36.3574 -36.3464 -36.3380 -36.3146 -36.2924 -36.2853 -36.2482 -36.2330
   -36.2131 -36.2100 -36.1799 -36.1764 -35.8981 -35.8980 -35.8168 -35.8163
     4.3603   4.5367   4.5710   4.6961   4.7870   4.9025   4.9216   5.1206
     5.3510   5.3998   5.5236   6.0195   6.5392   6.8539   7.0855   7.2647
     7.3632   7.6160   7.7753   8.0570   8.1610   8.4613   8.8040   8.9069
     9.2775   9.5287   9.7764  10.1162  10.2777  10.3822  10.4798  10.6453
    10.7334  10.7718  10.8272  10.8562  10.9218  10.9834  11.1217  11.1929
    12.0933  12.7786  13.4824  13.8101  13.8908  14.3338  14.9853  15.4549

          k = 0.0556-0.4170 0.0000 (  4465 PWs)   bands (ev):

   -36.6631 -36.6551 -36.6400 -36.6201 -36.5854 -36.5439 -36.5004 -36.4533
   -36.3677 -36.3218 -36.3191 -36.2981 -36.2651 -36.2519 -36.2282 -36.2055
   -36.1691 -36.1613 -36.1505 -36.1448 -35.8767 -35.8766 -35.8206 -35.8202
     4.6605   4.6978   4.8250   4.9185   4.9973   5.0863   5.2218   5.2838
     5.5787   5.6752   5.7684   6.1973   6.6163   6.9693   7.2716   7.3710
     7.5098   7.5215   7.6602   7.7770   7.9346   8.2372   8.3440   8.5177
     8.8279   9.0675   9.2703   9.3779   9.5205   9.7546   9.9403  10.0124
    10.0760  10.2142  10.2617  10.3733  10.4394  10.5883  10.7070  10.8569
    10.9333  11.0970  11.1839  11.4252  12.4333  13.7580  15.1655  16.5508

          k = 0.0556-0.2887 0.0000 (  4439 PWs)   bands (ev):

   -36.6289 -36.6162 -36.5476 -36.5112 -36.4760 -36.4370 -36.3805 -36.3774
   -36.3318 -36.2738 -36.2699 -36.2669 -36.2171 -36.2089 -36.1921 -36.1657
   -36.1363 -36.1221 -36.0172 -36.0170 -35.8357 -35.8356 -35.8281 -35.8278
     4.3812   4.5981   4.9180   5.1736   5.2739   5.4907   5.6925   5.7673
     6.0085   6.0625   6.2594   6.4192   6.5642   6.6979   6.9664   7.0189
     7.3544   7.5729   7.6478   7.7291   7.7446   7.8674   7.9351   8.0588
     8.1510   8.2722   8.5022   8.6568   8.6887   8.8122   8.9758   9.0244
     9.1779   9.2750   9.4140   9.5416   9.6181   9.8510   9.9590  10.0312
    10.1405  10.4886  10.6054  10.8022  11.3681  12.5034  13.7477  14.9439

          k = 0.0556-0.1604 0.0000 (  4443 PWs)   bands (ev):

   -36.6874 -36.6570 -36.5406 -36.4204 -36.3280 -36.2906 -36.2602 -36.2439
   -36.2306 -36.2179 -36.2084 -36.2010 -36.1679 -36.1605 -36.1480 -36.1229
   -36.1107 -36.0939 -35.8698 -35.8696 -35.8365 -35.8364 -35.7948 -35.7948
     3.3343   3.6757   4.2319   4.8070   4.9690   5.0178   5.2978   5.3321
     6.4869   6.6467   6.7454   6.8167   6.9006   6.9613   7.1255   7.2846
     7.5181   7.5312   7.6735   7.6992   7.7764   7.7907   7.8115   7.8507
     7.9021   7.9401   8.0896   8.1352   8.2503   8.3857   8.4288   8.8030
     8.8778   8.9588   9.0498   9.0876   9.3788   9.4782   9.5944   9.7238
    10.0567  10.1409  10.5630  10.5828  10.7432  11.3118  12.2496  13.1823

          k = 0.0556-0.0321 0.0000 (  4465 PWs)   bands (ev):

   -36.7209 -36.6823 -36.5503 -36.4023 -36.2636 -36.2118 -36.2079 -36.2012
   -36.2004 -36.1590 -36.1482 -36.1420 -36.1318 -36.1279 -36.1053 -36.1031
   -36.0868 -36.0752 -35.8463 -35.8459 -35.7848 -35.7844 -35.7735 -35.7733
     2.7294   3.0977   3.6866   4.2795   4.5015   4.5224   4.8069   4.8137
     6.9672   7.0242   7.2023   7.2213   7.2527   7.3061   7.3591   7.4066
     7.4261   7.4539   7.4666   7.5196   7.5589   7.6295   7.6616   7.6981
     7.7475   7.8576   7.9385   7.9694   7.9907   8.4701   9.1032   9.1059
     9.2378   9.2702   9.3267   9.3984   9.4141   9.5677   9.6699   9.9009
     9.9753  10.1234  10.3236  10.3285  10.6422  10.7972  10.9562  11.6833

          k = 0.1667 0.2887 0.0000 (  4425 PWs)   bands (ev):

   -36.6075 -36.6067 -36.5567 -36.5341 -36.5064 -36.4749 -36.4255 -36.4049
   -36.3574 -36.3028 -36.2987 -36.2788 -36.2397 -36.2236 -36.2073 -36.1950
   -36.1840 -36.1272 -36.0486 -36.0485 -35.8685 -35.8684 -35.8245 -35.8244
     4.8632   4.9630   5.1746   5.4515   5.7430   5.8164   5.8319   5.9215
     5.9618   6.0379   6.1100   6.2186   6.3798   6.4819   6.9070   6.9810
     6.9929   7.1593   7.3438   7.4104   7.4437   7.5103   7.6001   8.1419
     8.1581   8.3674   8.3844   8.5713   8.7819   9.0080   9.2025   9.2252
     9.4390   9.6145   9.8422  10.0530  10.0828  10.2136  10.3955  10.4606
    10.4890  10.5611  10.6488  10.9041  11.9049  13.0609  14.3152  15.5549

          k = 0.1667 0.4170 0.0000 (  4459 PWs)   bands (ev):

   -36.6473 -36.6425 -36.6176 -36.6092 -36.5691 -36.5482 -36.5059 -36.4573
   -36.3779 -36.3726 -36.3678 -36.3075 -36.2992 -36.2797 -36.2672 -36.2353
   -36.2200 -36.1595 -36.1429 -36.1417 -35.9307 -35.9303 -35.8176 -35.8172
     5.0315   5.0929   5.1943   5.3133   5.4130   5.4361   5.6359   5.6865
     5.7808   5.9193   6.2082   6.3385   6.4385   6.7079   6.8631   7.0303
     7.1080   7.2386   7.4485   7.5930   7.8153   7.9660   8.0036   8.2105
     8.3128   8.4419   8.6654   8.9731   9.1572   9.2229   9.3409   9.5665
     9.6991   9.8901  10.2594  10.6607  10.7519  10.8354  10.9004  11.0651
    12.0963  12.2333  12.3637  12.7525  13.5628  14.6907  15.9611  17.2550

          k = 0.1667 0.5453 0.0000 (  4490 PWs)   bands (ev):

   -36.7044 -36.6978 -36.6560 -36.6516 -36.6138 -36.5988 -36.4673 -36.4582
   -36.4139 -36.4137 -36.3800 -36.3507 -36.3273 -36.3009 -36.2796 -36.2688
   -36.2239 -36.1902 -36.1876 -36.1846 -35.9644 -35.9641 -35.8139 -35.8134
     4.7224   4.9563   5.0096   5.1532   5.2428   5.3027   5.3636   5.6433
     5.6725   5.7933   6.0752   6.2167   6.3376   6.5518   6.7478   7.1506
     7.2493   7.5095   7.6754   7.8243   7.9556   8.0806   8.3321   8.4499
     8.7033   8.9658   9.1555   9.2812   9.3965   9.7740   9.9821  10.1057
    10.2188  10.3165  10.4777  10.5971  10.6900  10.8005  10.9657  11.0690
    13.9389  14.2974  14.6830  15.0207  15.4173  15.8884  16.2633  16.4584

          k = 0.1667-0.4811 0.0000 (  4476 PWs)   bands (ev):

   -36.6840 -36.6776 -36.6414 -36.6373 -36.5972 -36.5820 -36.4836 -36.4587
   -36.3992 -36.3983 -36.3779 -36.3322 -36.3178 -36.2948 -36.2810 -36.2535
   -36.2236 -36.1784 -36.1726 -36.1693 -35.9526 -35.9524 -35.8151 -35.8148
     4.8322   5.0348   5.0424   5.2472   5.2756   5.3357   5.4677   5.6715
     5.7422   5.8091   6.1351   6.2557   6.3718   6.6522   6.8516   7.0048
     7.2143   7.4767   7.6711   7.7263   7.8968   8.0544   8.1310   8.3773
     8.5880   8.8549   8.9020   9.0267   9.3105   9.6348   9.7460   9.8076
     9.8758  10.0283  10.3498  10.7071  10.7765  10.8824  11.0130  11.1613
    13.0575  13.2849  13.5304  13.9255  14.6111  15.5641  16.6326  17.6126

          k = 0.1667-0.3528 0.0000 (  4458 PWs)   bands (ev):

   -36.6128 -36.6070 -36.5859 -36.5767 -36.5322 -36.5301 -36.4889 -36.4415
   -36.3719 -36.3382 -36.3348 -36.2916 -36.2710 -36.2550 -36.2341 -36.2174
   -36.2096 -36.1421 -36.1007 -36.1003 -35.9012 -35.9010 -35.8212 -35.8209
     5.1213   5.2153   5.2888   5.3707   5.5154   5.6184   5.6724   5.7880
     5.8856   6.1122   6.1801   6.3601   6.3999   6.6719   6.7329   6.9146
     7.0789   7.2792   7.3086   7.3594   7.5683   7.7255   7.8090   8.0589
     8.0836   8.3192   8.6133   8.7434   8.8201   9.1511   9.2306   9.3882
     9.6019   9.7822  10.1228  10.3880  10.5361  10.6192  10.6369  10.8394
    11.2043  11.2714  11.3478  11.6836  12.6152  13.8077  15.1027  16.3956

          k = 0.1667-0.2245 0.0000 (  4433 PWs)   bands (ev):

   -36.6328 -36.6200 -36.5423 -36.4894 -36.4520 -36.4139 -36.3599 -36.3574
   -36.3263 -36.2737 -36.2668 -36.2608 -36.2132 -36.1985 -36.1916 -36.1683
   -36.1475 -36.1167 -35.9926 -35.9925 -35.8385 -35.8384 -35.8285 -35.8284
     4.3329   4.5626   4.9499   5.3860   5.5175   5.6492   5.8343   5.9096
     6.0222   6.1788   6.2619   6.3053   6.4653   6.6386   6.7104   6.9826
     7.2254   7.2893   7.4041   7.5095   7.6016   7.7139   7.7719   7.9798
     8.1229   8.3409   8.4783   8.5301   8.6888   8.8069   8.8843   8.9547
     9.1305   9.2639   9.4390   9.5620   9.5814   9.9258   9.9502   9.9873
    10.0903  10.4193  10.5460  10.6310  11.3869  12.4358  13.6142  14.7708

          k = 0.1667-0.0962 0.0000 (  4427 PWs)   bands (ev):

   -36.6778 -36.6498 -36.5387 -36.4301 -36.3535 -36.3156 -36.2804 -36.2614
   -36.2334 -36.2318 -36.2308 -36.2134 -36.1792 -36.1677 -36.1582 -36.1288
   -36.1142 -36.0953 -35.8951 -35.8949 -35.8356 -35.8354 -35.7995 -35.7994
     3.5138   3.8407   4.3739   4.9188   5.0437   5.1532   5.4148   5.4790
     6.3093   6.5675   6.6467   6.7162   6.8440   6.9058   6.9675   7.3764
     7.5443   7.5579   7.6748   7.7075   7.7872   7.8708   7.8776   7.9421
     8.0197   8.0240   8.1239   8.1548   8.2321   8.4114   8.5235   8.6298
     8.8119   8.8523   9.0308   9.1451   9.3189   9.4283   9.6659   9.7973
     9.9457  10.3533  10.5401  10.6817  10.8502  11.4655  12.5142  13.5060

          k = 0.2778 0.4811 0.0000 (  4485 PWs)   bands (ev):

   -36.6484 -36.6441 -36.6203 -36.6043 -36.5760 -36.5473 -36.5262 -36.4990
   -36.4489 -36.4421 -36.4219 -36.3765 -36.3616 -36.3490 -36.2857 -36.2660
   -36.2384 -36.1931 -36.1516 -36.1515 -36.0232 -36.0231 -35.8124 -35.8124
     5.2544   5.2728   5.4045   5.4448   5.5986   5.8048   5.9364   6.0288
     6.0762   6.1449   6.2141   6.2826   6.2933   6.5855   6.6546   6.9323
     6.9751   7.2755   7.2793   7.6021   7.6952   7.9403   7.9773   8.1643
     8.1926   8.6611   8.7543   8.8480   9.0574   9.1978   9.3755   9.3999
     9.7338  10.0212  10.3788  10.6551  10.7669  10.7766  10.8784  11.0557
    14.4150  14.5795  14.9294  15.4619  16.1930  17.1098  18.1036  18.7780

          k = 0.2778 0.6094 0.0000 (  4491 PWs)   bands (ev):

   -36.6404 -36.6338 -36.6069 -36.5937 -36.5693 -36.5601 -36.5347 -36.5099
   -36.4782 -36.4655 -36.4449 -36.4101 -36.3723 -36.3613 -36.2804 -36.2667
   -36.2369 -36.2102 -36.1437 -36.1435 -36.0551 -36.0550 -35.8112 -35.8110
     5.2239   5.4199   5.4851   5.6153   5.7012   5.7799   5.9192   5.9882
     6.0213   6.0790   6.2067   6.2818   6.3570   6.5610   6.6098   6.9705
     7.1010   7.2932   7.3719   7.5232   7.6692   7.8785   7.9306   8.2252
     8.2398   8.6308   8.7801   8.9678   9.0860   9.2171   9.3943   9.4549
    10.0432  10.2043  10.3962  10.4943  10.5862  10.6565  10.6969  10.8330
    15.6199  15.8439  16.2191  16.6385  16.9852  17.3612  17.7934  18.2700

          k = 0.2778-0.4170 0.0000 (  4462 PWs)   bands (ev):

   -36.6533 -36.6497 -36.6194 -36.6143 -36.5717 -36.5628 -36.5073 -36.4709
   -36.4132 -36.4084 -36.3977 -36.3394 -36.3322 -36.3136 -36.2848 -36.2620
   -36.2316 -36.1742 -36.1526 -36.1524 -35.9779 -35.9778 -35.8144 -35.8142
     5.1114   5.2483   5.2796   5.4398   5.4818   5.6522   5.7278   5.8982
     5.9383   6.1116   6.2571   6.3688   6.4973   6.5435   6.7473   6.8247
     6.9697   7.2230   7.3802   7.5369   7.8004   7.9592   8.0269   8.1863
     8.2344   8.4289   8.6648   8.9136   9.0763   9.2401   9.3452   9.5208
     9.5916   9.8542  10.3319  10.7254  10.8469  10.9065  10.9859  11.1616
    13.2457  13.3508  13.6013  14.0730  14.8326  15.8542  17.0170  18.1986

          k = 0.2778-0.2887 0.0000 (  4463 PWs)   bands (ev):

   -36.6316 -36.6239 -36.6114 -36.5968 -36.5524 -36.5261 -36.5006 -36.4474
   -36.3680 -36.3318 -36.3284 -36.2921 -36.2685 -36.2548 -36.2257 -36.2201
   -36.1840 -36.1483 -36.1222 -36.1210 -35.8887 -35.8887 -35.8207 -35.8206
     4.8721   4.9964   5.0822   5.1307   5.2679   5.3013   5.4709   5.5099
     5.7588   5.8616   6.0996   6.2648   6.5463   6.8157   7.0200   7.1928
     7.3135   7.3835   7.5129   7.6822   7.7633   7.9095   8.0666   8.3521
     8.4044   8.5534   8.7069   8.9370   9.1698   9.2941   9.3791   9.5314
     9.7601  10.0508  10.1681  10.3171  10.5019  10.6176  10.6596  10.8627
    11.0512  11.2395  11.2714  11.5868  12.5355  13.7733  15.1155  16.4471

          k = 0.2778-0.1604 0.0000 (  4458 PWs)   bands (ev):

   -36.6244 -36.6098 -36.5621 -36.5447 -36.5060 -36.4752 -36.4187 -36.4033
   -36.3463 -36.2790 -36.2789 -36.2776 -36.2260 -36.2192 -36.1991 -36.1659
   -36.1405 -36.1288 -36.0540 -36.0537 -35.8402 -35.8401 -35.8267 -35.8265
     4.4881   4.6968   4.9179   5.0071   5.1446   5.3718   5.5031   5.6075
     5.8544   5.9333   6.1071   6.4080   6.7509   6.8746   7.1231   7.2351
     7.4693   7.5628   7.6803   7.7100   7.8770   7.8986   8.1683   8.2711
     8.3795   8.5040   8.6583   8.6712   8.8738   9.0808   9.1966   9.2931
     9.3171   9.4000   9.5579   9.6032   9.7116   9.8396   9.9707  10.0969
    10.3621  10.3858  10.7264  10.9186  11.4618  12.7158  14.0329  15.2874

          k = 0.3889 0.6736 0.0000 (  4511 PWs)   bands (ev):

   -36.6763 -36.6689 -36.6297 -36.6223 -36.5900 -36.5784 -36.4927 -36.4828
   -36.4548 -36.4355 -36.4220 -36.3836 -36.3614 -36.3308 -36.2791 -36.2780
   -36.2318 -36.2000 -36.1693 -36.1691 -36.0136 -36.0134 -35.8123 -35.8120
     4.9481   5.1757   5.3318   5.4876   5.5285   5.5678   5.6645   5.8013
     5.9717   5.9785   6.1364   6.4150   6.4158   6.4870   6.5033   6.9254
     7.0666   7.4111   7.5597   7.7180   7.8845   7.9120   8.2066   8.2940
     8.5237   8.6670   8.7245   8.9248   9.2457   9.4968   9.6732   9.7880
    10.2345  10.2398  10.4108  10.4708  10.5942  10.7253  10.8567  10.8789
    15.1435  15.3922  15.6688  15.9293  16.2122  16.5612  16.9176  17.2041

          k = 0.3889-0.3528 0.0000 (  4485 PWs)   bands (ev):

   -36.7176 -36.7108 -36.6717 -36.6649 -36.6275 -36.6078 -36.4700 -36.4547
   -36.3804 -36.3716 -36.3532 -36.3122 -36.3048 -36.2958 -36.2546 -36.2485
   -36.2081 -36.1966 -36.1905 -36.1745 -35.9214 -35.9213 -35.8162 -35.8156
     4.5613   4.7470   4.7755   4.8993   4.9968   5.0746   5.1462   5.3581
     5.5021   5.6085   5.7726   6.0963   6.4557   6.7609   6.9890   7.3197
     7.3756   7.5470   7.6689   7.8116   8.1287   8.2158   8.5327   8.7590
     8.8604   9.2538   9.4750   9.5845   9.7662   9.9706  10.2371  10.3126
    10.3345  10.4033  10.4608  10.7220  10.7611  10.8620  11.0222  11.1663
    12.6695  13.0913  13.4893  13.7382  14.2125  15.0072  15.8801  16.5527

          k = 0.3889-0.2245 0.0000 (  4444 PWs)   bands (ev):

   -36.6937 -36.6857 -36.6616 -36.6426 -36.6134 -36.5745 -36.4891 -36.4564
   -36.3662 -36.3196 -36.3176 -36.3077 -36.2659 -36.2566 -36.2345 -36.1984
   -36.1874 -36.1755 -36.1615 -36.1589 -35.8756 -35.8753 -35.8194 -35.8190
     4.5153   4.5618   4.6724   4.8074   4.8467   4.9599   5.0736   5.1555
     5.4494   5.5407   5.5965   6.1306   6.6254   6.9956   7.2608   7.3355
     7.4615   7.6640   7.6835   7.9356   8.1347   8.2401   8.7315   8.7337
     8.9909   9.3348   9.6922   9.8691   9.8969  10.2462  10.2656  10.3582
    10.4214  10.4966  10.5189  10.5473  10.6632  10.7040  10.8118  10.9199
    11.0303  11.0370  11.3615  11.4819  12.5104  13.8749  15.2933  16.6785

          k =-0.5000-0.8660 0.0000 (  4492 PWs)   bands (ev):

   -36.7496 -36.7442 -36.6994 -36.6991 -36.6547 -36.6385 -36.4672 -36.4590
   -36.3430 -36.3366 -36.3338 -36.3231 -36.2854 -36.2818 -36.2482 -36.2275
   -36.2164 -36.2115 -36.1804 -36.1710 -35.8896 -35.8896 -35.8171 -35.8170
     4.2852   4.4631   4.4962   4.6306   4.7109   4.8352   4.8535   5.0353
     5.2965   5.3185   5.4439   5.9931   6.5589   6.8954   7.1110   7.2142
     7.3535   7.5871   7.9586   8.0638   8.2176   8.6091   8.7048   9.1232
     9.3703   9.5438  10.0402  10.1075  10.5069  10.5151  10.7377  10.8365
    10.8472  10.9017  10.9432  10.9674  11.0366  11.1481  11.3080  11.3138
    11.6085  12.5716  13.4682  13.7676  14.1503  14.2449  14.5121  14.5448

     the Fermi energy is    10.2849 ev

!    total energy              =   -1369.42563649 Ry
     estimated scf accuracy    <       0.00000004 Ry
     smearing contrib. (-TS)   =      -0.03446650 Ry
     internal energy E=F+TS    =   -1369.39117000 Ry

     The total energy is F=E-TS. E is the sum of the following terms:
     one-electron contribution =  -12581.23010426 Ry
     hartree contribution      =    6351.40239158 Ry
     xc contribution           =    -239.30441276 Ry
     ewald contribution        =    5099.74095543 Ry

     total magnetization       =    -0.00 Bohr mag/cell
     absolute magnetization    =     0.00 Bohr mag/cell

     convergence has been achieved in  10 iterations

     negative rho (up, down):  2.298E-01 2.298E-01

     Forces acting on atoms (cartesian axes, Ry/au):

     atom    1 type  1   force =     0.00000000    0.00000000    0.00043388
     atom    2 type  1   force =     0.00000000    0.00000000    0.00214713
     atom    3 type  1   force =     0.00000000    0.00000000   -0.00044104
     atom    4 type  1   force =     0.00000000    0.00000000   -0.00118448
     atom    5 type  1   force =     0.00000000    0.00000000    0.00117666
     atom    6 type  1   force =     0.00000000    0.00000000    0.00044542
     atom    7 type  1   force =     0.00000000    0.00000000   -0.00213937
     atom    8 type  1   force =     0.00000000    0.00000000   -0.00043820

     Total force =     0.003570     Total SCF correction =     0.000640
     SCF correction compared to forces is large: reduce conv_thr to get better values
     Energy error            =      4.4E-05
     Gradient error          =      2.1E-03

     number of scf cycles    =   5
     number of bfgs steps    =   4

     energy   old            =   -1369.4255925226 Ry
     energy   new            =   -1369.4256364945 Ry

     CASE: energy  _new < energy  _old

     new trust radius        =       0.0033637537 bohr
     new conv_thr            =       0.0000001000 Ry


ATOMIC_POSITIONS (angstrom)
Rh            0.0000000000        0.0000000000        0.0307305142
Rh            2.7108568000        1.5651139000        2.2029863338
Rh            1.3554284000        0.7825569000        4.4077012428
Rh            0.0000000000        0.0000000000        6.6378810306
Rh            2.7108568000        1.5651139000        8.8559225576
Rh            1.3554284000        0.7825569000       11.0861318002
Rh            0.0000000000        0.0000000000       13.2908708752
Rh            2.7108568000        1.5651139000       15.4631237455



     Writing output data file /home/STUDENTI/leonardo.razzai/WORK/relax_surf/8-L.save/
     NEW-OLD atomic charge density approx. for the potential

     negative rho (up, down):  2.298E-01 2.298E-01
     Generating pointlists ...

     total cpu time spent up to now is     1188.1 secs

     Self-consistent Calculation

     iteration #  1     ecut=    35.00 Ry     beta= 0.40
     Davidson diagonalization with overlap
     ethr =  1.00E-06,  avg # of iterations =  5.0

     negative rho (up, down):  2.298E-01 2.298E-01

     total cpu time spent up to now is     1220.2 secs

     total energy              =   -1369.42559464 Ry
     estimated scf accuracy    <       0.00160062 Ry

     total magnetization       =    -0.00 Bohr mag/cell
     absolute magnetization    =     0.00 Bohr mag/cell

     iteration #  2     ecut=    35.00 Ry     beta= 0.40
     Davidson diagonalization with overlap
     ethr =  1.33E-06,  avg # of iterations =  1.0

     negative rho (up, down):  2.298E-01 2.298E-01

     total cpu time spent up to now is     1237.5 secs

     total energy              =   -1369.42563951 Ry
     estimated scf accuracy    <       0.00044920 Ry

     total magnetization       =    -0.00 Bohr mag/cell
     absolute magnetization    =     0.00 Bohr mag/cell

     iteration #  3     ecut=    35.00 Ry     beta= 0.40
     Davidson diagonalization with overlap
     ethr =  3.74E-07,  avg # of iterations =  1.0

     negative rho (up, down):  2.298E-01 2.298E-01

     total cpu time spent up to now is     1254.6 secs

     total energy              =   -1369.42565234 Ry
     estimated scf accuracy    <       0.00009424 Ry

     total magnetization       =    -0.00 Bohr mag/cell
     absolute magnetization    =     0.00 Bohr mag/cell

     iteration #  4     ecut=    35.00 Ry     beta= 0.40
     Davidson diagonalization with overlap
     ethr =  7.85E-08,  avg # of iterations =  1.0

     negative rho (up, down):  2.298E-01 2.298E-01

     total cpu time spent up to now is     1272.8 secs

     total energy              =   -1369.42564956 Ry
     estimated scf accuracy    <       0.00004449 Ry

     total magnetization       =    -0.00 Bohr mag/cell
     absolute magnetization    =     0.00 Bohr mag/cell

     iteration #  5     ecut=    35.00 Ry     beta= 0.40
     Davidson diagonalization with overlap
     ethr =  3.71E-08,  avg # of iterations =  1.1

     negative rho (up, down):  2.298E-01 2.298E-01

     total cpu time spent up to now is     1290.5 secs

     total energy              =   -1369.42565083 Ry
     estimated scf accuracy    <       0.00000141 Ry

     total magnetization       =    -0.00 Bohr mag/cell
     absolute magnetization    =     0.00 Bohr mag/cell

     iteration #  6     ecut=    35.00 Ry     beta= 0.40
     Davidson diagonalization with overlap
     ethr =  1.17E-09,  avg # of iterations =  2.2

     negative rho (up, down):  2.298E-01 2.298E-01

     total cpu time spent up to now is     1310.0 secs

     total energy              =   -1369.42565086 Ry
     estimated scf accuracy    <       0.00000056 Ry

     total magnetization       =    -0.00 Bohr mag/cell
     absolute magnetization    =     0.00 Bohr mag/cell

     iteration #  7     ecut=    35.00 Ry     beta= 0.40
     Davidson diagonalization with overlap
     ethr =  4.64E-10,  avg # of iterations =  1.1

     negative rho (up, down):  2.298E-01 2.298E-01

     total cpu time spent up to now is     1328.0 secs

     total energy              =   -1369.42565087 Ry
     estimated scf accuracy    <       0.00000029 Ry

     total magnetization       =    -0.00 Bohr mag/cell
     absolute magnetization    =     0.00 Bohr mag/cell

     iteration #  8     ecut=    35.00 Ry     beta= 0.40
     Davidson diagonalization with overlap
     ethr =  2.42E-10,  avg # of iterations =  1.4

     negative rho (up, down):  2.298E-01 2.298E-01

     total cpu time spent up to now is     1346.6 secs

     total energy              =   -1369.42565095 Ry
     estimated scf accuracy    <       0.00000030 Ry

     total magnetization       =    -0.00 Bohr mag/cell
     absolute magnetization    =     0.00 Bohr mag/cell

     iteration #  9     ecut=    35.00 Ry     beta= 0.40
     Davidson diagonalization with overlap
     ethr =  2.42E-10,  avg # of iterations =  2.0

     negative rho (up, down):  2.298E-01 2.298E-01

     total cpu time spent up to now is     1366.3 secs

     total energy              =   -1369.42565104 Ry
     estimated scf accuracy    <       0.00000027 Ry

     total magnetization       =    -0.00 Bohr mag/cell
     absolute magnetization    =     0.00 Bohr mag/cell

     iteration # 10     ecut=    35.00 Ry     beta= 0.40
     Davidson diagonalization with overlap
     ethr =  2.23E-10,  avg # of iterations =  1.1

     negative rho (up, down):  2.298E-01 2.298E-01
 
     Magnetic moment per site:
     atom:    1    charge:   13.1085    magn:   -0.0000    constr:    0.0000
     atom:    2    charge:   13.1640    magn:   -0.0000    constr:    0.0000
     atom:    3    charge:   13.1590    magn:    0.0000    constr:    0.0000
     atom:    4    charge:   13.1555    magn:    0.0000    constr:    0.0000
     atom:    5    charge:   13.1562    magn:    0.0000    constr:    0.0000
     atom:    6    charge:   13.1581    magn:    0.0000    constr:    0.0000
     atom:    7    charge:   13.1641    magn:   -0.0000    constr:    0.0000
     atom:    8    charge:   13.1081    magn:   -0.0000    constr:    0.0000

     total cpu time spent up to now is     1383.6 secs

     End of self-consistent calculation

 ------ SPIN UP ------------


          k = 0.0556 0.0962 0.0000 (  4451 PWs)   bands (ev):

   -36.7102 -36.6763 -36.5449 -36.4066 -36.2819 -36.2406 -36.2279 -36.2125
   -36.2113 -36.1834 -36.1687 -36.1598 -36.1501 -36.1340 -36.1223 -36.1034
   -36.1022 -36.0805 -35.8441 -35.8439 -35.8120 -35.8117 -35.7803 -35.7801
     2.9392   3.2972   3.8819   4.4703   4.6746   4.6965   4.9862   4.9999
     6.7877   6.8568   7.0513   7.0790   7.0944   7.1754   7.3705   7.4340
     7.5152   7.5158   7.5310   7.5970   7.6323   7.6400   7.7330   7.7748
     7.8195   7.8410   7.8854   8.1103   8.1225   8.2024   8.7990   8.9761
     8.9887   9.1452   9.2412   9.3562   9.4328   9.5388   9.6062   9.7223
     9.8497  10.1827  10.2429  10.5914  10.7382  10.8020  11.5331  12.3402

          k = 0.0556 0.2245 0.0000 (  4420 PWs)   bands (ev):

   -36.6592 -36.6390 -36.5364 -36.4535 -36.3982 -36.3582 -36.3128 -36.3040
   -36.2785 -36.2455 -36.2452 -36.2392 -36.1925 -36.1842 -36.1699 -36.1435
   -36.1199 -36.1054 -35.9383 -35.9379 -35.8325 -35.8323 -35.8131 -35.8131
     3.8586   4.1495   4.6353   5.1309   5.2324   5.3799   5.6228   5.7280
     6.1258   6.3557   6.5006   6.5286   6.6500   6.7692   6.8260   7.2325
     7.4201   7.4972   7.6035   7.6877   7.7606   7.8009   7.8695   7.9284
     8.0949   8.2271   8.2908   8.3391   8.5081   8.5984   8.6889   8.6945
     8.7961   8.9305   9.0583   9.1750   9.3987   9.5785   9.7341   9.8197
    10.0948  10.3109  10.5652  10.7616  10.9560  11.8966  13.0012  14.0708

          k = 0.0556 0.3528 0.0000 (  4467 PWs)   bands (ev):

   -36.6246 -36.6114 -36.5899 -36.5790 -36.5229 -36.5147 -36.4619 -36.4297
   -36.3593 -36.3004 -36.2978 -36.2860 -36.2411 -36.2305 -36.2120 -36.1863
   -36.1515 -36.1378 -36.0911 -36.0904 -35.8571 -35.8569 -35.8238 -35.8236
     4.6569   4.8681   4.9648   5.0036   5.1437   5.2769   5.4295   5.4948
     5.7761   5.8798   6.0264   6.3224   6.7271   6.8653   7.1776   7.2024
     7.5049   7.5203   7.6158   7.6625   7.7846   7.9343   8.1457   8.3554
     8.4715   8.6111   8.7662   8.8411   9.0759   9.2995   9.4231   9.4733
     9.6170   9.7554   9.8362  10.0087  10.1210  10.1542  10.3469  10.4010
    10.4500  10.6499  10.7873  10.8592  11.8521  13.1306  14.4846  15.7927

          k = 0.0556 0.4811 0.0000 (  4463 PWs)   bands (ev):

   -36.7146 -36.7080 -36.6742 -36.6613 -36.6265 -36.5967 -36.4797 -36.4581
   -36.3647 -36.3392 -36.3352 -36.3070 -36.2805 -36.2707 -36.2409 -36.2206
   -36.1953 -36.1914 -36.1742 -36.1643 -35.8900 -35.8898 -35.8176 -35.8172
     4.4795   4.5900   4.6590   4.7965   4.8394   4.9711   5.0277   5.1792
     5.4406   5.4949   5.6037   6.0844   6.5552   6.9165   7.1634   7.3256
     7.4135   7.6069   7.7040   7.9405   8.1907   8.2634   8.6991   8.8420
     9.0079   9.4079   9.6245   9.8677   9.9971  10.1286  10.3705  10.4363
    10.5024  10.5586  10.6083  10.6458  10.7465  10.8186  10.9588  11.0908
    11.4810  11.9519  12.3326  12.4620  13.1228  14.2729  15.5380  16.7122

          k = 0.0556-0.5453 0.0000 (  4486 PWs)   bands (ev):

   -36.7427 -36.7365 -36.6937 -36.6891 -36.6468 -36.6281 -36.4684 -36.4585
   -36.3580 -36.3477 -36.3382 -36.3139 -36.2916 -36.2841 -36.2481 -36.2324
   -36.2129 -36.2098 -36.1783 -36.1749 -35.8976 -35.8974 -35.8164 -35.8160
     4.3601   4.5361   4.5675   4.6954   4.7843   4.8998   4.9208   5.1216
     5.3516   5.3997   5.5236   6.0197   6.5393   6.8529   7.0868   7.2657
     7.3623   7.6111   7.7761   8.0575   8.1617   8.4595   8.8042   8.9064
     9.2786   9.5289   9.7764  10.1167  10.2783  10.3830  10.4811  10.6458
    10.7328  10.7723  10.8285  10.8571  10.9229  10.9836  11.1223  11.1939
    12.0939  12.7783  13.4838  13.8109  13.8921  14.3345  14.9873  15.4559

          k = 0.0556-0.4170 0.0000 (  4465 PWs)   bands (ev):

   -36.6642 -36.6568 -36.6407 -36.6222 -36.5837 -36.5422 -36.5008 -36.4541
   -36.3671 -36.3228 -36.3203 -36.2984 -36.2635 -36.2514 -36.2282 -36.2050
   -36.1676 -36.1600 -36.1501 -36.1441 -35.8761 -35.8760 -35.8202 -35.8198
     4.6605   4.6977   4.8214   4.9154   4.9961   5.0866   5.2188   5.2842
     5.5790   5.6752   5.7686   6.1975   6.6164   6.9691   7.2713   7.3714
     7.5100   7.5210   7.6597   7.7728   7.9336   8.2376   8.3448   8.5181
     8.8280   9.0682   9.2704   9.3780   9.5204   9.7542   9.9408  10.0128
    10.0765  10.2148  10.2630  10.3735  10.4397  10.5887  10.7085  10.8581
    10.9345  11.0973  11.1848  11.4263  12.4347  13.7598  15.1685  16.5527

          k = 0.0556-0.2887 0.0000 (  4439 PWs)   bands (ev):

   -36.6306 -36.6189 -36.5468 -36.5123 -36.4763 -36.4364 -36.3795 -36.3768
   -36.3319 -36.2743 -36.2712 -36.2674 -36.2157 -36.2083 -36.1922 -36.1651
   -36.1347 -36.1204 -36.0167 -36.0164 -35.8352 -35.8350 -35.8277 -35.8274
     4.3815   4.5955   4.9176   5.1732   5.2724   5.4880   5.6938   5.7651
     6.0084   6.0621   6.2598   6.4179   6.5634   6.6960   6.9671   7.0191
     7.3548   7.5738   7.6485   7.7282   7.7447   7.8663   7.9332   8.0587
     8.1529   8.2718   8.5022   8.6568   8.6876   8.8127   8.9753   9.0256
     9.1786   9.2757   9.4142   9.5419   9.6185   9.8515   9.9598  10.0319
    10.1407  10.4888  10.6077  10.8037  11.3697  12.5054  13.7496  14.9466

          k = 0.0556-0.1604 0.0000 (  4443 PWs)   bands (ev):

   -36.6886 -36.6599 -36.5393 -36.4207 -36.3287 -36.2913 -36.2601 -36.2440
   -36.2317 -36.2186 -36.2087 -36.2002 -36.1665 -36.1596 -36.1479 -36.1221
   -36.1093 -36.0921 -35.8692 -35.8691 -35.8361 -35.8361 -35.7942 -35.7942
     3.3347   3.6728   4.2321   4.8059   4.9701   5.0160   5.2970   5.3314
     6.4869   6.6469   6.7429   6.8167   6.9003   6.9589   7.1261   7.2856
     7.5187   7.5314   7.6727   7.6993   7.7755   7.7912   7.8106   7.8499
     7.8999   7.9410   8.0908   8.1365   8.2504   8.3860   8.4289   8.8036
     8.8784   8.9591   9.0504   9.0874   9.3781   9.4793   9.5948   9.7243
    10.0575  10.1409  10.5647  10.5836  10.7445  11.3133  12.2502  13.1852

          k = 0.0556-0.0321 0.0000 (  4465 PWs)   bands (ev):

   -36.7219 -36.6854 -36.5491 -36.4024 -36.2639 -36.2129 -36.2091 -36.2024
   -36.2017 -36.1579 -36.1469 -36.1422 -36.1320 -36.1267 -36.1047 -36.1021
   -36.0849 -36.0734 -35.8460 -35.8456 -35.7842 -35.7838 -35.7730 -35.7727
     2.7298   3.0948   3.6869   4.2787   4.5035   4.5201   4.8063   4.8130
     6.9684   7.0236   7.2016   7.2206   7.2538   7.3035   7.3586   7.4050
     7.4261   7.4522   7.4685   7.5169   7.5581   7.6301   7.6626   7.6996
     7.7480   7.8578   7.9388   7.9693   7.9907   8.4719   9.1035   9.1064
     9.2368   9.2689   9.3269   9.3992   9.4144   9.5680   9.6707   9.9011
     9.9757  10.1246  10.3233  10.3300  10.6440  10.7985  10.9561  11.6857

          k = 0.1667 0.2887 0.0000 (  4425 PWs)   bands (ev):

   -36.6097 -36.6092 -36.5560 -36.5353 -36.5064 -36.4745 -36.4242 -36.4044
   -36.3572 -36.3036 -36.2997 -36.2790 -36.2389 -36.2241 -36.2069 -36.1941
   -36.1817 -36.1256 -36.0481 -36.0480 -35.8680 -35.8679 -35.8241 -35.8240
     4.8636   4.9609   5.1736   5.4499   5.7416   5.8145   5.8321   5.9182
     5.9579   6.0396   6.1092   6.2186   6.3795   6.4832   6.9070   6.9809
     6.9934   7.1593   7.3442   7.4096   7.4424   7.5086   7.6024   8.1431
     8.1589   8.3665   8.3851   8.5727   8.7819   9.0085   9.2030   9.2237
     9.4384   9.6150   9.8434  10.0532  10.0836  10.2140  10.3960  10.4623
    10.4895  10.5617  10.6503  10.9050  11.9065  13.0629  14.3176  15.5573

          k = 0.1667 0.4170 0.0000 (  4459 PWs)   bands (ev):

   -36.6485 -36.6441 -36.6185 -36.6109 -36.5678 -36.5463 -36.5064 -36.4581
   -36.3774 -36.3736 -36.3683 -36.3074 -36.2990 -36.2800 -36.2656 -36.2346
   -36.2186 -36.1578 -36.1426 -36.1412 -35.9301 -35.9298 -35.8173 -35.8168
     5.0314   5.0931   5.1911   5.3098   5.4106   5.4347   5.6350   5.6864
     5.7807   5.9200   6.2081   6.3388   6.4377   6.7067   6.8619   7.0283
     7.1092   7.2370   7.4474   7.5937   7.8160   7.9671   8.0036   8.2107
     8.3137   8.4419   8.6665   8.9737   9.1575   9.2237   9.3418   9.5668
     9.6989   9.8906  10.2611  10.6617  10.7529  10.8363  10.9012  11.0660
    12.0969  12.2335  12.3642  12.7533  13.5641  14.6924  15.9639  17.2567

          k = 0.1667 0.5453 0.0000 (  4490 PWs)   bands (ev):

   -36.7055 -36.6994 -36.6565 -36.6527 -36.6127 -36.5967 -36.4686 -36.4597
   -36.4152 -36.4149 -36.3782 -36.3499 -36.3273 -36.3009 -36.2789 -36.2682
   -36.2225 -36.1894 -36.1873 -36.1834 -35.9638 -35.9635 -35.8135 -35.8130
     4.7222   4.9519   5.0097   5.1527   5.2394   5.2994   5.3636   5.6437
     5.6732   5.7934   6.0753   6.2167   6.3366   6.5486   6.7490   7.1497
     7.2487   7.5098   7.6768   7.8223   7.9543   8.0810   8.3334   8.4506
     8.7040   8.9658   9.1559   9.2817   9.3965   9.7744   9.9832  10.1065
    10.2193  10.3172  10.4790  10.5983  10.6911  10.8017  10.9668  11.0700
    13.9396  14.2974  14.6837  15.0214  15.4181  15.8890  16.2652  16.4594

          k = 0.1667-0.4811 0.0000 (  4476 PWs)   bands (ev):

   -36.6851 -36.6792 -36.6422 -36.6384 -36.5959 -36.5800 -36.4846 -36.4601
   -36.4004 -36.3995 -36.3765 -36.3316 -36.3178 -36.2947 -36.2801 -36.2529
   -36.2222 -36.1771 -36.1724 -36.1685 -35.9520 -35.9519 -35.8147 -35.8144
     4.8321   5.0317   5.0418   5.2456   5.2724   5.3335   5.4668   5.6717
     5.7427   5.8093   6.1351   6.2559   6.3710   6.6491   6.8535   7.0030
     7.2139   7.4760   7.6692   7.7272   7.8969   8.0556   8.1303   8.3787
     8.5886   8.8554   8.9024   9.0270   9.3106   9.6351   9.7474   9.8076
     9.8765  10.0293  10.3514  10.7083  10.7774  10.8834  11.0139  11.1623
    13.0581  13.2849  13.5311  13.9263  14.6121  15.5654  16.6350  17.6138

          k = 0.1667-0.3528 0.0000 (  4458 PWs)   bands (ev):

   -36.6146 -36.6092 -36.5866 -36.5785 -36.5312 -36.5292 -36.4878 -36.4415
   -36.3712 -36.3392 -36.3358 -36.2918 -36.2704 -36.2556 -36.2324 -36.2172
   -36.2077 -36.1404 -36.1002 -36.0998 -35.9007 -35.9005 -35.8208 -35.8205
     5.1213   5.2150   5.2867   5.3675   5.5151   5.6159   5.6700   5.7889
     5.8838   6.1134   6.1787   6.3585   6.3998   6.6728   6.7327   6.9144
     7.0773   7.2776   7.3073   7.3613   7.5691   7.7256   7.8090   8.0599
     8.0846   8.3185   8.6149   8.7437   8.8214   9.1515   9.2306   9.3886
     9.6010   9.7824  10.1243  10.3888  10.5370  10.6201  10.6378  10.8404
    11.2050  11.2721  11.3479  11.6844  12.6166  13.8096  15.1055  16.3977

          k = 0.1667-0.2245 0.0000 (  4433 PWs)   bands (ev):

   -36.6344 -36.6227 -36.5413 -36.4903 -36.4526 -36.4137 -36.3587 -36.3568
   -36.3266 -36.2739 -36.2679 -36.2614 -36.2122 -36.1981 -36.1920 -36.1673
   -36.1457 -36.1151 -35.9920 -35.9919 -35.8380 -35.8379 -35.8282 -35.8280
     4.3333   4.5601   4.9495   5.3854   5.5170   5.6460   5.8334   5.9083
     6.0217   6.1773   6.2617   6.3059   6.4636   6.6391   6.7106   6.9826
     7.2259   7.2891   7.4042   7.5099   7.6015   7.7111   7.7732   7.9802
     8.1243   8.3399   8.4785   8.5307   8.6884   8.8073   8.8828   8.9550
     9.1310   9.2648   9.4393   9.5624   9.5817   9.9262   9.9509   9.9880
    10.0902  10.4214  10.5469  10.6322  11.3884  12.4377  13.6160  14.7736

          k = 0.1667-0.0962 0.0000 (  4427 PWs)   bands (ev):

   -36.6790 -36.6527 -36.5375 -36.4305 -36.3543 -36.3160 -36.2799 -36.2612
   -36.2339 -36.2330 -36.2321 -36.2126 -36.1777 -36.1663 -36.1583 -36.1283
   -36.1127 -36.0935 -35.8946 -35.8943 -35.8353 -35.8351 -35.7990 -35.7988
     3.5141   3.8379   4.3740   4.9177   5.0438   5.1520   5.4139   5.4784
     6.3095   6.5655   6.6462   6.7163   6.8420   6.9053   6.9677   7.3774
     7.5444   7.5586   7.6755   7.7069   7.7879   7.8660   7.8787   7.9419
     8.0206   8.0210   8.1246   8.1558   8.2333   8.4117   8.5236   8.6303
     8.8123   8.8529   9.0322   9.1445   9.3183   9.4293   9.6668   9.7976
     9.9462  10.3530  10.5414  10.6837  10.8515  11.4671  12.5149  13.5090

          k = 0.2778 0.4811 0.0000 (  4485 PWs)   bands (ev):

   -36.6498 -36.6457 -36.6208 -36.6058 -36.5736 -36.5470 -36.5271 -36.4997
   -36.4487 -36.4428 -36.4214 -36.3754 -36.3618 -36.3495 -36.2852 -36.2659
   -36.2369 -36.1910 -36.1512 -36.1511 -36.0227 -36.0226 -35.8120 -35.8120
     5.2538   5.2725   5.4001   5.4436   5.5969   5.8016   5.9344   6.0305
     6.0776   6.1425   6.2129   6.2821   6.2899   6.5853   6.6551   6.9317
     6.9751   7.2751   7.2795   7.6020   7.6962   7.9406   7.9775   8.1647
     8.1929   8.6615   8.7560   8.8497   9.0585   9.1984   9.3761   9.4004
     9.7342  10.0219  10.3804  10.6562  10.7677  10.7774  10.8799  11.0567
    14.4158  14.5793  14.9302  15.4627  16.1941  17.1111  18.1054  18.7792

          k = 0.2778 0.6094 0.0000 (  4491 PWs)   bands (ev):

   -36.6415 -36.6354 -36.6076 -36.5954 -36.5677 -36.5602 -36.5358 -36.5095
   -36.4774 -36.4656 -36.4442 -36.4092 -36.3729 -36.3617 -36.2809 -36.2667
   -36.2348 -36.2079 -36.1433 -36.1431 -36.0546 -36.0545 -35.8108 -35.8106
     5.2236   5.4151   5.4851   5.6127   5.7009   5.7783   5.9152   5.9892
     6.0187   6.0762   6.2064   6.2830   6.3570   6.5603   6.6090   6.9704
     7.1008   7.2935   7.3714   7.5236   7.6698   7.8787   7.9309   8.2255
     8.2402   8.6313   8.7825   8.9692   9.0869   9.2174   9.3953   9.4558
    10.0437  10.2048  10.3977  10.4954  10.5871  10.6579  10.6979  10.8339
    15.6207  15.8438  16.2199  16.6393  16.9858  17.3614  17.7949  18.2708

          k = 0.2778-0.4170 0.0000 (  4462 PWs)   bands (ev):

   -36.6546 -36.6512 -36.6202 -36.6155 -36.5697 -36.5617 -36.5082 -36.4720
   -36.4141 -36.4093 -36.3964 -36.3390 -36.3322 -36.3138 -36.2834 -36.2611
   -36.2307 -36.1723 -36.1523 -36.1521 -35.9774 -35.9773 -35.8140 -35.8138
     5.1112   5.2482   5.2759   5.4366   5.4811   5.6491   5.7279   5.8981
     5.9369   6.1118   6.2566   6.3684   6.4974   6.5407   6.7467   6.8242
     6.9700   7.2222   7.3797   7.5372   7.8011   7.9594   8.0274   8.1869
     8.2351   8.4288   8.6668   8.9146   9.0768   9.2407   9.3462   9.5211
     9.5917   9.8549  10.3335  10.7266  10.8477  10.9073  10.9871  11.1624
    13.2465  13.3507  13.6019  14.0738  14.8337  15.8557  17.0195  18.2001

          k = 0.2778-0.2887 0.0000 (  4463 PWs)   bands (ev):

   -36.6330 -36.6258 -36.6122 -36.5989 -36.5510 -36.5248 -36.5002 -36.4478
   -36.3674 -36.3329 -36.3295 -36.2924 -36.2673 -36.2545 -36.2251 -36.2197
   -36.1823 -36.1467 -36.1218 -36.1205 -35.8882 -35.8881 -35.8204 -35.8202
     4.8722   4.9962   5.0790   5.1281   5.2657   5.3004   5.4693   5.5098
     5.7592   5.8617   6.0997   6.2649   6.5461   6.8149   7.0195   7.1906
     7.3124   7.3833   7.5124   7.6827   7.7643   7.9088   8.0664   8.3527
     8.4052   8.5536   8.7073   8.9370   9.1701   9.2948   9.3801   9.5314
     9.7594  10.0514  10.1693  10.3179  10.5023  10.6184  10.6611  10.8638
    11.0519  11.2400  11.2719  11.5877  12.5370  13.7752  15.1184  16.4491

          k = 0.2778-0.1604 0.0000 (  4458 PWs)   bands (ev):

   -36.6260 -36.6125 -36.5620 -36.5461 -36.5055 -36.4743 -36.4177 -36.4030
   -36.3463 -36.2801 -36.2789 -36.2789 -36.2244 -36.2187 -36.1992 -36.1655
   -36.1388 -36.1271 -36.0535 -36.0532 -35.8396 -35.8395 -35.8264 -35.8262
     4.4883   4.6940   4.9174   5.0067   5.1429   5.3696   5.5043   5.6047
     5.8542   5.9338   6.1071   6.4075   6.7499   6.8744   7.1216   7.2352
     7.4707   7.5637   7.6812   7.7093   7.8775   7.8929   8.1686   8.2717
     8.3799   8.5043   8.6580   8.6715   8.8728   9.0798   9.1977   9.2942
     9.3185   9.4007   9.5578   9.6034   9.7121   9.8399   9.9715  10.0977
    10.3631  10.3855  10.7289  10.9200  11.4635  12.7178  14.0350  15.2899

          k = 0.3889 0.6736 0.0000 (  4511 PWs)   bands (ev):

   -36.6773 -36.6705 -36.6305 -36.6236 -36.5887 -36.5764 -36.4942 -36.4840
   -36.4554 -36.4365 -36.4198 -36.3831 -36.3616 -36.3308 -36.2795 -36.2770
   -36.2304 -36.1978 -36.1689 -36.1687 -36.0131 -36.0129 -35.8119 -35.8116
     4.9479   5.1710   5.3320   5.4845   5.5276   5.5688   5.6605   5.8008
     5.9707   5.9791   6.1337   6.4140   6.4154   6.4867   6.5047   6.9250
     7.0663   7.4106   7.5576   7.7186   7.8854   7.9124   8.2071   8.2940
     8.5257   8.6673   8.7250   8.9256   9.2461   9.4970   9.6744   9.7890
    10.2350  10.2400  10.4126  10.4720  10.5952  10.7268  10.8576  10.8798
    15.1442  15.3925  15.6691  15.9298  16.2128  16.5613  16.9197  17.2053

          k = 0.3889-0.3528 0.0000 (  4485 PWs)   bands (ev):

   -36.7187 -36.7123 -36.6723 -36.6659 -36.6263 -36.6058 -36.4712 -36.4560
   -36.3813 -36.3729 -36.3524 -36.3113 -36.3043 -36.2954 -36.2541 -36.2481
   -36.2069 -36.1962 -36.1898 -36.1730 -35.9208 -35.9208 -35.8158 -35.8152
     4.5611   4.7469   4.7716   4.8986   4.9936   5.0710   5.1466   5.3589
     5.5027   5.6085   5.7727   6.0965   6.4555   6.7586   6.9903   7.3177
     7.3754   7.5484   7.6684   7.8108   8.1267   8.2165   8.5323   8.7601
     8.8608   9.2540   9.4748   9.5850   9.7663   9.9711  10.2379  10.3131
    10.3352  10.4043  10.4620  10.7230  10.7622  10.8628  11.0230  11.1674
    12.6701  13.0912  13.4902  13.7391  14.2134  15.0082  15.8823  16.5537

          k = 0.3889-0.2245 0.0000 (  4444 PWs)   bands (ev):

   -36.6947 -36.6873 -36.6622 -36.6443 -36.6117 -36.5728 -36.4898 -36.4575
   -36.3655 -36.3208 -36.3190 -36.3078 -36.2642 -36.2559 -36.2345 -36.1980
   -36.1863 -36.1753 -36.1604 -36.1573 -35.8750 -35.8747 -35.8190 -35.8187
     4.5151   4.5619   4.6687   4.8044   4.8458   4.9605   5.0702   5.1561
     5.4496   5.5409   5.5966   6.1309   6.6257   6.9955   7.2620   7.3363
     7.4608   7.6641   7.6778   7.9356   8.1355   8.2381   8.7316   8.7340
     8.9917   9.3346   9.6930   9.8698   9.8961  10.2465  10.2658  10.3586
    10.4210  10.4972  10.5188  10.5480  10.6644  10.7050  10.8120  10.9213
    11.0317  11.0374  11.3625  11.4835  12.5117  13.8765  15.2965  16.6801

          k =-0.5000-0.8660 0.0000 (  4492 PWs)   bands (ev):

   -36.7506 -36.7458 -36.7000 -36.6998 -36.6537 -36.6365 -36.4685 -36.4602
   -36.3432 -36.3378 -36.3352 -36.3220 -36.2846 -36.2801 -36.2482 -36.2271
   -36.2163 -36.2111 -36.1788 -36.1695 -35.8891 -35.8891 -35.8167 -35.8167
     4.2850   4.4622   4.4931   4.6298   4.7084   4.8358   4.8493   5.0363
     5.2970   5.3184   5.4439   5.9934   6.5591   6.8952   7.1124   7.2153
     7.3530   7.5814   7.9587   8.0647   8.2180   8.6072   8.7052   9.1226
     9.3703   9.5454  10.0396  10.1086  10.5080  10.5170  10.7383  10.8358
    10.8458  10.9033  10.9441  10.9683  11.0370  11.1490  11.3086  11.3144
    11.6090  12.5713  13.4697  13.7682  14.1518  14.2470  14.5130  14.5456

 ------ SPIN DOWN ----------


          k = 0.0556 0.0962 0.0000 (  4451 PWs)   bands (ev):

   -36.7102 -36.6763 -36.5449 -36.4066 -36.2819 -36.2406 -36.2279 -36.2125
   -36.2113 -36.1834 -36.1687 -36.1598 -36.1501 -36.1340 -36.1223 -36.1034
   -36.1022 -36.0805 -35.8441 -35.8439 -35.8120 -35.8117 -35.7803 -35.7801
     2.9392   3.2972   3.8819   4.4703   4.6746   4.6965   4.9862   4.9999
     6.7877   6.8568   7.0513   7.0790   7.0944   7.1754   7.3705   7.4340
     7.5152   7.5158   7.5310   7.5970   7.6323   7.6400   7.7330   7.7748
     7.8195   7.8410   7.8854   8.1103   8.1225   8.2024   8.7990   8.9761
     8.9887   9.1452   9.2412   9.3562   9.4328   9.5388   9.6062   9.7223
     9.8497  10.1827  10.2429  10.5914  10.7382  10.8020  11.5331  12.3402

          k = 0.0556 0.2245 0.0000 (  4420 PWs)   bands (ev):

   -36.6592 -36.6390 -36.5364 -36.4535 -36.3982 -36.3582 -36.3128 -36.3040
   -36.2785 -36.2455 -36.2452 -36.2392 -36.1925 -36.1842 -36.1699 -36.1435
   -36.1199 -36.1054 -35.9383 -35.9379 -35.8325 -35.8323 -35.8131 -35.8131
     3.8586   4.1495   4.6353   5.1309   5.2324   5.3799   5.6228   5.7280
     6.1258   6.3557   6.5006   6.5286   6.6500   6.7692   6.8260   7.2325
     7.4201   7.4972   7.6035   7.6877   7.7606   7.8009   7.8695   7.9284
     8.0949   8.2271   8.2908   8.3391   8.5081   8.5984   8.6889   8.6945
     8.7961   8.9305   9.0583   9.1750   9.3987   9.5785   9.7341   9.8197
    10.0948  10.3109  10.5652  10.7616  10.9560  11.8966  13.0012  14.0708

          k = 0.0556 0.3528 0.0000 (  4467 PWs)   bands (ev):

   -36.6246 -36.6114 -36.5899 -36.5790 -36.5229 -36.5147 -36.4619 -36.4297
   -36.3593 -36.3004 -36.2978 -36.2860 -36.2411 -36.2305 -36.2120 -36.1863
   -36.1515 -36.1378 -36.0911 -36.0904 -35.8571 -35.8569 -35.8238 -35.8236
     4.6569   4.8681   4.9648   5.0036   5.1437   5.2769   5.4295   5.4948
     5.7761   5.8798   6.0264   6.3224   6.7271   6.8653   7.1776   7.2024
     7.5049   7.5203   7.6158   7.6625   7.7846   7.9343   8.1457   8.3554
     8.4715   8.6111   8.7662   8.8411   9.0759   9.2995   9.4231   9.4733
     9.6170   9.7554   9.8362  10.0087  10.1210  10.1542  10.3469  10.4010
    10.4500  10.6499  10.7873  10.8592  11.8521  13.1306  14.4846  15.7927

          k = 0.0556 0.4811 0.0000 (  4463 PWs)   bands (ev):

   -36.7146 -36.7080 -36.6742 -36.6613 -36.6265 -36.5967 -36.4797 -36.4581
   -36.3647 -36.3392 -36.3352 -36.3070 -36.2805 -36.2707 -36.2409 -36.2206
   -36.1953 -36.1914 -36.1742 -36.1643 -35.8900 -35.8898 -35.8176 -35.8172
     4.4795   4.5900   4.6590   4.7965   4.8394   4.9711   5.0277   5.1792
     5.4406   5.4949   5.6037   6.0844   6.5552   6.9165   7.1634   7.3256
     7.4135   7.6069   7.7040   7.9405   8.1907   8.2634   8.6991   8.8420
     9.0079   9.4079   9.6245   9.8677   9.9971  10.1286  10.3705  10.4363
    10.5024  10.5586  10.6083  10.6458  10.7465  10.8186  10.9588  11.0908
    11.4810  11.9519  12.3326  12.4620  13.1228  14.2729  15.5380  16.7122

          k = 0.0556-0.5453 0.0000 (  4486 PWs)   bands (ev):

   -36.7427 -36.7365 -36.6937 -36.6891 -36.6468 -36.6281 -36.4684 -36.4585
   -36.3580 -36.3477 -36.3382 -36.3139 -36.2916 -36.2841 -36.2481 -36.2324
   -36.2129 -36.2098 -36.1783 -36.1749 -35.8976 -35.8974 -35.8164 -35.8160
     4.3601   4.5361   4.5675   4.6954   4.7843   4.8998   4.9208   5.1216
     5.3516   5.3997   5.5236   6.0197   6.5393   6.8529   7.0868   7.2657
     7.3623   7.6111   7.7761   8.0575   8.1617   8.4595   8.8042   8.9064
     9.2786   9.5289   9.7764  10.1167  10.2783  10.3830  10.4811  10.6458
    10.7328  10.7723  10.8285  10.8571  10.9229  10.9836  11.1223  11.1939
    12.0939  12.7783  13.4838  13.8109  13.8921  14.3345  14.9873  15.4559

          k = 0.0556-0.4170 0.0000 (  4465 PWs)   bands (ev):

   -36.6642 -36.6568 -36.6407 -36.6222 -36.5837 -36.5422 -36.5008 -36.4541
   -36.3671 -36.3228 -36.3203 -36.2984 -36.2635 -36.2514 -36.2282 -36.2050
   -36.1676 -36.1600 -36.1501 -36.1441 -35.8761 -35.8760 -35.8202 -35.8198
     4.6605   4.6977   4.8214   4.9154   4.9961   5.0866   5.2188   5.2842
     5.5790   5.6752   5.7686   6.1975   6.6164   6.9691   7.2713   7.3714
     7.5100   7.5210   7.6597   7.7728   7.9336   8.2376   8.3448   8.5181
     8.8280   9.0682   9.2704   9.3780   9.5204   9.7542   9.9408  10.0128
    10.0765  10.2148  10.2630  10.3735  10.4397  10.5887  10.7085  10.8581
    10.9345  11.0973  11.1848  11.4263  12.4347  13.7598  15.1685  16.5527

          k = 0.0556-0.2887 0.0000 (  4439 PWs)   bands (ev):

   -36.6306 -36.6189 -36.5468 -36.5123 -36.4763 -36.4364 -36.3795 -36.3768
   -36.3319 -36.2743 -36.2712 -36.2674 -36.2157 -36.2083 -36.1922 -36.1651
   -36.1347 -36.1204 -36.0167 -36.0164 -35.8352 -35.8350 -35.8277 -35.8274
     4.3815   4.5955   4.9176   5.1732   5.2724   5.4880   5.6938   5.7651
     6.0084   6.0621   6.2598   6.4179   6.5634   6.6960   6.9671   7.0191
     7.3548   7.5738   7.6485   7.7282   7.7447   7.8663   7.9332   8.0587
     8.1529   8.2718   8.5022   8.6568   8.6876   8.8127   8.9753   9.0256
     9.1786   9.2757   9.4142   9.5419   9.6185   9.8515   9.9598  10.0319
    10.1407  10.4888  10.6077  10.8037  11.3697  12.5054  13.7496  14.9466

          k = 0.0556-0.1604 0.0000 (  4443 PWs)   bands (ev):

   -36.6886 -36.6599 -36.5393 -36.4207 -36.3287 -36.2913 -36.2601 -36.2440
   -36.2317 -36.2186 -36.2087 -36.2002 -36.1665 -36.1596 -36.1479 -36.1221
   -36.1093 -36.0921 -35.8692 -35.8691 -35.8361 -35.8361 -35.7942 -35.7942
     3.3347   3.6728   4.2321   4.8059   4.9701   5.0160   5.2970   5.3314
     6.4869   6.6469   6.7429   6.8167   6.9003   6.9589   7.1261   7.2856
     7.5187   7.5314   7.6727   7.6993   7.7755   7.7912   7.8106   7.8499
     7.8999   7.9410   8.0908   8.1365   8.2504   8.3860   8.4289   8.8036
     8.8784   8.9591   9.0504   9.0874   9.3781   9.4793   9.5948   9.7243
    10.0575  10.1409  10.5647  10.5836  10.7445  11.3133  12.2502  13.1852

          k = 0.0556-0.0321 0.0000 (  4465 PWs)   bands (ev):

   -36.7219 -36.6854 -36.5491 -36.4024 -36.2639 -36.2129 -36.2091 -36.2024
   -36.2017 -36.1579 -36.1469 -36.1422 -36.1320 -36.1267 -36.1047 -36.1021
   -36.0849 -36.0734 -35.8460 -35.8456 -35.7842 -35.7838 -35.7730 -35.7727
     2.7298   3.0948   3.6869   4.2787   4.5035   4.5201   4.8063   4.8130
     6.9684   7.0236   7.2016   7.2206   7.2538   7.3035   7.3586   7.4050
     7.4261   7.4522   7.4685   7.5169   7.5581   7.6301   7.6626   7.6996
     7.7480   7.8578   7.9388   7.9693   7.9907   8.4719   9.1035   9.1064
     9.2368   9.2689   9.3269   9.3992   9.4144   9.5680   9.6707   9.9011
     9.9757  10.1246  10.3233  10.3300  10.6440  10.7985  10.9561  11.6857

          k = 0.1667 0.2887 0.0000 (  4425 PWs)   bands (ev):

   -36.6097 -36.6092 -36.5560 -36.5353 -36.5064 -36.4745 -36.4242 -36.4044
   -36.3572 -36.3036 -36.2997 -36.2790 -36.2389 -36.2241 -36.2069 -36.1941
   -36.1817 -36.1256 -36.0481 -36.0480 -35.8680 -35.8679 -35.8241 -35.8240
     4.8636   4.9609   5.1736   5.4499   5.7416   5.8145   5.8321   5.9182
     5.9579   6.0396   6.1092   6.2186   6.3795   6.4832   6.9070   6.9809
     6.9934   7.1593   7.3442   7.4096   7.4424   7.5086   7.6024   8.1431
     8.1589   8.3665   8.3851   8.5727   8.7819   9.0085   9.2030   9.2237
     9.4384   9.6150   9.8434  10.0532  10.0836  10.2140  10.3960  10.4623
    10.4895  10.5617  10.6503  10.9050  11.9065  13.0629  14.3176  15.5573

          k = 0.1667 0.4170 0.0000 (  4459 PWs)   bands (ev):

   -36.6485 -36.6441 -36.6185 -36.6109 -36.5678 -36.5463 -36.5064 -36.4581
   -36.3774 -36.3736 -36.3683 -36.3074 -36.2990 -36.2800 -36.2656 -36.2346
   -36.2186 -36.1578 -36.1426 -36.1412 -35.9301 -35.9298 -35.8173 -35.8168
     5.0314   5.0931   5.1911   5.3098   5.4106   5.4347   5.6350   5.6864
     5.7807   5.9200   6.2081   6.3388   6.4377   6.7067   6.8619   7.0283
     7.1092   7.2370   7.4474   7.5937   7.8160   7.9671   8.0036   8.2107
     8.3137   8.4419   8.6665   8.9737   9.1575   9.2237   9.3418   9.5668
     9.6989   9.8906  10.2611  10.6617  10.7529  10.8363  10.9012  11.0660
    12.0969  12.2335  12.3642  12.7533  13.5641  14.6924  15.9639  17.2567

          k = 0.1667 0.5453 0.0000 (  4490 PWs)   bands (ev):

   -36.7055 -36.6994 -36.6565 -36.6527 -36.6127 -36.5967 -36.4686 -36.4597
   -36.4152 -36.4149 -36.3782 -36.3499 -36.3273 -36.3009 -36.2789 -36.2682
   -36.2225 -36.1894 -36.1873 -36.1834 -35.9638 -35.9635 -35.8135 -35.8130
     4.7222   4.9519   5.0097   5.1527   5.2394   5.2994   5.3636   5.6437
     5.6732   5.7934   6.0753   6.2167   6.3366   6.5486   6.7490   7.1497
     7.2487   7.5098   7.6768   7.8223   7.9543   8.0810   8.3334   8.4506
     8.7040   8.9658   9.1559   9.2817   9.3965   9.7744   9.9832  10.1065
    10.2193  10.3172  10.4790  10.5983  10.6911  10.8017  10.9668  11.0700
    13.9396  14.2974  14.6837  15.0214  15.4181  15.8890  16.2652  16.4594

          k = 0.1667-0.4811 0.0000 (  4476 PWs)   bands (ev):

   -36.6851 -36.6792 -36.6422 -36.6384 -36.5959 -36.5800 -36.4846 -36.4601
   -36.4004 -36.3995 -36.3765 -36.3316 -36.3178 -36.2947 -36.2801 -36.2529
   -36.2222 -36.1771 -36.1724 -36.1685 -35.9520 -35.9519 -35.8147 -35.8144
     4.8321   5.0317   5.0418   5.2456   5.2724   5.3335   5.4668   5.6717
     5.7427   5.8093   6.1351   6.2559   6.3710   6.6491   6.8535   7.0030
     7.2139   7.4760   7.6692   7.7272   7.8969   8.0556   8.1303   8.3787
     8.5886   8.8554   8.9024   9.0270   9.3106   9.6351   9.7474   9.8076
     9.8765  10.0293  10.3514  10.7083  10.7774  10.8834  11.0139  11.1623
    13.0581  13.2849  13.5311  13.9263  14.6121  15.5654  16.6350  17.6138

          k = 0.1667-0.3528 0.0000 (  4458 PWs)   bands (ev):

   -36.6146 -36.6092 -36.5866 -36.5785 -36.5312 -36.5292 -36.4878 -36.4415
   -36.3712 -36.3392 -36.3358 -36.2918 -36.2704 -36.2556 -36.2324 -36.2172
   -36.2077 -36.1404 -36.1002 -36.0998 -35.9007 -35.9005 -35.8208 -35.8205
     5.1213   5.2150   5.2867   5.3675   5.5151   5.6159   5.6700   5.7889
     5.8838   6.1134   6.1787   6.3585   6.3998   6.6728   6.7327   6.9144
     7.0773   7.2776   7.3073   7.3613   7.5691   7.7256   7.8090   8.0599
     8.0846   8.3185   8.6149   8.7437   8.8214   9.1515   9.2306   9.3886
     9.6010   9.7824  10.1243  10.3888  10.5370  10.6201  10.6378  10.8404
    11.2050  11.2721  11.3479  11.6844  12.6166  13.8096  15.1055  16.3977

          k = 0.1667-0.2245 0.0000 (  4433 PWs)   bands (ev):

   -36.6344 -36.6227 -36.5413 -36.4903 -36.4526 -36.4137 -36.3587 -36.3568
   -36.3266 -36.2739 -36.2679 -36.2614 -36.2122 -36.1981 -36.1920 -36.1673
   -36.1457 -36.1151 -35.9920 -35.9919 -35.8380 -35.8379 -35.8282 -35.8280
     4.3333   4.5601   4.9495   5.3854   5.5170   5.6460   5.8334   5.9083
     6.0217   6.1773   6.2617   6.3059   6.4636   6.6391   6.7106   6.9826
     7.2259   7.2891   7.4042   7.5099   7.6015   7.7111   7.7732   7.9802
     8.1243   8.3399   8.4785   8.5307   8.6884   8.8073   8.8828   8.9550
     9.1310   9.2648   9.4393   9.5624   9.5817   9.9262   9.9509   9.9880
    10.0902  10.4214  10.5469  10.6322  11.3884  12.4377  13.6160  14.7736

          k = 0.1667-0.0962 0.0000 (  4427 PWs)   bands (ev):

   -36.6790 -36.6527 -36.5375 -36.4305 -36.3543 -36.3160 -36.2799 -36.2612
   -36.2339 -36.2330 -36.2321 -36.2126 -36.1777 -36.1663 -36.1583 -36.1283
   -36.1127 -36.0935 -35.8946 -35.8943 -35.8353 -35.8351 -35.7990 -35.7988
     3.5141   3.8379   4.3740   4.9177   5.0438   5.1520   5.4139   5.4784
     6.3095   6.5655   6.6462   6.7163   6.8420   6.9053   6.9677   7.3774
     7.5444   7.5586   7.6755   7.7069   7.7879   7.8660   7.8787   7.9419
     8.0206   8.0210   8.1246   8.1558   8.2333   8.4117   8.5236   8.6303
     8.8123   8.8529   9.0322   9.1445   9.3183   9.4293   9.6668   9.7976
     9.9462  10.3530  10.5414  10.6837  10.8515  11.4671  12.5149  13.5090

          k = 0.2778 0.4811 0.0000 (  4485 PWs)   bands (ev):

   -36.6498 -36.6457 -36.6208 -36.6058 -36.5736 -36.5470 -36.5271 -36.4997
   -36.4487 -36.4428 -36.4214 -36.3754 -36.3618 -36.3495 -36.2852 -36.2659
   -36.2369 -36.1910 -36.1512 -36.1511 -36.0227 -36.0226 -35.8120 -35.8120
     5.2538   5.2725   5.4001   5.4436   5.5969   5.8016   5.9344   6.0305
     6.0776   6.1425   6.2129   6.2821   6.2899   6.5853   6.6551   6.9317
     6.9751   7.2751   7.2795   7.6020   7.6962   7.9406   7.9775   8.1647
     8.1929   8.6615   8.7560   8.8497   9.0585   9.1984   9.3761   9.4004
     9.7342  10.0219  10.3804  10.6562  10.7677  10.7774  10.8799  11.0567
    14.4158  14.5793  14.9302  15.4627  16.1941  17.1111  18.1054  18.7792

          k = 0.2778 0.6094 0.0000 (  4491 PWs)   bands (ev):

   -36.6415 -36.6354 -36.6076 -36.5954 -36.5677 -36.5602 -36.5358 -36.5095
   -36.4774 -36.4656 -36.4442 -36.4092 -36.3729 -36.3617 -36.2809 -36.2667
   -36.2348 -36.2079 -36.1433 -36.1431 -36.0546 -36.0545 -35.8108 -35.8106
     5.2236   5.4151   5.4851   5.6127   5.7009   5.7783   5.9152   5.9892
     6.0187   6.0762   6.2064   6.2830   6.3570   6.5603   6.6090   6.9704
     7.1008   7.2935   7.3714   7.5236   7.6698   7.8787   7.9309   8.2255
     8.2402   8.6313   8.7825   8.9692   9.0869   9.2174   9.3953   9.4558
    10.0437  10.2048  10.3977  10.4954  10.5871  10.6579  10.6979  10.8339
    15.6207  15.8438  16.2199  16.6393  16.9858  17.3614  17.7949  18.2708

          k = 0.2778-0.4170 0.0000 (  4462 PWs)   bands (ev):

   -36.6546 -36.6512 -36.6202 -36.6155 -36.5697 -36.5617 -36.5082 -36.4720
   -36.4141 -36.4093 -36.3964 -36.3390 -36.3322 -36.3138 -36.2834 -36.2611
   -36.2307 -36.1723 -36.1523 -36.1521 -35.9774 -35.9773 -35.8140 -35.8138
     5.1112   5.2482   5.2759   5.4366   5.4811   5.6491   5.7279   5.8981
     5.9369   6.1118   6.2566   6.3684   6.4974   6.5407   6.7467   6.8242
     6.9700   7.2222   7.3797   7.5372   7.8011   7.9594   8.0274   8.1869
     8.2351   8.4288   8.6668   8.9146   9.0768   9.2407   9.3462   9.5211
     9.5917   9.8549  10.3335  10.7266  10.8477  10.9073  10.9871  11.1624
    13.2465  13.3507  13.6019  14.0738  14.8337  15.8557  17.0195  18.2001

          k = 0.2778-0.2887 0.0000 (  4463 PWs)   bands (ev):

   -36.6330 -36.6258 -36.6122 -36.5989 -36.5510 -36.5248 -36.5002 -36.4478
   -36.3674 -36.3329 -36.3295 -36.2924 -36.2673 -36.2545 -36.2251 -36.2197
   -36.1823 -36.1467 -36.1218 -36.1205 -35.8882 -35.8881 -35.8204 -35.8202
     4.8722   4.9962   5.0790   5.1281   5.2657   5.3004   5.4693   5.5098
     5.7592   5.8617   6.0997   6.2649   6.5461   6.8149   7.0195   7.1906
     7.3124   7.3833   7.5124   7.6827   7.7643   7.9088   8.0664   8.3527
     8.4052   8.5536   8.7073   8.9370   9.1701   9.2948   9.3801   9.5314
     9.7594  10.0514  10.1693  10.3179  10.5023  10.6184  10.6611  10.8638
    11.0519  11.2400  11.2719  11.5877  12.5370  13.7752  15.1184  16.4491

          k = 0.2778-0.1604 0.0000 (  4458 PWs)   bands (ev):

   -36.6260 -36.6125 -36.5620 -36.5461 -36.5055 -36.4743 -36.4177 -36.4030
   -36.3463 -36.2801 -36.2789 -36.2789 -36.2244 -36.2187 -36.1992 -36.1655
   -36.1388 -36.1271 -36.0535 -36.0532 -35.8396 -35.8395 -35.8264 -35.8262
     4.4883   4.6940   4.9174   5.0067   5.1429   5.3696   5.5043   5.6047
     5.8542   5.9338   6.1071   6.4075   6.7499   6.8744   7.1216   7.2352
     7.4707   7.5637   7.6812   7.7093   7.8775   7.8929   8.1686   8.2717
     8.3799   8.5043   8.6580   8.6715   8.8728   9.0798   9.1977   9.2942
     9.3185   9.4007   9.5578   9.6034   9.7121   9.8399   9.9715  10.0977
    10.3631  10.3855  10.7289  10.9200  11.4635  12.7178  14.0350  15.2899

          k = 0.3889 0.6736 0.0000 (  4511 PWs)   bands (ev):

   -36.6773 -36.6705 -36.6305 -36.6236 -36.5887 -36.5764 -36.4942 -36.4840
   -36.4554 -36.4365 -36.4198 -36.3831 -36.3616 -36.3308 -36.2795 -36.2770
   -36.2304 -36.1978 -36.1689 -36.1687 -36.0131 -36.0129 -35.8119 -35.8116
     4.9479   5.1710   5.3320   5.4845   5.5276   5.5688   5.6605   5.8008
     5.9707   5.9791   6.1337   6.4140   6.4154   6.4867   6.5047   6.9250
     7.0663   7.4106   7.5576   7.7186   7.8854   7.9124   8.2071   8.2940
     8.5257   8.6673   8.7250   8.9256   9.2461   9.4970   9.6744   9.7890
    10.2350  10.2400  10.4126  10.4720  10.5952  10.7268  10.8576  10.8798
    15.1442  15.3925  15.6691  15.9298  16.2128  16.5613  16.9197  17.2053

          k = 0.3889-0.3528 0.0000 (  4485 PWs)   bands (ev):

   -36.7187 -36.7123 -36.6723 -36.6659 -36.6263 -36.6058 -36.4712 -36.4560
   -36.3813 -36.3729 -36.3524 -36.3113 -36.3043 -36.2954 -36.2541 -36.2481
   -36.2069 -36.1962 -36.1898 -36.1730 -35.9208 -35.9208 -35.8158 -35.8152
     4.5611   4.7469   4.7716   4.8986   4.9936   5.0710   5.1466   5.3589
     5.5027   5.6085   5.7727   6.0965   6.4555   6.7586   6.9903   7.3177
     7.3754   7.5484   7.6684   7.8108   8.1267   8.2165   8.5323   8.7601
     8.8608   9.2540   9.4748   9.5850   9.7663   9.9711  10.2379  10.3131
    10.3352  10.4043  10.4620  10.7230  10.7622  10.8628  11.0230  11.1674
    12.6701  13.0912  13.4902  13.7391  14.2134  15.0082  15.8823  16.5537

          k = 0.3889-0.2245 0.0000 (  4444 PWs)   bands (ev):

   -36.6947 -36.6873 -36.6622 -36.6443 -36.6117 -36.5728 -36.4898 -36.4575
   -36.3655 -36.3208 -36.3190 -36.3078 -36.2642 -36.2559 -36.2345 -36.1980
   -36.1863 -36.1753 -36.1604 -36.1573 -35.8750 -35.8747 -35.8190 -35.8187
     4.5151   4.5619   4.6687   4.8044   4.8458   4.9605   5.0702   5.1561
     5.4496   5.5409   5.5966   6.1309   6.6257   6.9955   7.2620   7.3363
     7.4608   7.6641   7.6778   7.9356   8.1355   8.2381   8.7316   8.7340
     8.9917   9.3346   9.6930   9.8698   9.8961  10.2465  10.2658  10.3586
    10.4210  10.4972  10.5188  10.5480  10.6644  10.7050  10.8120  10.9213
    11.0317  11.0374  11.3625  11.4835  12.5117  13.8765  15.2965  16.6801

          k =-0.5000-0.8660 0.0000 (  4492 PWs)   bands (ev):

   -36.7506 -36.7458 -36.7000 -36.6998 -36.6537 -36.6365 -36.4685 -36.4602
   -36.3432 -36.3378 -36.3352 -36.3220 -36.2846 -36.2801 -36.2482 -36.2271
   -36.2163 -36.2111 -36.1788 -36.1695 -35.8891 -35.8891 -35.8167 -35.8167
     4.2850   4.4622   4.4931   4.6298   4.7084   4.8358   4.8493   5.0363
     5.2970   5.3184   5.4439   5.9934   6.5591   6.8952   7.1124   7.2153
     7.3530   7.5814   7.9587   8.0647   8.2180   8.6072   8.7052   9.1226
     9.3703   9.5454  10.0396  10.1086  10.5080  10.5170  10.7383  10.8358
    10.8458  10.9033  10.9441  10.9683  11.0370  11.1490  11.3086  11.3144
    11.6090  12.5713  13.4697  13.7682  14.1518  14.2470  14.5130  14.5456

     the Fermi energy is    10.2856 ev

!    total energy              =   -1369.42565114 Ry
     estimated scf accuracy    <       0.00000001 Ry
     smearing contrib. (-TS)   =      -0.03443676 Ry
     internal energy E=F+TS    =   -1369.39121438 Ry

     The total energy is F=E-TS. E is the sum of the following terms:
     one-electron contribution =  -12586.24153218 Ry
     hartree contribution      =    6353.90950452 Ry
     xc contribution           =    -239.30614337 Ry
     ewald contribution        =    5102.24695665 Ry

     total magnetization       =    -0.00 Bohr mag/cell
     absolute magnetization    =     0.00 Bohr mag/cell

     convergence has been achieved in  10 iterations

     negative rho (up, down):  2.298E-01 2.298E-01

     Forces acting on atoms (cartesian axes, Ry/au):

     atom    1 type  1   force =     0.00000000    0.00000000    0.00018943
     atom    2 type  1   force =     0.00000000    0.00000000    0.00177887
     atom    3 type  1   force =     0.00000000    0.00000000    0.00024583
     atom    4 type  1   force =     0.00000000    0.00000000   -0.00066656
     atom    5 type  1   force =     0.00000000    0.00000000    0.00066394
     atom    6 type  1   force =     0.00000000    0.00000000   -0.00024444
     atom    7 type  1   force =     0.00000000    0.00000000   -0.00177749
     atom    8 type  1   force =     0.00000000    0.00000000   -0.00018958

     Total force =     0.002720     Total SCF correction =     0.000906
     SCF correction compared to forces is large: reduce conv_thr to get better values
     Energy error            =      1.5E-05
     Gradient error          =      1.8E-03

     number of scf cycles    =   6
     number of bfgs steps    =   5

     energy   old            =   -1369.4256364945 Ry
     energy   new            =   -1369.4256511374 Ry

     CASE: energy  _new < energy  _old

     new trust radius        =       0.0037001291 bohr
     new conv_thr            =       0.0000001000 Ry


ATOMIC_POSITIONS (angstrom)
Rh            0.0000000000        0.0000000000        0.0320394367
Rh            2.7108568000        1.5651139000        2.2049443578
Rh            1.3554284000        0.7825569000        4.4071030435
Rh            0.0000000000        0.0000000000        6.6367901335
Rh            2.7108568000        1.5651139000        8.8570024999
Rh            1.3554284000        0.7825569000       11.0867340071
Rh            0.0000000000        0.0000000000       13.2889210510
Rh            2.7108568000        1.5651139000       15.4618135706



     Writing output data file /home/STUDENTI/leonardo.razzai/WORK/relax_surf/8-L.save/
     NEW-OLD atomic charge density approx. for the potential

     negative rho (up, down):  2.297E-01 2.297E-01
     Generating pointlists ...

     total cpu time spent up to now is     1388.5 secs

     Self-consistent Calculation

     iteration #  1     ecut=    35.00 Ry     beta= 0.40
     Davidson diagonalization with overlap
     ethr =  1.00E-06,  avg # of iterations =  4.0

     negative rho (up, down):  2.297E-01 2.297E-01

     total cpu time spent up to now is     1419.7 secs

     total energy              =   -1369.42554658 Ry
     estimated scf accuracy    <       0.00614328 Ry

     total magnetization       =    -0.00 Bohr mag/cell
     absolute magnetization    =     0.00 Bohr mag/cell

     iteration #  2     ecut=    35.00 Ry     beta= 0.40
     Davidson diagonalization with overlap
     ethr =  5.12E-06,  avg # of iterations =  1.0

     negative rho (up, down):  2.297E-01 2.297E-01

     total cpu time spent up to now is     1436.3 secs

     total energy              =   -1369.42562845 Ry
     estimated scf accuracy    <       0.00308551 Ry

     total magnetization       =    -0.00 Bohr mag/cell
     absolute magnetization    =     0.00 Bohr mag/cell

     iteration #  3     ecut=    35.00 Ry     beta= 0.40
     Davidson diagonalization with overlap
     ethr =  2.57E-06,  avg # of iterations =  1.0

     negative rho (up, down):  2.297E-01 2.297E-01

     total cpu time spent up to now is     1452.5 secs

     total energy              =   -1369.42566431 Ry
     estimated scf accuracy    <       0.00023700 Ry

     total magnetization       =    -0.00 Bohr mag/cell
     absolute magnetization    =     0.00 Bohr mag/cell

     iteration #  4     ecut=    35.00 Ry     beta= 0.40
     Davidson diagonalization with overlap
     ethr =  1.98E-07,  avg # of iterations =  1.0

     negative rho (up, down):  2.297E-01 2.297E-01

     total cpu time spent up to now is     1468.6 secs

     total energy              =   -1369.42566077 Ry
     estimated scf accuracy    <       0.00012945 Ry

     total magnetization       =    -0.00 Bohr mag/cell
     absolute magnetization    =     0.00 Bohr mag/cell

     iteration #  5     ecut=    35.00 Ry     beta= 0.40
     Davidson diagonalization with overlap
     ethr =  1.08E-07,  avg # of iterations =  1.0

     negative rho (up, down):  2.297E-01 2.297E-01

     total cpu time spent up to now is     1484.7 secs

     total energy              =   -1369.42566262 Ry
     estimated scf accuracy    <       0.00000098 Ry

     total magnetization       =    -0.00 Bohr mag/cell
     absolute magnetization    =     0.00 Bohr mag/cell

     iteration #  6     ecut=    35.00 Ry     beta= 0.40
     Davidson diagonalization with overlap
     ethr =  8.16E-10,  avg # of iterations =  2.4

     negative rho (up, down):  2.297E-01 2.297E-01

     total cpu time spent up to now is     1502.9 secs

     total energy              =   -1369.42566264 Ry
     estimated scf accuracy    <       0.00000044 Ry

     total magnetization       =    -0.00 Bohr mag/cell
     absolute magnetization    =     0.00 Bohr mag/cell

     iteration #  7     ecut=    35.00 Ry     beta= 0.40
     Davidson diagonalization with overlap
     ethr =  3.65E-10,  avg # of iterations =  1.1

     negative rho (up, down):  2.297E-01 2.297E-01

     total cpu time spent up to now is     1519.1 secs

     total energy              =   -1369.42566267 Ry
     estimated scf accuracy    <       0.00000027 Ry

     total magnetization       =     0.00 Bohr mag/cell
     absolute magnetization    =     0.00 Bohr mag/cell

     iteration #  8     ecut=    35.00 Ry     beta= 0.40
     Davidson diagonalization with overlap
     ethr =  2.25E-10,  avg # of iterations =  1.2

     negative rho (up, down):  2.297E-01 2.297E-01

     total cpu time spent up to now is     1535.5 secs

     total energy              =   -1369.42566275 Ry
     estimated scf accuracy    <       0.00000016 Ry

     total magnetization       =     0.00 Bohr mag/cell
     absolute magnetization    =     0.00 Bohr mag/cell

     iteration #  9     ecut=    35.00 Ry     beta= 0.40
     Davidson diagonalization with overlap
     ethr =  1.32E-10,  avg # of iterations =  2.3

     negative rho (up, down):  2.297E-01 2.297E-01

     total cpu time spent up to now is     1553.8 secs

     total energy              =   -1369.42566286 Ry
     estimated scf accuracy    <       0.00000011 Ry

     total magnetization       =     0.00 Bohr mag/cell
     absolute magnetization    =     0.00 Bohr mag/cell

     iteration # 10     ecut=    35.00 Ry     beta= 0.40
     Davidson diagonalization with overlap
     ethr =  9.03E-11,  avg # of iterations =  1.2

     negative rho (up, down):  2.297E-01 2.297E-01
 
     Magnetic moment per site:
     atom:    1    charge:   13.1084    magn:    0.0000    constr:    0.0000
     atom:    2    charge:   13.1646    magn:    0.0000    constr:    0.0000
     atom:    3    charge:   13.1599    magn:    0.0000    constr:    0.0000
     atom:    4    charge:   13.1551    magn:    0.0000    constr:    0.0000
     atom:    5    charge:   13.1558    magn:   -0.0000    constr:    0.0000
     atom:    6    charge:   13.1590    magn:    0.0000    constr:    0.0000
     atom:    7    charge:   13.1646    magn:    0.0000    constr:    0.0000
     atom:    8    charge:   13.1080    magn:    0.0000    constr:    0.0000

     total cpu time spent up to now is     1570.1 secs

     End of self-consistent calculation

 ------ SPIN UP ------------


          k = 0.0556 0.0962 0.0000 (  4451 PWs)   bands (ev):

   -36.7122 -36.6796 -36.5438 -36.4073 -36.2828 -36.2416 -36.2290 -36.2138
   -36.2127 -36.1838 -36.1698 -36.1598 -36.1506 -36.1351 -36.1218 -36.1032
   -36.1018 -36.0795 -35.8429 -35.8428 -35.8108 -35.8106 -35.7791 -35.7789
     2.9383   3.2942   3.8827   4.4690   4.6753   4.6930   4.9870   5.0006
     6.7882   6.8546   7.0498   7.0776   7.0944   7.1719   7.3722   7.4357
     7.5136   7.5145   7.5294   7.5943   7.6291   7.6402   7.7322   7.7751
     7.8209   7.8419   7.8863   8.1117   8.1235   8.2037   8.7984   8.9757
     8.9888   9.1436   9.2401   9.3572   9.4337   9.5390   9.6062   9.7226
     9.8493  10.1825  10.2437  10.5920  10.7384  10.8032  11.5326  12.3415

          k = 0.0556 0.2245 0.0000 (  4420 PWs)   bands (ev):

   -36.6614 -36.6422 -36.5356 -36.4546 -36.3990 -36.3584 -36.3130 -36.3045
   -36.2800 -36.2467 -36.2463 -36.2396 -36.1921 -36.1843 -36.1712 -36.1436
   -36.1193 -36.1046 -35.9371 -35.9368 -35.8313 -35.8311 -35.8120 -35.8119
     3.8578   4.1466   4.6356   5.1298   5.2308   5.3782   5.6228   5.7280
     6.1252   6.3535   6.5020   6.5255   6.6496   6.7675   6.8267   7.2329
     7.4205   7.4979   7.6036   7.6871   7.7596   7.8002   7.8702   7.9245
     8.0960   8.2258   8.2905   8.3379   8.5096   8.5987   8.6888   8.6945
     8.7967   8.9313   9.0589   9.1744   9.3979   9.5791   9.7347   9.8195
    10.0948  10.3106  10.5658  10.7624  10.9568  11.8980  13.0015  14.0724

          k = 0.0556 0.3528 0.0000 (  4467 PWs)   bands (ev):

   -36.6269 -36.6144 -36.5911 -36.5809 -36.5220 -36.5142 -36.4618 -36.4303
   -36.3595 -36.3017 -36.2992 -36.2870 -36.2405 -36.2311 -36.2130 -36.1867
   -36.1508 -36.1370 -36.0902 -36.0895 -35.8559 -35.8557 -35.8225 -35.8223
     4.6558   4.8646   4.9639   5.0010   5.1433   5.2745   5.4291   5.4931
     5.7771   5.8806   6.0269   6.3224   6.7268   6.8651   7.1758   7.2010
     7.5041   7.5196   7.6162   7.6606   7.7847   7.9314   8.1464   8.3571
     8.4719   8.6116   8.7661   8.8412   9.0754   9.2994   9.4234   9.4723
     9.6163   9.7562   9.8364  10.0088  10.1216  10.1538  10.3463  10.4012
    10.4500  10.6505  10.7880  10.8602  11.8530  13.1317  14.4863  15.7942

          k = 0.0556 0.4811 0.0000 (  4463 PWs)   bands (ev):

   -36.7160 -36.7097 -36.6759 -36.6636 -36.6257 -36.5957 -36.4805 -36.4590
   -36.3650 -36.3407 -36.3364 -36.3082 -36.2798 -36.2709 -36.2417 -36.2208
   -36.1948 -36.1910 -36.1735 -36.1636 -35.8888 -35.8886 -35.8162 -35.8157
     4.4780   4.5889   4.6551   4.7948   4.8360   4.9702   5.0258   5.1799
     5.4418   5.4961   5.6046   6.0848   6.5554   6.9153   7.1636   7.3258
     7.4114   7.6049   7.7024   7.9396   8.1926   8.2615   8.6980   8.8423
     9.0092   9.4080   9.6246   9.8682   9.9962  10.1283  10.3707  10.4363
    10.5024  10.5586  10.6080  10.6468  10.7456  10.8193  10.9596  11.0914
    11.4810  11.9517  12.3334  12.4625  13.1233  14.2731  15.5402  16.7132

          k = 0.0556-0.5453 0.0000 (  4486 PWs)   bands (ev):

   -36.7441 -36.7381 -36.6953 -36.6909 -36.6464 -36.6270 -36.4691 -36.4593
   -36.3595 -36.3492 -36.3391 -36.3144 -36.2915 -36.2837 -36.2490 -36.2323
   -36.2126 -36.2099 -36.1776 -36.1742 -35.8964 -35.8962 -35.8149 -35.8145
     4.3586   4.5346   4.5637   4.6938   4.7812   4.8968   4.9209   5.1221
     5.3529   5.4009   5.5247   6.0201   6.5396   6.8513   7.0869   7.2661
     7.3605   7.6068   7.7768   8.0567   8.1635   8.4576   8.8045   8.9053
     9.2796   9.5290   9.7761  10.1168  10.2785  10.3829  10.4815  10.6458
    10.7317  10.7726  10.8291  10.8574  10.9233  10.9835  11.1230  11.1944
    12.0938  12.7779  13.4850  13.8111  13.8928  14.3341  14.9884  15.4564

          k = 0.0556-0.4170 0.0000 (  4465 PWs)   bands (ev):

   -36.6657 -36.6586 -36.6424 -36.6249 -36.5826 -36.5411 -36.5016 -36.4549
   -36.3671 -36.3242 -36.3217 -36.2995 -36.2628 -36.2519 -36.2291 -36.2053
   -36.1668 -36.1592 -36.1495 -36.1435 -35.8749 -35.8748 -35.8188 -35.8184
     4.6594   4.6963   4.8179   4.9119   4.9940   5.0870   5.2158   5.2851
     5.5802   5.6764   5.7692   6.1977   6.6163   6.9687   7.2706   7.3710
     7.5093   7.5200   7.6581   7.7692   7.9326   8.2388   8.3450   8.5186
     8.8283   9.0690   9.2708   9.3785   9.5199   9.7532   9.9403  10.0126
    10.0764  10.2153  10.2636  10.3730  10.4395  10.5884  10.7094  10.8586
    10.9352  11.0974  11.1851  11.4270  12.4355  13.7606  15.1707  16.5541

          k = 0.0556-0.2887 0.0000 (  4439 PWs)   bands (ev):

   -36.6331 -36.6220 -36.5468 -36.5137 -36.4765 -36.4362 -36.3795 -36.3771
   -36.3329 -36.2753 -36.2725 -36.2682 -36.2154 -36.2086 -36.1934 -36.1654
   -36.1340 -36.1197 -36.0156 -36.0154 -35.8340 -35.8338 -35.8265 -35.8262
     4.3806   4.5925   4.9171   5.1719   5.2708   5.4853   5.6949   5.7631
     6.0081   6.0618   6.2602   6.4175   6.5625   6.6943   6.9666   7.0193
     7.3549   7.5742   7.6489   7.7271   7.7439   7.8648   7.9319   8.0583
     8.1547   8.2710   8.5033   8.6558   8.6870   8.8126   8.9747   9.0262
     9.1786   9.2757   9.4141   9.5421   9.6192   9.8516   9.9602  10.0319
    10.1405  10.4880  10.6090  10.8046  11.3707  12.5067  13.7506  14.9482

          k = 0.0556-0.1604 0.0000 (  4443 PWs)   bands (ev):

   -36.6906 -36.6632 -36.5383 -36.4217 -36.3297 -36.2919 -36.2608 -36.2451
   -36.2332 -36.2196 -36.2100 -36.2001 -36.1663 -36.1595 -36.1488 -36.1221
   -36.1089 -36.0912 -35.8680 -35.8678 -35.8350 -35.8350 -35.7931 -35.7930
     3.3338   3.6698   4.2328   4.8045   4.9697   5.0135   5.2976   5.3320
     6.4864   6.6458   6.7409   6.8154   6.8996   6.9557   7.1278   7.2872
     7.5192   7.5309   7.6706   7.6992   7.7738   7.7908   7.8098   7.8482
     7.8974   7.9421   8.0920   8.1376   8.2499   8.3873   8.4300   8.8037
     8.8782   8.9595   9.0507   9.0871   9.3764   9.4803   9.5950   9.7245
    10.0577  10.1407  10.5655  10.5839  10.7451  11.3146  12.2501  13.1867

          k = 0.0556-0.0321 0.0000 (  4465 PWs)   bands (ev):

   -36.7238 -36.6887 -36.5479 -36.4031 -36.2648 -36.2141 -36.2103 -36.2037
   -36.2030 -36.1581 -36.1468 -36.1436 -36.1335 -36.1265 -36.1049 -36.1020
   -36.0839 -36.0724 -35.8449 -35.8444 -35.7830 -35.7826 -35.7717 -35.7715
     2.7289   3.0918   3.6878   4.2774   4.5040   4.5166   4.8071   4.8138
     6.9695   7.0217   7.2002   7.2189   7.2549   7.3001   7.3573   7.4031
     7.4262   7.4493   7.4694   7.5140   7.5570   7.6302   7.6630   7.7006
     7.7473   7.8593   7.9397   7.9707   7.9920   8.4736   9.1028   9.1058
     9.2356   9.2672   9.3270   9.3997   9.4144   9.5684   9.6715   9.9018
     9.9759  10.1250  10.3224  10.3313  10.6449  10.7992  10.9555  11.6868

          k = 0.1667 0.2887 0.0000 (  4425 PWs)   bands (ev):

   -36.6126 -36.6122 -36.5563 -36.5368 -36.5063 -36.4746 -36.4238 -36.4047
   -36.3577 -36.3047 -36.3008 -36.2797 -36.2392 -36.2259 -36.2073 -36.1940
   -36.1804 -36.1250 -36.0471 -36.0470 -35.8668 -35.8667 -35.8228 -35.8227
     4.8627   4.9582   5.1723   5.4482   5.7408   5.8118   5.8308   5.9140
     5.9545   6.0404   6.1096   6.2199   6.3796   6.4834   6.9073   6.9811
     6.9938   7.1593   7.3443   7.4102   7.4424   7.5054   7.6028   8.1437
     8.1593   8.3658   8.3856   8.5736   8.7814   9.0089   9.2022   9.2218
     9.4380   9.6155   9.8437  10.0525  10.0842  10.2142  10.3958  10.4634
    10.4893  10.5618  10.6513  10.9053  11.9074  13.0640  14.3192  15.5588

          k = 0.1667 0.4170 0.0000 (  4459 PWs)   bands (ev):

   -36.6502 -36.6460 -36.6203 -36.6133 -36.5671 -36.5451 -36.5075 -36.4592
   -36.3775 -36.3747 -36.3687 -36.3084 -36.2999 -36.2815 -36.2647 -36.2349
   -36.2181 -36.1569 -36.1418 -36.1405 -35.9290 -35.9286 -35.8159 -35.8154
     5.0300   5.0918   5.1875   5.3060   5.4083   5.4324   5.6349   5.6868
     5.7809   5.9209   6.2079   6.3392   6.4377   6.7058   6.8609   7.0262
     7.1090   7.2352   7.4453   7.5948   7.8167   7.9676   8.0039   8.2110
     8.3147   8.4420   8.6680   8.9736   9.1574   9.2240   9.3424   9.5659
     9.6977   9.8903  10.2619  10.6620  10.7533  10.8369  10.9010  11.0663
    12.0968  12.2331  12.3646  12.7539  13.5647  14.6932  15.9661  17.2580

          k = 0.1667 0.5453 0.0000 (  4490 PWs)   bands (ev):

   -36.7069 -36.7011 -36.6580 -36.6549 -36.6123 -36.5955 -36.4698 -36.4609
   -36.4164 -36.4162 -36.3774 -36.3501 -36.3283 -36.3020 -36.2791 -36.2685
   -36.2220 -36.1887 -36.1867 -36.1826 -35.9627 -35.9624 -35.8121 -35.8116
     4.7207   4.9475   5.0084   5.1510   5.2357   5.2960   5.3645   5.6443
     5.6746   5.7938   6.0760   6.2173   6.3363   6.5447   6.7485   7.1491
     7.2482   7.5104   7.6775   7.8199   7.9531   8.0811   8.3336   8.4519
     8.7048   8.9657   9.1568   9.2821   9.3962   9.7739   9.9835  10.1066
    10.2192  10.3169  10.4794  10.5988  10.6916  10.8024  10.9671  11.0704
    13.9394  14.2970  14.6841  15.0218  15.4185  15.8888  16.2662  16.4599

          k = 0.1667-0.4811 0.0000 (  4476 PWs)   bands (ev):

   -36.6866 -36.6809 -36.6440 -36.6405 -36.5953 -36.5789 -36.4858 -36.4613
   -36.4015 -36.4006 -36.3757 -36.3322 -36.3189 -36.2957 -36.2800 -36.2532
   -36.2217 -36.1762 -36.1718 -36.1678 -35.9509 -35.9507 -35.8133 -35.8130
     4.8305   5.0279   5.0402   5.2434   5.2688   5.3313   5.4667   5.6724
     5.7440   5.8095   6.1355   6.2564   6.3708   6.6457   6.8536   7.0018
     7.2134   7.4752   7.6670   7.7279   7.8971   8.0561   8.1292   8.3807
     8.5894   8.8559   8.9033   9.0270   9.3103   9.6347   9.7482   9.8066
     9.8763  10.0293  10.3522  10.7087  10.7777  10.8839  11.0141  11.1626
    13.0580  13.2844  13.5316  13.9268  14.6127  15.5659  16.6367  17.6145

          k = 0.1667-0.3528 0.0000 (  4458 PWs)   bands (ev):

   -36.6170 -36.6119 -36.5879 -36.5806 -36.5305 -36.5289 -36.4876 -36.4421
   -36.3711 -36.3402 -36.3368 -36.2926 -36.2711 -36.2574 -36.2315 -36.2179
   -36.2067 -36.1397 -36.0993 -36.0989 -35.8995 -35.8993 -35.8195 -35.8192
     5.1200   5.2133   5.2838   5.3641   5.5147   5.6140   5.6668   5.7901
     5.8824   6.1147   6.1777   6.3572   6.3998   6.6735   6.7327   6.9138
     7.0757   7.2755   7.3058   7.3626   7.5700   7.7264   7.8091   8.0606
     8.0853   8.3178   8.6161   8.7441   8.8218   9.1512   9.2309   9.3878
     9.5996   9.7819  10.1249  10.3890  10.5372  10.6205  10.6379  10.8409
    11.2050  11.2721  11.3479  11.6850  12.6174  13.8106  15.1076  16.3991

          k = 0.1667-0.2245 0.0000 (  4433 PWs)   bands (ev):

   -36.6369 -36.6259 -36.5408 -36.4917 -36.4531 -36.4139 -36.3586 -36.3570
   -36.3278 -36.2748 -36.2691 -36.2621 -36.2122 -36.1986 -36.1934 -36.1671
   -36.1447 -36.1145 -35.9909 -35.9908 -35.8368 -35.8367 -35.8270 -35.8268
     4.3324   4.5571   4.9492   5.3846   5.5155   5.6425   5.8329   5.9076
     6.0207   6.1751   6.2620   6.3065   6.4626   6.6385   6.7110   6.9827
     7.2263   7.2892   7.4043   7.5102   7.6019   7.7080   7.7729   7.9802
     8.1252   8.3391   8.4789   8.5315   8.6871   8.8074   8.8810   8.9550
     9.1311   9.2649   9.4399   9.5629   9.5823   9.9258   9.9511   9.9882
    10.0895  10.4230  10.5468  10.6328  11.3893  12.4389  13.6170  14.7751

          k = 0.1667-0.0962 0.0000 (  4427 PWs)   bands (ev):

   -36.6811 -36.6559 -36.5365 -36.4316 -36.3552 -36.3165 -36.2802 -36.2620
   -36.2353 -36.2344 -36.2335 -36.2125 -36.1773 -36.1657 -36.1596 -36.1287
   -36.1122 -36.0926 -35.8934 -35.8931 -35.8341 -35.8339 -35.7978 -35.7976
     3.5133   3.8349   4.3746   4.9164   5.0426   5.1504   5.4144   5.4788
     6.3088   6.5635   6.6448   6.7153   6.8410   6.9036   6.9689   7.3787
     7.5440   7.5594   7.6757   7.7049   7.7881   7.8613   7.8794   7.9407
     8.0177   8.0213   8.1248   8.1573   8.2347   8.4122   8.5246   8.6305
     8.8128   8.8531   9.0331   9.1435   9.3167   9.4303   9.6673   9.7975
     9.9466  10.3518  10.5423  10.6846  10.8522  11.4686  12.5148  13.5105

          k = 0.2778 0.4811 0.0000 (  4485 PWs)   bands (ev):

   -36.6514 -36.6475 -36.6224 -36.6083 -36.5720 -36.5473 -36.5286 -36.5008
   -36.4487 -36.4437 -36.4210 -36.3752 -36.3626 -36.3508 -36.2858 -36.2668
   -36.2364 -36.1899 -36.1504 -36.1503 -36.0217 -36.0216 -35.8106 -35.8105
     5.2522   5.2703   5.3961   5.4409   5.5959   5.7992   5.9318   6.0318
     6.0777   6.1413   6.2125   6.2821   6.2863   6.5856   6.6549   6.9309
     6.9755   7.2743   7.2799   7.6013   7.6965   7.9411   7.9780   8.1660
     8.1941   8.6616   8.7575   8.8507   9.0592   9.1983   9.3757   9.3995
     9.7337  10.0218  10.3812  10.6565  10.7681  10.7774  10.8805  11.0570
    14.4157  14.5787  14.9307  15.4632  16.1947  17.1116  18.1065  18.7798

          k = 0.2778 0.6094 0.0000 (  4491 PWs)   bands (ev):

   -36.6430 -36.6372 -36.6094 -36.5979 -36.5670 -36.5610 -36.5372 -36.5092
   -36.4775 -36.4663 -36.4441 -36.4089 -36.3736 -36.3626 -36.2826 -36.2679
   -36.2336 -36.2065 -36.1424 -36.1422 -36.0536 -36.0535 -35.8093 -35.8091
     5.2219   5.4102   5.4838   5.6096   5.7007   5.7763   5.9109   5.9893
     6.0163   6.0756   6.2074   6.2830   6.3566   6.5600   6.6086   6.9703
     7.1007   7.2941   7.3703   7.5230   7.6703   7.8795   7.9313   8.2266
     8.2412   8.6315   8.7848   8.9698   9.0875   9.2168   9.3949   9.4553
    10.0433  10.2045  10.3985  10.4957  10.5874  10.6585  10.6983  10.8343
    15.6206  15.8433  16.2203  16.6396  16.9859  17.3610  17.7958  18.2713

          k = 0.2778-0.4170 0.0000 (  4462 PWs)   bands (ev):

   -36.6562 -36.6530 -36.6222 -36.6176 -36.5686 -36.5612 -36.5096 -36.4733
   -36.4148 -36.4099 -36.3956 -36.3397 -36.3335 -36.3152 -36.2829 -36.2612
   -36.2308 -36.1713 -36.1515 -36.1513 -35.9763 -35.9762 -35.8126 -35.8124
     5.1096   5.2468   5.2718   5.4329   5.4802   5.6461   5.7282   5.8984
     5.9361   6.1120   6.2562   6.3684   6.4977   6.5378   6.7455   6.8243
     6.9702   7.2204   7.3795   7.5368   7.8018   7.9599   8.0280   8.1883
     8.2360   8.4286   8.6687   8.9150   9.0769   9.2407   9.3468   9.5203
     9.5906   9.8546  10.3344  10.7270  10.8480  10.9077  10.9875  11.1627
    13.2464  13.3501  13.6024  14.0743  14.8344  15.8564  17.0213  18.2012

          k = 0.2778-0.2887 0.0000 (  4463 PWs)   bands (ev):

   -36.6349 -36.6280 -36.6137 -36.6014 -36.5502 -36.5238 -36.5007 -36.4486
   -36.3674 -36.3341 -36.3307 -36.2935 -36.2672 -36.2553 -36.2255 -36.2202
   -36.1815 -36.1459 -36.1210 -36.1198 -35.8870 -35.8869 -35.8190 -35.8188
     4.8710   4.9947   5.0759   5.1246   5.2632   5.2992   5.4675   5.5107
     5.7603   5.8625   6.1001   6.2651   6.5458   6.8147   7.0183   7.1882
     7.3108   7.3824   7.5111   7.6831   7.7648   7.9087   8.0661   8.3535
     8.4064   8.5539   8.7079   8.9370   9.1699   9.2949   9.3808   9.5301
     9.7584  10.0515  10.1698  10.3176  10.5023  10.6187  10.6618  10.8643
    11.0520  11.2398  11.2722  11.5884  12.5377  13.7761  15.1206  16.4505

          k = 0.2778-0.1604 0.0000 (  4458 PWs)   bands (ev):

   -36.6285 -36.6157 -36.5628 -36.5477 -36.5049 -36.4738 -36.4176 -36.4034
   -36.3469 -36.2815 -36.2804 -36.2796 -36.2238 -36.2191 -36.2003 -36.1660
   -36.1381 -36.1263 -36.0524 -36.0522 -35.8384 -35.8383 -35.8251 -35.8249
     4.4873   4.6909   4.9165   5.0053   5.1415   5.3670   5.5053   5.6023
     5.8544   5.9345   6.1076   6.4073   6.7494   6.8732   7.1204   7.2345
     7.4716   7.5641   7.6814   7.7071   7.8774   7.8874   8.1688   8.2736
     8.3808   8.5049   8.6576   8.6713   8.8721   9.0788   9.1980   9.2948
     9.3192   9.4005   9.5577   9.6026   9.7131   9.8402   9.9718  10.0981
    10.3634  10.3842  10.7300  10.9208  11.4645  12.7191  14.0364  15.2915

          k = 0.3889 0.6736 0.0000 (  4511 PWs)   bands (ev):

   -36.6788 -36.6722 -36.6321 -36.6259 -36.5882 -36.5754 -36.4959 -36.4853
   -36.4563 -36.4375 -36.4186 -36.3832 -36.3624 -36.3317 -36.2810 -36.2771
   -36.2299 -36.1966 -36.1682 -36.1680 -36.0120 -36.0118 -35.8105 -35.8102
     4.9463   5.1664   5.3307   5.4811   5.5256   5.5703   5.6564   5.8001
     5.9706   5.9807   6.1322   6.4117   6.4154   6.4867   6.5052   6.9249
     7.0662   7.4107   7.5548   7.7196   7.8852   7.9127   8.2074   8.2939
     8.5280   8.6684   8.7259   8.9255   9.2459   9.4964   9.6747   9.7891
    10.2347  10.2391  10.4136  10.4724  10.5957  10.7276  10.8580  10.8802
    15.1441  15.3923  15.6690  15.9299  16.2132  16.5608  16.9210  17.2061

          k = 0.3889-0.3528 0.0000 (  4485 PWs)   bands (ev):

   -36.7201 -36.7140 -36.6740 -36.6679 -36.6258 -36.6047 -36.4721 -36.4569
   -36.3827 -36.3745 -36.3524 -36.3119 -36.3045 -36.2959 -36.2545 -36.2486
   -36.2061 -36.1958 -36.1893 -36.1722 -35.9197 -35.9196 -35.8143 -35.8138
     4.5596   4.7456   4.7676   4.8969   4.9900   5.0675   5.1476   5.3595
     5.5041   5.6095   5.7735   6.0969   6.4554   6.7557   6.9900   7.3159
     7.3752   7.5492   7.6683   7.8087   8.1245   8.2181   8.5312   8.7611
     8.8615   9.2541   9.4744   9.5857   9.7664   9.9706  10.2379  10.3131
    10.3353  10.4046  10.4624  10.7231  10.7628  10.8632  11.0233  11.1678
    12.6700  13.0908  13.4909  13.7395  14.2139  15.0082  15.8838  16.5543

          k = 0.3889-0.2245 0.0000 (  4444 PWs)   bands (ev):

   -36.6962 -36.6890 -36.6639 -36.6469 -36.6106 -36.5719 -36.4906 -36.4584
   -36.3655 -36.3222 -36.3205 -36.3090 -36.2634 -36.2561 -36.2356 -36.1986
   -36.1854 -36.1748 -36.1598 -36.1566 -35.8738 -35.8736 -35.8176 -35.8173
     4.5136   4.5608   4.6649   4.8014   4.8435   4.9611   5.0669   5.1569
     5.4508   5.5421   5.5975   6.1312   6.6258   6.9951   7.2625   7.3367
     7.4588   7.6638   7.6724   7.9342   8.1378   8.2365   8.7306   8.7344
     8.9929   9.3348   9.6935   9.8705   9.8947  10.2466  10.2658  10.3580
    10.4200  10.4969  10.5178  10.5482  10.6648  10.7055  10.8125  10.9224
    11.0326  11.0376  11.3631  11.4844  12.5123  13.8769  15.2988  16.6814

          k =-0.5000-0.8660 0.0000 (  4492 PWs)   bands (ev):

   -36.7521 -36.7474 -36.7021 -36.7011 -36.6535 -36.6353 -36.4691 -36.4609
   -36.3448 -36.3392 -36.3367 -36.3223 -36.2845 -36.2793 -36.2492 -36.2265
   -36.2161 -36.2117 -36.1781 -36.1687 -35.8879 -35.8879 -35.8153 -35.8152
     4.2835   4.4605   4.4895   4.6282   4.7055   4.8369   4.8452   5.0367
     5.2983   5.3196   5.4451   5.9938   6.5595   6.8943   7.1129   7.2159
     7.3509   7.5759   7.9583   8.0671   8.2171   8.6055   8.7058   9.1212
     9.3707   9.5468  10.0380  10.1098  10.5084  10.5178  10.7385  10.8344
    10.8438  10.9044  10.9445  10.9685  11.0367  11.1494  11.3096  11.3154
    11.6088  12.5710  13.4709  13.7681  14.1525  14.2482  14.5134  14.5453

 ------ SPIN DOWN ----------


          k = 0.0556 0.0962 0.0000 (  4451 PWs)   bands (ev):

   -36.7122 -36.6796 -36.5438 -36.4073 -36.2828 -36.2416 -36.2290 -36.2138
   -36.2127 -36.1838 -36.1698 -36.1598 -36.1506 -36.1351 -36.1218 -36.1032
   -36.1018 -36.0795 -35.8429 -35.8428 -35.8108 -35.8106 -35.7791 -35.7789
     2.9383   3.2942   3.8827   4.4690   4.6753   4.6930   4.9870   5.0006
     6.7882   6.8546   7.0498   7.0776   7.0944   7.1719   7.3722   7.4357
     7.5136   7.5145   7.5294   7.5943   7.6291   7.6402   7.7322   7.7751
     7.8209   7.8419   7.8863   8.1117   8.1235   8.2037   8.7984   8.9757
     8.9888   9.1436   9.2401   9.3572   9.4337   9.5390   9.6062   9.7226
     9.8493  10.1825  10.2437  10.5920  10.7384  10.8032  11.5326  12.3415

          k = 0.0556 0.2245 0.0000 (  4420 PWs)   bands (ev):

   -36.6614 -36.6422 -36.5356 -36.4546 -36.3990 -36.3584 -36.3130 -36.3045
   -36.2800 -36.2467 -36.2463 -36.2396 -36.1921 -36.1843 -36.1712 -36.1436
   -36.1193 -36.1046 -35.9371 -35.9368 -35.8313 -35.8311 -35.8120 -35.8119
     3.8578   4.1466   4.6356   5.1298   5.2308   5.3782   5.6228   5.7280
     6.1252   6.3535   6.5020   6.5255   6.6496   6.7675   6.8267   7.2329
     7.4205   7.4979   7.6036   7.6871   7.7596   7.8002   7.8702   7.9245
     8.0960   8.2258   8.2905   8.3379   8.5096   8.5987   8.6888   8.6945
     8.7967   8.9313   9.0589   9.1744   9.3979   9.5791   9.7347   9.8195
    10.0948  10.3106  10.5658  10.7624  10.9568  11.8980  13.0015  14.0724

          k = 0.0556 0.3528 0.0000 (  4467 PWs)   bands (ev):

   -36.6269 -36.6144 -36.5911 -36.5809 -36.5220 -36.5142 -36.4618 -36.4303
   -36.3595 -36.3017 -36.2992 -36.2870 -36.2405 -36.2311 -36.2130 -36.1867
   -36.1508 -36.1370 -36.0902 -36.0895 -35.8559 -35.8557 -35.8225 -35.8223
     4.6558   4.8646   4.9639   5.0010   5.1433   5.2745   5.4291   5.4931
     5.7771   5.8806   6.0269   6.3224   6.7268   6.8651   7.1758   7.2010
     7.5041   7.5196   7.6162   7.6606   7.7847   7.9314   8.1464   8.3571
     8.4719   8.6116   8.7661   8.8412   9.0754   9.2994   9.4234   9.4723
     9.6163   9.7562   9.8364  10.0088  10.1216  10.1538  10.3463  10.4012
    10.4500  10.6505  10.7880  10.8602  11.8530  13.1317  14.4863  15.7942

          k = 0.0556 0.4811 0.0000 (  4463 PWs)   bands (ev):

   -36.7160 -36.7097 -36.6759 -36.6636 -36.6257 -36.5957 -36.4805 -36.4590
   -36.3650 -36.3407 -36.3364 -36.3082 -36.2798 -36.2709 -36.2417 -36.2208
   -36.1948 -36.1910 -36.1735 -36.1636 -35.8888 -35.8886 -35.8162 -35.8157
     4.4780   4.5889   4.6551   4.7948   4.8360   4.9702   5.0258   5.1799
     5.4418   5.4961   5.6046   6.0848   6.5554   6.9153   7.1636   7.3258
     7.4114   7.6049   7.7024   7.9396   8.1926   8.2615   8.6980   8.8423
     9.0092   9.4080   9.6246   9.8682   9.9962  10.1283  10.3707  10.4363
    10.5024  10.5586  10.6080  10.6468  10.7456  10.8193  10.9596  11.0914
    11.4810  11.9517  12.3334  12.4625  13.1233  14.2731  15.5402  16.7132

          k = 0.0556-0.5453 0.0000 (  4486 PWs)   bands (ev):

   -36.7441 -36.7381 -36.6953 -36.6909 -36.6464 -36.6270 -36.4691 -36.4593
   -36.3595 -36.3492 -36.3391 -36.3144 -36.2915 -36.2837 -36.2490 -36.2323
   -36.2126 -36.2099 -36.1776 -36.1742 -35.8964 -35.8962 -35.8149 -35.8145
     4.3586   4.5346   4.5637   4.6938   4.7812   4.8968   4.9209   5.1221
     5.3529   5.4009   5.5247   6.0201   6.5396   6.8513   7.0869   7.2661
     7.3605   7.6068   7.7768   8.0567   8.1635   8.4576   8.8045   8.9053
     9.2796   9.5290   9.7761  10.1168  10.2785  10.3829  10.4815  10.6458
    10.7317  10.7726  10.8291  10.8574  10.9233  10.9835  11.1230  11.1944
    12.0938  12.7779  13.4850  13.8111  13.8928  14.3341  14.9884  15.4564

          k = 0.0556-0.4170 0.0000 (  4465 PWs)   bands (ev):

   -36.6657 -36.6586 -36.6424 -36.6249 -36.5826 -36.5411 -36.5016 -36.4549
   -36.3671 -36.3242 -36.3217 -36.2995 -36.2628 -36.2519 -36.2291 -36.2053
   -36.1668 -36.1592 -36.1495 -36.1435 -35.8749 -35.8748 -35.8188 -35.8184
     4.6594   4.6963   4.8179   4.9119   4.9940   5.0870   5.2158   5.2851
     5.5802   5.6764   5.7692   6.1977   6.6163   6.9687   7.2706   7.3710
     7.5093   7.5200   7.6581   7.7692   7.9326   8.2388   8.3450   8.5186
     8.8283   9.0690   9.2708   9.3785   9.5199   9.7532   9.9403  10.0126
    10.0764  10.2153  10.2636  10.3730  10.4395  10.5884  10.7094  10.8586
    10.9352  11.0974  11.1851  11.4270  12.4355  13.7606  15.1707  16.5541

          k = 0.0556-0.2887 0.0000 (  4439 PWs)   bands (ev):

   -36.6331 -36.6220 -36.5468 -36.5137 -36.4765 -36.4362 -36.3795 -36.3771
   -36.3329 -36.2753 -36.2725 -36.2682 -36.2154 -36.2086 -36.1934 -36.1654
   -36.1340 -36.1197 -36.0156 -36.0154 -35.8340 -35.8338 -35.8265 -35.8262
     4.3806   4.5925   4.9171   5.1719   5.2708   5.4853   5.6949   5.7631
     6.0081   6.0618   6.2602   6.4175   6.5625   6.6943   6.9666   7.0193
     7.3549   7.5742   7.6489   7.7271   7.7439   7.8648   7.9319   8.0583
     8.1547   8.2710   8.5033   8.6558   8.6870   8.8126   8.9747   9.0262
     9.1786   9.2757   9.4141   9.5421   9.6192   9.8516   9.9602  10.0319
    10.1405  10.4880  10.6090  10.8046  11.3707  12.5067  13.7506  14.9482

          k = 0.0556-0.1604 0.0000 (  4443 PWs)   bands (ev):

   -36.6906 -36.6632 -36.5383 -36.4217 -36.3297 -36.2919 -36.2608 -36.2451
   -36.2332 -36.2196 -36.2100 -36.2001 -36.1663 -36.1595 -36.1488 -36.1221
   -36.1089 -36.0912 -35.8680 -35.8678 -35.8350 -35.8350 -35.7931 -35.7930
     3.3338   3.6698   4.2328   4.8045   4.9697   5.0135   5.2976   5.3320
     6.4864   6.6458   6.7409   6.8154   6.8996   6.9557   7.1278   7.2872
     7.5192   7.5309   7.6706   7.6992   7.7738   7.7908   7.8098   7.8482
     7.8974   7.9421   8.0920   8.1376   8.2499   8.3873   8.4300   8.8037
     8.8782   8.9595   9.0507   9.0871   9.3764   9.4804   9.5950   9.7245
    10.0577  10.1407  10.5655  10.5839  10.7451  11.3146  12.2501  13.1867

          k = 0.0556-0.0321 0.0000 (  4465 PWs)   bands (ev):

   -36.7238 -36.6887 -36.5479 -36.4031 -36.2648 -36.2141 -36.2103 -36.2037
   -36.2030 -36.1581 -36.1468 -36.1436 -36.1335 -36.1265 -36.1049 -36.1020
   -36.0839 -36.0724 -35.8449 -35.8444 -35.7830 -35.7826 -35.7717 -35.7715
     2.7289   3.0918   3.6878   4.2774   4.5040   4.5166   4.8071   4.8138
     6.9695   7.0217   7.2002   7.2189   7.2549   7.3001   7.3573   7.4031
     7.4262   7.4493   7.4694   7.5140   7.5570   7.6302   7.6630   7.7006
     7.7473   7.8593   7.9397   7.9707   7.9920   8.4736   9.1028   9.1058
     9.2356   9.2672   9.3270   9.3997   9.4144   9.5684   9.6715   9.9018
     9.9759  10.1250  10.3224  10.3313  10.6449  10.7992  10.9555  11.6868

          k = 0.1667 0.2887 0.0000 (  4425 PWs)   bands (ev):

   -36.6126 -36.6122 -36.5563 -36.5368 -36.5063 -36.4746 -36.4238 -36.4047
   -36.3577 -36.3047 -36.3008 -36.2797 -36.2392 -36.2259 -36.2073 -36.1940
   -36.1804 -36.1250 -36.0471 -36.0470 -35.8668 -35.8667 -35.8228 -35.8227
     4.8627   4.9582   5.1723   5.4482   5.7408   5.8118   5.8308   5.9140
     5.9545   6.0404   6.1096   6.2199   6.3796   6.4834   6.9073   6.9811
     6.9938   7.1593   7.3443   7.4102   7.4424   7.5054   7.6028   8.1437
     8.1593   8.3658   8.3856   8.5736   8.7814   9.0089   9.2022   9.2218
     9.4380   9.6155   9.8437  10.0525  10.0842  10.2142  10.3958  10.4634
    10.4893  10.5618  10.6513  10.9053  11.9074  13.0640  14.3192  15.5588

          k = 0.1667 0.4170 0.0000 (  4459 PWs)   bands (ev):

   -36.6502 -36.6460 -36.6203 -36.6133 -36.5671 -36.5451 -36.5075 -36.4592
   -36.3775 -36.3747 -36.3687 -36.3084 -36.2999 -36.2815 -36.2647 -36.2349
   -36.2181 -36.1569 -36.1418 -36.1405 -35.9290 -35.9286 -35.8159 -35.8154
     5.0300   5.0918   5.1875   5.3060   5.4083   5.4324   5.6349   5.6868
     5.7809   5.9209   6.2079   6.3392   6.4377   6.7058   6.8609   7.0262
     7.1090   7.2352   7.4453   7.5948   7.8167   7.9676   8.0039   8.2110
     8.3147   8.4420   8.6680   8.9736   9.1574   9.2240   9.3424   9.5659
     9.6977   9.8903  10.2619  10.6620  10.7533  10.8369  10.9010  11.0663
    12.0968  12.2331  12.3646  12.7539  13.5647  14.6932  15.9661  17.2580

          k = 0.1667 0.5453 0.0000 (  4490 PWs)   bands (ev):

   -36.7069 -36.7011 -36.6580 -36.6549 -36.6123 -36.5955 -36.4698 -36.4609
   -36.4164 -36.4162 -36.3774 -36.3501 -36.3283 -36.3020 -36.2791 -36.2685
   -36.2220 -36.1887 -36.1867 -36.1826 -35.9627 -35.9624 -35.8121 -35.8116
     4.7207   4.9475   5.0084   5.1510   5.2357   5.2960   5.3645   5.6443
     5.6746   5.7938   6.0760   6.2173   6.3363   6.5447   6.7485   7.1491
     7.2482   7.5104   7.6775   7.8199   7.9531   8.0811   8.3336   8.4519
     8.7048   8.9657   9.1568   9.2821   9.3962   9.7739   9.9835  10.1066
    10.2192  10.3169  10.4794  10.5988  10.6916  10.8024  10.9671  11.0704
    13.9394  14.2970  14.6841  15.0218  15.4185  15.8888  16.2662  16.4599

          k = 0.1667-0.4811 0.0000 (  4476 PWs)   bands (ev):

   -36.6866 -36.6809 -36.6440 -36.6405 -36.5953 -36.5789 -36.4858 -36.4613
   -36.4015 -36.4006 -36.3757 -36.3322 -36.3189 -36.2957 -36.2800 -36.2532
   -36.2217 -36.1762 -36.1718 -36.1678 -35.9509 -35.9507 -35.8133 -35.8130
     4.8305   5.0279   5.0402   5.2434   5.2688   5.3313   5.4667   5.6724
     5.7440   5.8095   6.1355   6.2564   6.3708   6.6457   6.8536   7.0018
     7.2134   7.4752   7.6670   7.7279   7.8971   8.0561   8.1292   8.3807
     8.5894   8.8559   8.9033   9.0270   9.3103   9.6347   9.7482   9.8066
     9.8763  10.0293  10.3522  10.7087  10.7777  10.8839  11.0141  11.1626
    13.0580  13.2844  13.5316  13.9268  14.6127  15.5659  16.6367  17.6145

          k = 0.1667-0.3528 0.0000 (  4458 PWs)   bands (ev):

   -36.6170 -36.6119 -36.5879 -36.5806 -36.5305 -36.5289 -36.4876 -36.4421
   -36.3711 -36.3402 -36.3368 -36.2926 -36.2711 -36.2574 -36.2315 -36.2179
   -36.2067 -36.1397 -36.0993 -36.0989 -35.8995 -35.8993 -35.8195 -35.8192
     5.1200   5.2133   5.2838   5.3641   5.5147   5.6140   5.6668   5.7901
     5.8824   6.1147   6.1777   6.3572   6.3998   6.6735   6.7327   6.9138
     7.0757   7.2755   7.3058   7.3626   7.5700   7.7264   7.8091   8.0606
     8.0853   8.3178   8.6161   8.7441   8.8218   9.1512   9.2309   9.3878
     9.5996   9.7819  10.1249  10.3890  10.5372  10.6205  10.6379  10.8409
    11.2050  11.2721  11.3479  11.6850  12.6174  13.8106  15.1076  16.3991

          k = 0.1667-0.2245 0.0000 (  4433 PWs)   bands (ev):

   -36.6369 -36.6259 -36.5408 -36.4917 -36.4531 -36.4139 -36.3586 -36.3570
   -36.3278 -36.2748 -36.2691 -36.2621 -36.2122 -36.1986 -36.1934 -36.1671
   -36.1447 -36.1145 -35.9909 -35.9908 -35.8368 -35.8367 -35.8270 -35.8268
     4.3324   4.5571   4.9492   5.3846   5.5155   5.6425   5.8329   5.9076
     6.0207   6.1751   6.2620   6.3065   6.4626   6.6385   6.7110   6.9827
     7.2263   7.2892   7.4043   7.5102   7.6019   7.7080   7.7729   7.9802
     8.1252   8.3391   8.4789   8.5315   8.6871   8.8074   8.8810   8.9550
     9.1311   9.2649   9.4399   9.5629   9.5823   9.9258   9.9511   9.9882
    10.0895  10.4230  10.5468  10.6328  11.3893  12.4389  13.6170  14.7751

          k = 0.1667-0.0962 0.0000 (  4427 PWs)   bands (ev):

   -36.6811 -36.6559 -36.5365 -36.4316 -36.3552 -36.3165 -36.2802 -36.2620
   -36.2353 -36.2344 -36.2335 -36.2125 -36.1773 -36.1657 -36.1596 -36.1287
   -36.1122 -36.0926 -35.8934 -35.8931 -35.8341 -35.8339 -35.7978 -35.7976
     3.5133   3.8349   4.3746   4.9164   5.0426   5.1504   5.4144   5.4788
     6.3088   6.5635   6.6448   6.7153   6.8410   6.9036   6.9689   7.3787
     7.5440   7.5594   7.6757   7.7049   7.7881   7.8613   7.8794   7.9407
     8.0177   8.0213   8.1248   8.1573   8.2347   8.4122   8.5246   8.6305
     8.8128   8.8531   9.0331   9.1435   9.3167   9.4303   9.6673   9.7975
     9.9466  10.3518  10.5423  10.6846  10.8522  11.4686  12.5148  13.5105

          k = 0.2778 0.4811 0.0000 (  4485 PWs)   bands (ev):

   -36.6514 -36.6475 -36.6224 -36.6083 -36.5720 -36.5473 -36.5286 -36.5008
   -36.4487 -36.4437 -36.4210 -36.3752 -36.3626 -36.3508 -36.2858 -36.2668
   -36.2364 -36.1899 -36.1504 -36.1503 -36.0217 -36.0216 -35.8106 -35.8105
     5.2522   5.2703   5.3961   5.4409   5.5959   5.7992   5.9318   6.0318
     6.0777   6.1413   6.2125   6.2821   6.2863   6.5856   6.6549   6.9309
     6.9755   7.2743   7.2799   7.6013   7.6965   7.9411   7.9780   8.1660
     8.1941   8.6616   8.7575   8.8507   9.0592   9.1983   9.3757   9.3995
     9.7337  10.0218  10.3812  10.6565  10.7681  10.7774  10.8805  11.0570
    14.4157  14.5787  14.9307  15.4632  16.1947  17.1116  18.1065  18.7798

          k = 0.2778 0.6094 0.0000 (  4491 PWs)   bands (ev):

   -36.6430 -36.6372 -36.6094 -36.5979 -36.5670 -36.5610 -36.5372 -36.5092
   -36.4775 -36.4663 -36.4441 -36.4089 -36.3736 -36.3626 -36.2826 -36.2679
   -36.2336 -36.2065 -36.1424 -36.1422 -36.0536 -36.0535 -35.8093 -35.8091
     5.2219   5.4102   5.4838   5.6096   5.7007   5.7763   5.9109   5.9893
     6.0163   6.0756   6.2074   6.2830   6.3566   6.5600   6.6086   6.9703
     7.1007   7.2941   7.3703   7.5230   7.6703   7.8795   7.9313   8.2266
     8.2412   8.6315   8.7848   8.9698   9.0875   9.2168   9.3949   9.4553
    10.0433  10.2045  10.3985  10.4957  10.5874  10.6585  10.6983  10.8343
    15.6206  15.8433  16.2203  16.6396  16.9859  17.3610  17.7958  18.2713

          k = 0.2778-0.4170 0.0000 (  4462 PWs)   bands (ev):

   -36.6562 -36.6530 -36.6222 -36.6176 -36.5686 -36.5612 -36.5096 -36.4733
   -36.4148 -36.4099 -36.3956 -36.3397 -36.3335 -36.3152 -36.2829 -36.2612
   -36.2308 -36.1713 -36.1515 -36.1513 -35.9763 -35.9762 -35.8126 -35.8124
     5.1096   5.2468   5.2718   5.4329   5.4802   5.6461   5.7282   5.8984
     5.9361   6.1120   6.2562   6.3684   6.4977   6.5378   6.7455   6.8243
     6.9702   7.2204   7.3795   7.5368   7.8018   7.9599   8.0280   8.1883
     8.2360   8.4286   8.6687   8.9150   9.0769   9.2407   9.3468   9.5203
     9.5906   9.8546  10.3344  10.7270  10.8480  10.9077  10.9875  11.1627
    13.2464  13.3501  13.6024  14.0743  14.8344  15.8564  17.0213  18.2012

          k = 0.2778-0.2887 0.0000 (  4463 PWs)   bands (ev):

   -36.6349 -36.6280 -36.6137 -36.6014 -36.5502 -36.5238 -36.5007 -36.4486
   -36.3674 -36.3341 -36.3307 -36.2935 -36.2672 -36.2553 -36.2255 -36.2202
   -36.1815 -36.1459 -36.1210 -36.1198 -35.8870 -35.8869 -35.8190 -35.8188
     4.8710   4.9947   5.0759   5.1246   5.2632   5.2992   5.4675   5.5107
     5.7603   5.8625   6.1001   6.2651   6.5458   6.8147   7.0183   7.1882
     7.3108   7.3824   7.5111   7.6831   7.7648   7.9087   8.0661   8.3535
     8.4064   8.5539   8.7079   8.9370   9.1699   9.2949   9.3808   9.5301
     9.7584  10.0515  10.1698  10.3176  10.5023  10.6187  10.6618  10.8643
    11.0520  11.2398  11.2722  11.5884  12.5377  13.7761  15.1206  16.4505

          k = 0.2778-0.1604 0.0000 (  4458 PWs)   bands (ev):

   -36.6285 -36.6157 -36.5628 -36.5477 -36.5049 -36.4738 -36.4176 -36.4034
   -36.3469 -36.2815 -36.2804 -36.2796 -36.2238 -36.2191 -36.2003 -36.1660
   -36.1381 -36.1263 -36.0524 -36.0522 -35.8384 -35.8383 -35.8251 -35.8249
     4.4873   4.6909   4.9165   5.0053   5.1415   5.3670   5.5053   5.6023
     5.8544   5.9345   6.1076   6.4073   6.7494   6.8732   7.1204   7.2345
     7.4716   7.5641   7.6814   7.7071   7.8774   7.8874   8.1688   8.2736
     8.3808   8.5049   8.6576   8.6713   8.8721   9.0788   9.1980   9.2948
     9.3192   9.4005   9.5577   9.6026   9.7131   9.8402   9.9718  10.0981
    10.3634  10.3842  10.7300  10.9208  11.4645  12.7191  14.0364  15.2915

          k = 0.3889 0.6736 0.0000 (  4511 PWs)   bands (ev):

   -36.6788 -36.6722 -36.6321 -36.6259 -36.5882 -36.5754 -36.4959 -36.4853
   -36.4563 -36.4375 -36.4186 -36.3832 -36.3624 -36.3317 -36.2810 -36.2771
   -36.2299 -36.1966 -36.1682 -36.1680 -36.0120 -36.0118 -35.8105 -35.8102
     4.9463   5.1664   5.3307   5.4811   5.5256   5.5703   5.6564   5.8001
     5.9706   5.9807   6.1322   6.4117   6.4154   6.4867   6.5052   6.9249
     7.0662   7.4107   7.5548   7.7196   7.8852   7.9127   8.2074   8.2939
     8.5280   8.6684   8.7259   8.9255   9.2459   9.4964   9.6747   9.7891
    10.2347  10.2391  10.4136  10.4724  10.5957  10.7276  10.8580  10.8802
    15.1441  15.3923  15.6690  15.9299  16.2132  16.5608  16.9210  17.2061

          k = 0.3889-0.3528 0.0000 (  4485 PWs)   bands (ev):

   -36.7201 -36.7140 -36.6740 -36.6679 -36.6258 -36.6047 -36.4721 -36.4569
   -36.3827 -36.3745 -36.3524 -36.3119 -36.3045 -36.2959 -36.2545 -36.2486
   -36.2061 -36.1958 -36.1893 -36.1722 -35.9197 -35.9196 -35.8143 -35.8138
     4.5596   4.7456   4.7676   4.8969   4.9900   5.0675   5.1476   5.3595
     5.5041   5.6095   5.7735   6.0969   6.4554   6.7557   6.9900   7.3159
     7.3752   7.5492   7.6683   7.8087   8.1245   8.2181   8.5312   8.7611
     8.8615   9.2541   9.4744   9.5857   9.7664   9.9706  10.2379  10.3131
    10.3353  10.4046  10.4624  10.7231  10.7628  10.8632  11.0233  11.1678
    12.6700  13.0908  13.4909  13.7395  14.2139  15.0082  15.8838  16.5543

          k = 0.3889-0.2245 0.0000 (  4444 PWs)   bands (ev):

   -36.6962 -36.6890 -36.6639 -36.6469 -36.6106 -36.5719 -36.4906 -36.4584
   -36.3655 -36.3222 -36.3205 -36.3090 -36.2634 -36.2561 -36.2356 -36.1986
   -36.1854 -36.1748 -36.1598 -36.1566 -35.8738 -35.8736 -35.8176 -35.8173
     4.5136   4.5608   4.6649   4.8014   4.8435   4.9611   5.0669   5.1569
     5.4508   5.5421   5.5975   6.1312   6.6258   6.9951   7.2625   7.3367
     7.4588   7.6638   7.6724   7.9342   8.1378   8.2365   8.7306   8.7344
     8.9929   9.3348   9.6935   9.8705   9.8947  10.2466  10.2658  10.3580
    10.4200  10.4969  10.5178  10.5482  10.6648  10.7055  10.8125  10.9224
    11.0326  11.0376  11.3631  11.4844  12.5123  13.8769  15.2988  16.6814

          k =-0.5000-0.8660 0.0000 (  4492 PWs)   bands (ev):

   -36.7521 -36.7474 -36.7021 -36.7011 -36.6535 -36.6353 -36.4691 -36.4609
   -36.3448 -36.3392 -36.3367 -36.3223 -36.2845 -36.2793 -36.2492 -36.2265
   -36.2161 -36.2117 -36.1781 -36.1687 -35.8879 -35.8879 -35.8153 -35.8152
     4.2835   4.4605   4.4895   4.6282   4.7055   4.8369   4.8452   5.0367
     5.2983   5.3196   5.4451   5.9938   6.5595   6.8943   7.1129   7.2159
     7.3509   7.5759   7.9583   8.0671   8.2171   8.6055   8.7058   9.1212
     9.3707   9.5468  10.0380  10.1098  10.5084  10.5178  10.7385  10.8344
    10.8438  10.9044  10.9445  10.9685  11.0367  11.1494  11.3096  11.3154
    11.6088  12.5710  13.4709  13.7681  14.1525  14.2482  14.5134  14.5453

     the Fermi energy is    10.2857 ev

!    total energy              =   -1369.42566298 Ry
     estimated scf accuracy    <       0.00000002 Ry
     smearing contrib. (-TS)   =      -0.03441677 Ry
     internal energy E=F+TS    =   -1369.39124620 Ry

     The total energy is F=E-TS. E is the sum of the following terms:
     one-electron contribution =  -12592.34908943 Ry
     hartree contribution      =    6356.96460531 Ry
     xc contribution           =    -239.30741847 Ry
     ewald contribution        =    5105.30065637 Ry

     total magnetization       =     0.00 Bohr mag/cell
     absolute magnetization    =     0.00 Bohr mag/cell

     convergence has been achieved in  10 iterations

     negative rho (up, down):  2.297E-01 2.297E-01

     Forces acting on atoms (cartesian axes, Ry/au):

     atom    1 type  1   force =     0.00000000    0.00000000    0.00031620
     atom    2 type  1   force =     0.00000000    0.00000000    0.00098885
     atom    3 type  1   force =     0.00000000    0.00000000    0.00076533
     atom    4 type  1   force =     0.00000000    0.00000000    0.00000324
     atom    5 type  1   force =     0.00000000    0.00000000   -0.00000213
     atom    6 type  1   force =     0.00000000    0.00000000   -0.00076632
     atom    7 type  1   force =     0.00000000    0.00000000   -0.00099074
     atom    8 type  1   force =     0.00000000    0.00000000   -0.00031443

     Total force =     0.001825     Total SCF correction =     0.001173
     SCF correction compared to forces is large: reduce conv_thr to get better values
     Energy error            =      1.2E-05
     Gradient error          =      9.9E-04
Begin final coordinates

ATOMIC_POSITIONS (angstrom)
Rh            0.0000000000        0.0000000000        0.0320394367
Rh            2.7108568000        1.5651139000        2.2049443578
Rh            1.3554284000        0.7825569000        4.4071030435
Rh            0.0000000000        0.0000000000        6.6367901335
Rh            2.7108568000        1.5651139000        8.8570024999
Rh            1.3554284000        0.7825569000       11.0867340071
Rh            0.0000000000        0.0000000000       13.2889210510
Rh            2.7108568000        1.5651139000       15.4618135706
End final coordinates



     Writing output data file /home/STUDENTI/leonardo.razzai/WORK/relax_surf/8-L.save/

     lsda relaxation :  a final configuration with zero
                        absolute magnetization has been found

     the program is checking if it is really the minimum energy structure
     by performing a new scf iteration without any "electronic" history

     Initial potential from superposition of free atoms

     starting charge  115.99921, renormalised to  120.00000

     negative rho (up, down):  2.259E-01 2.214E-01

     total cpu time spent up to now is     1574.6 secs

     Self-consistent Calculation

     iteration #  1     ecut=    35.00 Ry     beta= 0.40
     Davidson diagonalization with overlap
     c_bands:  1 eigenvalues not converged
     c_bands:  1 eigenvalues not converged
     c_bands:  1 eigenvalues not converged
     c_bands:  1 eigenvalues not converged
     c_bands:  1 eigenvalues not converged
     c_bands:  1 eigenvalues not converged
     c_bands:  1 eigenvalues not converged
     ethr =  1.00E-06,  avg # of iterations = 14.4

     negative rho (up, down):  2.266E-01 2.244E-01

     total cpu time spent up to now is     1629.5 secs

     total energy              =   -1369.59756259 Ry
     estimated scf accuracy    <       6.03136508 Ry

     total magnetization       =     0.42 Bohr mag/cell
     absolute magnetization    =     0.43 Bohr mag/cell

     iteration #  2     ecut=    35.00 Ry     beta= 0.40
     Davidson diagonalization with overlap
     ethr =  5.03E-03,  avg # of iterations =  1.0

     negative rho (up, down):  2.313E-01 2.313E-01

     total cpu time spent up to now is     1645.4 secs

     total energy              =   -1369.30116885 Ry
     estimated scf accuracy    <       1.40342208 Ry

     total magnetization       =     0.40 Bohr mag/cell
     absolute magnetization    =     0.41 Bohr mag/cell

     iteration #  3     ecut=    35.00 Ry     beta= 0.40
     Davidson diagonalization with overlap
     ethr =  1.17E-03,  avg # of iterations =  2.2

     negative rho (up, down):  2.338E-01 2.348E-01

     total cpu time spent up to now is     1665.1 secs

     total energy              =   -1369.40089890 Ry
     estimated scf accuracy    <       0.29221753 Ry

     total magnetization       =     0.33 Bohr mag/cell
     absolute magnetization    =     0.34 Bohr mag/cell

     iteration #  4     ecut=    35.00 Ry     beta= 0.40
     Davidson diagonalization with overlap
     ethr =  2.44E-04,  avg # of iterations =  2.5

     negative rho (up, down):  2.353E-01 2.364E-01

     total cpu time spent up to now is     1683.7 secs

     total energy              =   -1369.42589629 Ry
     estimated scf accuracy    <       0.06179338 Ry

     total magnetization       =     0.27 Bohr mag/cell
     absolute magnetization    =     0.29 Bohr mag/cell

     iteration #  5     ecut=    35.00 Ry     beta= 0.40
     Davidson diagonalization with overlap
     ethr =  5.15E-05,  avg # of iterations =  4.4

     negative rho (up, down):  2.367E-01 2.378E-01

     total cpu time spent up to now is     1702.4 secs

     total energy              =   -1369.42641721 Ry
     estimated scf accuracy    <       0.00333880 Ry

     total magnetization       =     0.23 Bohr mag/cell
     absolute magnetization    =     0.25 Bohr mag/cell

     iteration #  6     ecut=    35.00 Ry     beta= 0.40
     Davidson diagonalization with overlap
     ethr =  2.78E-06,  avg # of iterations =  7.1

     negative rho (up, down):  2.366E-01 2.376E-01

     total cpu time spent up to now is     1723.9 secs

     total energy              =   -1369.42633863 Ry
     estimated scf accuracy    <       0.00438429 Ry

     total magnetization       =     0.18 Bohr mag/cell
     absolute magnetization    =     0.19 Bohr mag/cell

     iteration #  7     ecut=    35.00 Ry     beta= 0.40
     Davidson diagonalization with overlap
     ethr =  2.78E-06,  avg # of iterations =  2.2

     negative rho (up, down):  2.347E-01 2.352E-01

     total cpu time spent up to now is     1741.1 secs

     total energy              =   -1369.42624301 Ry
     estimated scf accuracy    <       0.00068313 Ry

     total magnetization       =     0.14 Bohr mag/cell
     absolute magnetization    =     0.15 Bohr mag/cell

     iteration #  8     ecut=    35.00 Ry     beta= 0.40
     Davidson diagonalization with overlap
     ethr =  5.69E-07,  avg # of iterations =  4.7

     negative rho (up, down):  2.325E-01 2.323E-01

     total cpu time spent up to now is     1762.7 secs

     total energy              =   -1369.42589677 Ry
     estimated scf accuracy    <       0.00277969 Ry

     total magnetization       =     0.06 Bohr mag/cell
     absolute magnetization    =     0.06 Bohr mag/cell

     iteration #  9     ecut=    35.00 Ry     beta= 0.40
     Davidson diagonalization with overlap
     ethr =  5.69E-07,  avg # of iterations =  3.3

     negative rho (up, down):  2.317E-01 2.313E-01

     total cpu time spent up to now is     1780.9 secs

     total energy              =   -1369.42580392 Ry
     estimated scf accuracy    <       0.00070966 Ry

     total magnetization       =    -0.02 Bohr mag/cell
     absolute magnetization    =     0.04 Bohr mag/cell

     iteration # 10     ecut=    35.00 Ry     beta= 0.40
     Davidson diagonalization with overlap
     ethr =  5.69E-07,  avg # of iterations =  1.3

     negative rho (up, down):  2.301E-01 2.296E-01

     total cpu time spent up to now is     1797.5 secs

     total energy              =   -1369.42562686 Ry
     estimated scf accuracy    <       0.00031652 Ry

     total magnetization       =    -0.04 Bohr mag/cell
     absolute magnetization    =     0.04 Bohr mag/cell

     iteration # 11     ecut=    35.00 Ry     beta= 0.40
     Davidson diagonalization with overlap
     ethr =  2.64E-07,  avg # of iterations =  3.8

     negative rho (up, down):  2.300E-01 2.295E-01

     total cpu time spent up to now is     1817.6 secs

     total energy              =   -1369.42565376 Ry
     estimated scf accuracy    <       0.00007012 Ry

     total magnetization       =    -0.07 Bohr mag/cell
     absolute magnetization    =     0.07 Bohr mag/cell

     iteration # 12     ecut=    35.00 Ry     beta= 0.40
     Davidson diagonalization with overlap
     ethr =  5.84E-08,  avg # of iterations =  1.2

     negative rho (up, down):  2.299E-01 2.295E-01

     total cpu time spent up to now is     1834.2 secs

     total energy              =   -1369.42565644 Ry
     estimated scf accuracy    <       0.00000590 Ry

     total magnetization       =    -0.06 Bohr mag/cell
     absolute magnetization    =     0.06 Bohr mag/cell

     iteration # 13     ecut=    35.00 Ry     beta= 0.40
     Davidson diagonalization with overlap
     ethr =  4.92E-09,  avg # of iterations =  2.7

     negative rho (up, down):  2.298E-01 2.296E-01

     total cpu time spent up to now is     1853.9 secs

     total energy              =   -1369.42565954 Ry
     estimated scf accuracy    <       0.00000215 Ry

     total magnetization       =    -0.05 Bohr mag/cell
     absolute magnetization    =     0.05 Bohr mag/cell

     iteration # 14     ecut=    35.00 Ry     beta= 0.40
     Davidson diagonalization with overlap
     ethr =  1.79E-09,  avg # of iterations =  2.4

     negative rho (up, down):  2.298E-01 2.296E-01

     total cpu time spent up to now is     1874.3 secs

     total energy              =   -1369.42566180 Ry
     estimated scf accuracy    <       0.00000071 Ry

     total magnetization       =    -0.03 Bohr mag/cell
     absolute magnetization    =     0.03 Bohr mag/cell

     iteration # 15     ecut=    35.00 Ry     beta= 0.40
     Davidson diagonalization with overlap
     ethr =  5.95E-10,  avg # of iterations =  1.9

     negative rho (up, down):  2.297E-01 2.296E-01

     total cpu time spent up to now is     1892.8 secs

     total energy              =   -1369.42566227 Ry
     estimated scf accuracy    <       0.00000024 Ry

     total magnetization       =    -0.02 Bohr mag/cell
     absolute magnetization    =     0.02 Bohr mag/cell

     iteration # 16     ecut=    35.00 Ry     beta= 0.40
     Davidson diagonalization with overlap
     ethr =  2.03E-10,  avg # of iterations =  2.5

     negative rho (up, down):  2.297E-01 2.297E-01

     total cpu time spent up to now is     1912.3 secs

     total energy              =   -1369.42566266 Ry
     estimated scf accuracy    <       0.00000018 Ry

     total magnetization       =    -0.01 Bohr mag/cell
     absolute magnetization    =     0.02 Bohr mag/cell

     iteration # 17     ecut=    35.00 Ry     beta= 0.40
     Davidson diagonalization with overlap
     ethr =  1.52E-10,  avg # of iterations =  2.3

     negative rho (up, down):  2.297E-01 2.297E-01
 
     Magnetic moment per site:
     atom:    1    charge:   13.1085    magn:   -0.0026    constr:    0.0000
     atom:    2    charge:   13.1646    magn:   -0.0014    constr:    0.0000
     atom:    3    charge:   13.1598    magn:    0.0001    constr:    0.0000
     atom:    4    charge:   13.1551    magn:    0.0001    constr:    0.0000
     atom:    5    charge:   13.1558    magn:    0.0001    constr:    0.0000
     atom:    6    charge:   13.1589    magn:    0.0001    constr:    0.0000
     atom:    7    charge:   13.1646    magn:   -0.0014    constr:    0.0000
     atom:    8    charge:   13.1081    magn:   -0.0026    constr:    0.0000

     total cpu time spent up to now is     1932.6 secs

     End of self-consistent calculation

 ------ SPIN UP ------------


          k = 0.0556 0.0962 0.0000 (  4451 PWs)   bands (ev):

   -36.7114 -36.6786 -36.5429 -36.4065 -36.2819 -36.2403 -36.2279 -36.2126
   -36.2114 -36.1831 -36.1692 -36.1593 -36.1499 -36.1345 -36.1213 -36.1026
   -36.1012 -36.0790 -35.8408 -35.8407 -35.8091 -35.8089 -35.7774 -35.7772
     2.9389   3.2949   3.8833   4.4697   4.6759   4.6937   4.9880   5.0016
     6.7890   6.8553   7.0507   7.0786   7.0953   7.1728   7.3731   7.4368
     7.5145   7.5153   7.5303   7.5951   7.6300   7.6411   7.7334   7.7760
     7.8219   7.8428   7.8875   8.1129   8.1247   8.2048   8.7993   8.9766
     8.9896   9.1446   9.2412   9.3585   9.4345   9.5401   9.6075   9.7238
     9.8505  10.1838  10.2447  10.5934  10.7392  10.8043  11.5336  12.3426

          k = 0.0556 0.2245 0.0000 (  4420 PWs)   bands (ev):

   -36.6606 -36.6412 -36.5348 -36.4537 -36.3978 -36.3573 -36.3124 -36.3038
   -36.2793 -36.2456 -36.2453 -36.2387 -36.1915 -36.1837 -36.1705 -36.1431
   -36.1188 -36.1041 -35.9354 -35.9351 -35.8292 -35.8290 -35.8103 -35.8102
     3.8584   4.1472   4.6363   5.1305   5.2315   5.3789   5.6238   5.7289
     6.1260   6.3544   6.5028   6.5262   6.6507   6.7684   6.8276   7.2338
     7.4215   7.4990   7.6048   7.6879   7.7604   7.8010   7.8712   7.9254
     8.0970   8.2267   8.2916   8.3390   8.5106   8.5998   8.6897   8.6957
     8.7977   8.9323   9.0600   9.1756   9.3990   9.5801   9.7358   9.8206
    10.0960  10.3116  10.5672  10.7633  10.9579  11.8990  13.0025  14.0735

          k = 0.0556 0.3528 0.0000 (  4467 PWs)   bands (ev):

   -36.6260 -36.6134 -36.5902 -36.5799 -36.5211 -36.5133 -36.4611 -36.4295
   -36.3587 -36.3006 -36.2980 -36.2861 -36.2399 -36.2305 -36.2123 -36.1861
   -36.1503 -36.1365 -36.0885 -36.0879 -35.8542 -35.8541 -35.8204 -35.8202
     4.6565   4.8654   4.9646   5.0017   5.1441   5.2752   5.4300   5.4940
     5.7780   5.8815   6.0278   6.3233   6.7277   6.8660   7.1766   7.2020
     7.5051   7.5205   7.6169   7.6615   7.7857   7.9324   8.1474   8.3582
     8.4730   8.6126   8.7671   8.8422   9.0765   9.3005   9.4244   9.4731
     9.6175   9.7571   9.8372  10.0098  10.1227  10.1550  10.3473  10.4024
    10.4512  10.6518  10.7890  10.8611  11.8540  13.1327  14.4873  15.7953

          k = 0.0556 0.4811 0.0000 (  4463 PWs)   bands (ev):

   -36.7150 -36.7085 -36.6752 -36.6628 -36.6251 -36.5951 -36.4795 -36.4579
   -36.3643 -36.3396 -36.3353 -36.3075 -36.2792 -36.2702 -36.2410 -36.2201
   -36.1934 -36.1896 -36.1729 -36.1630 -35.8871 -35.8869 -35.8140 -35.8136
     4.4787   4.5896   4.6559   4.7956   4.8368   4.9711   5.0267   5.1806
     5.4427   5.4971   5.6056   6.0857   6.5562   6.9162   7.1646   7.3267
     7.4123   7.6059   7.7034   7.9404   8.1937   8.2627   8.6989   8.8433
     9.0103   9.4090   9.6257   9.8692   9.9973  10.1295  10.3720  10.4374
    10.5034  10.5595  10.6089  10.6477  10.7465  10.8204  10.9609  11.0924
    11.4819  11.9526  12.3342  12.4633  13.1241  14.2740  15.5410  16.7140

          k = 0.0556-0.5453 0.0000 (  4486 PWs)   bands (ev):

   -36.7431 -36.7369 -36.6946 -36.6902 -36.6458 -36.6264 -36.4680 -36.4581
   -36.3587 -36.3481 -36.3382 -36.3138 -36.2909 -36.2830 -36.2483 -36.2313
   -36.2111 -36.2087 -36.1771 -36.1736 -35.8947 -35.8946 -35.8128 -35.8123
     4.3593   4.5354   4.5645   4.6946   4.7820   4.8977   4.9217   5.1228
     5.3538   5.4019   5.5257   6.0211   6.5405   6.8522   7.0879   7.2670
     7.3613   7.6079   7.7778   8.0575   8.1646   8.4588   8.8055   8.9063
     9.2808   9.5301   9.7772  10.1179  10.2795  10.3842  10.4828  10.6467
    10.7326  10.7736  10.8301  10.8583  10.9242  10.9845  11.1243  11.1955
    12.0946  12.7788  13.4857  13.8118  13.8936  14.3349  14.9892  15.4571

          k = 0.0556-0.4170 0.0000 (  4465 PWs)   bands (ev):

   -36.6647 -36.6575 -36.6417 -36.6241 -36.5819 -36.5405 -36.5007 -36.4540
   -36.3663 -36.3231 -36.3205 -36.2988 -36.2622 -36.2513 -36.2284 -36.2047
   -36.1662 -36.1582 -36.1479 -36.1423 -35.8733 -35.8732 -35.8167 -35.8163
     4.6601   4.6970   4.8187   4.9127   4.9948   5.0878   5.2166   5.2859
     5.5811   5.6774   5.7701   6.1987   6.6172   6.9697   7.2717   7.3717
     7.5102   7.5210   7.6589   7.7702   7.9338   8.2398   8.3459   8.5197
     8.8294   9.0700   9.2717   9.3796   9.5210   9.7544   9.9415  10.0135
    10.0774  10.2164  10.2644  10.3741  10.4404  10.5895  10.7105  10.8598
    10.9362  11.0984  11.1860  11.4280  12.4364  13.7615  15.1717  16.5551

          k = 0.0556-0.2887 0.0000 (  4439 PWs)   bands (ev):

   -36.6322 -36.6211 -36.5460 -36.5127 -36.4753 -36.4353 -36.3788 -36.3765
   -36.3322 -36.2743 -36.2713 -36.2673 -36.2147 -36.2080 -36.1928 -36.1648
   -36.1335 -36.1192 -36.0140 -36.0137 -35.8323 -35.8321 -35.8244 -35.8241
     4.3812   4.5932   4.9178   5.1726   5.2715   5.4861   5.6957   5.7640
     6.0090   6.0626   6.2610   6.4184   6.5634   6.6952   6.9674   7.0202
     7.3558   7.5752   7.6499   7.7280   7.7446   7.8658   7.9329   8.0592
     8.1558   8.2722   8.5045   8.6567   8.6881   8.8136   8.9757   9.0272
     9.1794   9.2765   9.4152   9.5432   9.6204   9.8528   9.9612  10.0329
    10.1417  10.4891  10.6103  10.8055  11.3717  12.5077  13.7516  14.9494

          k = 0.0556-0.1604 0.0000 (  4443 PWs)   bands (ev):

   -36.6898 -36.6622 -36.5374 -36.4208 -36.3286 -36.2907 -36.2600 -36.2443
   -36.2321 -36.2185 -36.2092 -36.1995 -36.1657 -36.1589 -36.1482 -36.1215
   -36.1084 -36.0907 -35.8663 -35.8661 -35.8330 -35.8329 -35.7914 -35.7913
     3.3344   3.6705   4.2335   4.8052   4.9704   5.0142   5.2985   5.3329
     6.4872   6.6465   6.7420   6.8162   6.9005   6.9565   7.1288   7.2881
     7.5201   7.5320   7.6714   7.7001   7.7748   7.7918   7.8109   7.8492
     7.8984   7.9431   8.0929   8.1384   8.2507   8.3884   8.4312   8.8047
     8.8790   8.9607   9.0518   9.0884   9.3775   9.4813   9.5962   9.7256
    10.0587  10.1419  10.5669  10.5849  10.7462  11.3156  12.2511  13.1878

          k = 0.0556-0.0321 0.0000 (  4465 PWs)   bands (ev):

   -36.7230 -36.6877 -36.5470 -36.4023 -36.2640 -36.2129 -36.2091 -36.2024
   -36.2017 -36.1575 -36.1462 -36.1430 -36.1328 -36.1259 -36.1044 -36.1014
   -36.0833 -36.0719 -35.8428 -35.8423 -35.7813 -35.7809 -35.7701 -35.7698
     2.7295   3.0925   3.6884   4.2781   4.5047   4.5173   4.8081   4.8147
     6.9702   7.0225   7.2011   7.2199   7.2557   7.3010   7.3581   7.4041
     7.4272   7.4500   7.4705   7.5150   7.5578   7.6310   7.6638   7.7013
     7.7486   7.8606   7.9410   7.9720   7.9932   8.4748   9.1035   9.1066
     9.2367   9.2682   9.3279   9.4006   9.4153   9.5694   9.6726   9.9028
     9.9773  10.1263  10.3236  10.3322  10.6463  10.8001  10.9564  11.6879

          k = 0.1667 0.2887 0.0000 (  4425 PWs)   bands (ev):

   -36.6116 -36.6112 -36.5555 -36.5358 -36.5052 -36.4737 -36.4231 -36.4040
   -36.3569 -36.3036 -36.2995 -36.2787 -36.2387 -36.2253 -36.2067 -36.1935
   -36.1799 -36.1245 -36.0454 -36.0454 -35.8651 -35.8650 -35.8207 -35.8206
     4.8634   4.9589   5.1729   5.4490   5.7418   5.8126   5.8315   5.9149
     5.9553   6.0411   6.1105   6.2209   6.3805   6.4841   6.9082   6.9820
     6.9946   7.1603   7.3454   7.4115   7.4436   7.5062   7.6035   8.1447
     8.1604   8.3668   8.3867   8.5749   8.7825   9.0097   9.2032   9.2226
     9.4392   9.6166   9.8448  10.0536  10.0851  10.2151  10.3969  10.4645
    10.4906  10.5628  10.6522  10.9064  11.9084  13.0650  14.3202  15.5600

          k = 0.1667 0.4170 0.0000 (  4459 PWs)   bands (ev):

   -36.6491 -36.6448 -36.6195 -36.6125 -36.5663 -36.5445 -36.5067 -36.4583
   -36.3766 -36.3734 -36.3676 -36.3077 -36.2993 -36.2809 -36.2642 -36.2343
   -36.2175 -36.1563 -36.1402 -36.1390 -35.9273 -35.9270 -35.8137 -35.8133
     5.0307   5.0925   5.1883   5.3069   5.4092   5.4331   5.6358   5.6876
     5.7818   5.9218   6.2088   6.3401   6.4386   6.7067   6.8619   7.0272
     7.1097   7.2361   7.4462   7.5957   7.8179   7.9687   8.0049   8.2121
     8.3157   8.4431   8.6692   8.9746   9.1581   9.2249   9.3434   9.5673
     9.6990   9.8916  10.2633  10.6632  10.7543  10.8381  10.9020  11.0672
    12.0976  12.2340  12.3656  12.7549  13.5656  14.6941  15.9670  17.2591

          k = 0.1667 0.5453 0.0000 (  4490 PWs)   bands (ev):

   -36.7059 -36.6999 -36.6572 -36.6542 -36.6117 -36.5949 -36.4687 -36.4598
   -36.4152 -36.4151 -36.3768 -36.3495 -36.3275 -36.3013 -36.2785 -36.2679
   -36.2214 -36.1874 -36.1852 -36.1817 -35.9610 -35.9607 -35.8099 -35.8094
     4.7214   4.9483   5.0091   5.1518   5.2365   5.2969   5.3654   5.6451
     5.6755   5.7947   6.0769   6.2183   6.3372   6.5456   6.7492   7.1501
     7.2492   7.5116   7.6786   7.8208   7.9539   8.0821   8.3344   8.4529
     8.7058   8.9667   9.1580   9.2831   9.3972   9.7750   9.9847  10.1076
    10.2202  10.3185  10.4810  10.5996  10.6927  10.8035  10.9681  11.0712
    13.9402  14.2979  14.6849  15.0226  15.4193  15.8896  16.2670  16.4606

          k = 0.1667-0.4811 0.0000 (  4476 PWs)   bands (ev):

   -36.6855 -36.6797 -36.6432 -36.6398 -36.5946 -36.5783 -36.4848 -36.4603
   -36.4003 -36.3994 -36.3750 -36.3315 -36.3182 -36.2950 -36.2795 -36.2526
   -36.2211 -36.1752 -36.1702 -36.1668 -35.9492 -35.9491 -35.8111 -35.8108
     4.8312   5.0288   5.0409   5.2442   5.2695   5.3322   5.4676   5.6732
     5.7450   5.8104   6.1364   6.2574   6.3717   6.6466   6.8543   7.0028
     7.2143   7.4762   7.6680   7.7291   7.8979   8.0569   8.1302   8.3816
     8.5904   8.8569   8.9045   9.0280   9.3113   9.6356   9.7492   9.8078
     9.8775  10.0306  10.3537  10.7100  10.7785  10.8850  11.0151  11.1635
    13.0587  13.2853  13.5325  13.9277  14.6136  15.5668  16.6376  17.6153

          k = 0.1667-0.3528 0.0000 (  4458 PWs)   bands (ev):

   -36.6160 -36.6109 -36.5870 -36.5796 -36.5297 -36.5280 -36.4870 -36.4413
   -36.3703 -36.3390 -36.3355 -36.2918 -36.2706 -36.2568 -36.2310 -36.2173
   -36.2062 -36.1392 -36.0977 -36.0973 -35.8978 -35.8976 -35.8173 -35.8171
     5.1207   5.2140   5.2846   5.3649   5.5155   5.6148   5.6676   5.7909
     5.8834   6.1156   6.1786   6.3581   6.4006   6.6743   6.7336   6.9148
     7.0767   7.2763   7.3068   7.3634   7.5709   7.7276   7.8101   8.0617
     8.0865   8.3188   8.6172   8.7449   8.8229   9.1519   9.2319   9.3888
     9.6009   9.7832  10.1263  10.3900  10.5381  10.6216  10.6391  10.8417
    11.2059  11.2729  11.3491  11.6861  12.6184  13.8115  15.1085  16.4003

          k = 0.1667-0.2245 0.0000 (  4433 PWs)   bands (ev):

   -36.6360 -36.6249 -36.5401 -36.4907 -36.4519 -36.4129 -36.3579 -36.3563
   -36.3271 -36.2739 -36.2679 -36.2610 -36.2116 -36.1980 -36.1928 -36.1666
   -36.1442 -36.1140 -35.9893 -35.9892 -35.8351 -35.8350 -35.8249 -35.8247
     4.3330   4.5578   4.9499   5.3853   5.5162   5.6432   5.8337   5.9084
     6.0215   6.1760   6.2628   6.3073   6.4636   6.6392   6.7119   6.9837
     7.2271   7.2902   7.4055   7.5114   7.6029   7.7089   7.7736   7.9811
     8.1261   8.3402   8.4801   8.5328   8.6879   8.8085   8.8820   8.9559
     9.1320   9.2658   9.4409   9.5640   9.5834   9.9271   9.9523   9.9891
    10.0908  10.4241  10.5481  10.6337  11.3904  12.4399  13.6180  14.7763

          k = 0.1667-0.0962 0.0000 (  4427 PWs)   bands (ev):

   -36.6803 -36.6550 -36.5357 -36.4307 -36.3541 -36.3153 -36.2795 -36.2614
   -36.2347 -36.2331 -36.2322 -36.2119 -36.1767 -36.1652 -36.1590 -36.1281
   -36.1117 -36.0921 -35.8917 -35.8915 -35.8320 -35.8318 -35.7961 -35.7959
     3.5139   3.8355   4.3753   4.9171   5.0432   5.1511   5.4153   5.4797
     6.3096   6.5645   6.6456   6.7161   6.8421   6.9044   6.9699   7.3797
     7.5450   7.5604   7.6765   7.7056   7.7892   7.8623   7.8805   7.9414
     8.0186   8.0222   8.1257   8.1583   8.2355   8.4132   8.5257   8.6316
     8.8141   8.8540   9.0343   9.1446   9.3178   9.4314   9.6683   9.7987
     9.9476  10.3530  10.5434  10.6860  10.8532  11.4696  12.5158  13.5117

          k = 0.2778 0.4811 0.0000 (  4485 PWs)   bands (ev):

   -36.6503 -36.6462 -36.6218 -36.6075 -36.5714 -36.5465 -36.5277 -36.4998
   -36.4476 -36.4426 -36.4202 -36.3746 -36.3619 -36.3502 -36.2852 -36.2662
   -36.2359 -36.1894 -36.1488 -36.1487 -36.0200 -36.0199 -35.8084 -35.8084
     5.2530   5.2709   5.3971   5.4415   5.5968   5.8000   5.9326   6.0326
     6.0784   6.1423   6.2134   6.2831   6.2872   6.5866   6.6557   6.9317
     6.9764   7.2752   7.2808   7.6022   7.6973   7.9425   7.9793   8.1672
     8.1953   8.6624   8.7583   8.8516   9.0601   9.1989   9.3770   9.4009
     9.7348  10.0233  10.3828  10.6579  10.7689  10.7782  10.8818  11.0579
    14.4164  14.5796  14.9316  15.4641  16.1955  17.1126  18.1075  18.7807

          k = 0.2778 0.6094 0.0000 (  4491 PWs)   bands (ev):

   -36.6419 -36.6360 -36.6086 -36.5972 -36.5663 -36.5602 -36.5362 -36.5083
   -36.4767 -36.4655 -36.4434 -36.4082 -36.3728 -36.3618 -36.2820 -36.2673
   -36.2331 -36.2060 -36.1408 -36.1406 -36.0520 -36.0519 -35.8071 -35.8070
     5.2226   5.4111   5.4845   5.6104   5.7015   5.7771   5.9117   5.9900
     6.0171   6.0767   6.2084   6.2837   6.3575   6.5610   6.6095   6.9711
     7.1016   7.2950   7.3712   7.5237   7.6713   7.8809   7.9326   8.2279
     8.2425   8.6322   8.7856   8.9706   9.0882   9.2176   9.3962   9.4565
    10.0445  10.2064  10.4000  10.4968  10.5883  10.6594  10.6993  10.8352
    15.6213  15.8441  16.2212  16.6404  16.9867  17.3618  17.7967  18.2721

          k = 0.2778-0.4170 0.0000 (  4462 PWs)   bands (ev):

   -36.6551 -36.6518 -36.6215 -36.6168 -36.5680 -36.5605 -36.5087 -36.4724
   -36.4136 -36.4087 -36.3948 -36.3390 -36.3329 -36.3146 -36.2823 -36.2606
   -36.2302 -36.1708 -36.1499 -36.1497 -35.9746 -35.9745 -35.8105 -35.8102
     5.1103   5.2475   5.2726   5.4337   5.4811   5.6469   5.7290   5.8992
     5.9370   6.1129   6.2571   6.3693   6.4986   6.5387   6.7463   6.8253
     6.9711   7.2213   7.3805   7.5376   7.8028   7.9612   8.0292   8.1894
     8.2370   8.4294   8.6697   8.9159   9.0776   9.2415   9.3478   9.5216
     9.5918   9.8561  10.3359  10.7285  10.8487  10.9087  10.9886  11.1636
    13.2471  13.3510  13.6034  14.0752  14.8353  15.8574  17.0222  18.2023

          k = 0.2778-0.2887 0.0000 (  4463 PWs)   bands (ev):

   -36.6338 -36.6270 -36.6129 -36.6005 -36.5494 -36.5230 -36.5000 -36.4477
   -36.3666 -36.3329 -36.3295 -36.2928 -36.2665 -36.2548 -36.2249 -36.2196
   -36.1810 -36.1453 -36.1194 -36.1182 -35.8853 -35.8852 -35.8169 -35.8167
     4.8717   4.9954   5.0767   5.1254   5.2640   5.3000   5.4683   5.5116
     5.7612   5.8634   6.1010   6.2660   6.5468   6.8156   7.0192   7.1891
     7.3118   7.3832   7.5120   7.6839   7.7658   7.9097   8.0672   8.3545
     8.4073   8.5550   8.7090   8.9380   9.1710   9.2957   9.3819   9.5312
     9.7596  10.0528  10.1710  10.3184  10.5033  10.6198  10.6630  10.8652
    11.0530  11.2406  11.2733  11.5894  12.5387  13.7770  15.1215  16.4516

          k = 0.2778-0.1604 0.0000 (  4458 PWs)   bands (ev):

   -36.6276 -36.6147 -36.5619 -36.5466 -36.5039 -36.4729 -36.4169 -36.4027
   -36.3461 -36.2803 -36.2792 -36.2789 -36.2231 -36.2185 -36.1997 -36.1654
   -36.1376 -36.1258 -36.0508 -36.0506 -35.8368 -35.8367 -35.8229 -35.8228
     4.4879   4.6916   4.9172   5.0060   5.1423   5.3678   5.5061   5.6033
     5.8553   5.9354   6.1085   6.4083   6.7503   6.8741   7.1213   7.2354
     7.4725   7.5650   7.6823   7.7079   7.8785   7.8885   8.1699   8.2746
     8.3819   8.5060   8.6585   8.6723   8.8731   9.0798   9.1990   9.2957
     9.3203   9.4012   9.5586   9.6037   9.7143   9.8414   9.9730  10.0990
    10.3646  10.3853  10.7314  10.9217  11.4656  12.7201  14.0373  15.2927

          k = 0.3889 0.6736 0.0000 (  4511 PWs)   bands (ev):

   -36.6777 -36.6710 -36.6312 -36.6252 -36.5875 -36.5748 -36.4948 -36.4842
   -36.4553 -36.4364 -36.4181 -36.3824 -36.3617 -36.3310 -36.2804 -36.2765
   -36.2293 -36.1961 -36.1666 -36.1664 -36.0103 -36.0102 -35.8083 -35.8080
     4.9470   5.1673   5.3314   5.4820   5.5264   5.5711   5.6573   5.8010
     5.9716   5.9816   6.1332   6.4125   6.4162   6.4877   6.5060   6.9258
     7.0671   7.4118   7.5557   7.7209   7.8859   7.9139   8.2082   8.2948
     8.5290   8.6696   8.7270   8.9264   9.2468   9.4973   9.6759   9.7901
    10.2362  10.2406  10.4149  10.4737  10.5966  10.7288  10.8586  10.8811
    15.1448  15.3931  15.6698  15.9307  16.2140  16.5616  16.9218  17.2069

          k = 0.3889-0.3528 0.0000 (  4485 PWs)   bands (ev):

   -36.7191 -36.7128 -36.6732 -36.6672 -36.6252 -36.6041 -36.4710 -36.4558
   -36.3817 -36.3733 -36.3516 -36.3113 -36.3039 -36.2951 -36.2539 -36.2480
   -36.2051 -36.1944 -36.1882 -36.1716 -35.9180 -35.9179 -35.8122 -35.8116
     4.5603   4.7463   4.7685   4.8977   4.9908   5.0684   5.1484   5.3603
     5.5050   5.6104   5.7745   6.0979   6.4563   6.7566   6.9908   7.3169
     7.3762   7.5502   7.6693   7.8095   8.1256   8.2191   8.5321   8.7621
     8.8624   9.2551   9.4755   9.5868   9.7675   9.9717  10.2392  10.3142
    10.3363  10.4057  10.4637  10.7240  10.7639  10.8643  11.0244  11.1686
    12.6708  13.0916  13.4917  13.7403  14.2147  15.0091  15.8846  16.5550

          k = 0.3889-0.2245 0.0000 (  4444 PWs)   bands (ev):

   -36.6951 -36.6878 -36.6632 -36.6461 -36.6099 -36.5713 -36.4896 -36.4574
   -36.3647 -36.3211 -36.3193 -36.3083 -36.2628 -36.2555 -36.2349 -36.1980
   -36.1841 -36.1732 -36.1589 -36.1561 -35.8722 -35.8719 -35.8154 -35.8151
     4.5143   4.5615   4.6657   4.8022   4.8442   4.9619   5.0677   5.1577
     5.4518   5.5430   5.5985   6.1321   6.6267   6.9961   7.2636   7.3375
     7.4595   7.6649   7.6734   7.9351   8.1389   8.2376   8.7316   8.7354
     8.9941   9.3358   9.6946   9.8715   9.8958  10.2477  10.2669  10.3588
    10.4209  10.4982  10.5189  10.5490  10.6655  10.7068  10.8138  10.9238
    11.0336  11.0383  11.3638  11.4853  12.5132  13.8778  15.2997  16.6824

          k =-0.5000-0.8660 0.0000 (  4492 PWs)   bands (ev):

   -36.7510 -36.7462 -36.7015 -36.7003 -36.6529 -36.6347 -36.4679 -36.4597
   -36.3442 -36.3381 -36.3356 -36.3217 -36.2838 -36.2786 -36.2485 -36.2250
   -36.2146 -36.2111 -36.1775 -36.1682 -35.8862 -35.8862 -35.8131 -35.8130
     4.2842   4.4613   4.4903   4.6290   4.7063   4.8377   4.8461   5.0374
     5.2992   5.3207   5.4461   5.9948   6.5603   6.8952   7.1141   7.2167
     7.3517   7.5770   7.9593   8.0682   8.2179   8.6068   8.7068   9.1222
     9.3716   9.5483  10.0392  10.1108  10.5098  10.5191  10.7394  10.8353
    10.8448  10.9053  10.9454  10.9693  11.0375  11.1501  11.3111  11.3169
    11.6096  12.5717  13.4716  13.7688  14.1533  14.2489  14.5142  14.5460

 ------ SPIN DOWN ----------


          k = 0.0556 0.0962 0.0000 (  4451 PWs)   bands (ev):

   -36.7120 -36.6795 -36.5436 -36.4071 -36.2826 -36.2417 -36.2289 -36.2139
   -36.2128 -36.1834 -36.1693 -36.1593 -36.1501 -36.1346 -36.1213 -36.1026
   -36.1012 -36.0790 -35.8441 -35.8440 -35.8116 -35.8114 -35.7799 -35.7797
     2.9389   3.2948   3.8833   4.4696   4.6759   4.6935   4.9872   5.0008
     6.7886   6.8550   7.0501   7.0779   7.0948   7.1723   7.3725   7.4358
     7.5140   7.5148   7.5296   7.5946   7.6293   7.6405   7.7322   7.7754
     7.8208   7.8423   7.8863   8.1114   8.1233   8.2036   8.7987   8.9760
     8.9892   9.1438   9.2402   9.3570   9.4340   9.5389   9.6061   9.7225
     9.8493  10.1824  10.2439  10.5916  10.7388  10.8031  11.5328  12.3416

          k = 0.0556 0.2245 0.0000 (  4420 PWs)   bands (ev):

   -36.6612 -36.6420 -36.5353 -36.4545 -36.3990 -36.3585 -36.3126 -36.3041
   -36.2795 -36.2468 -36.2462 -36.2393 -36.1917 -36.1839 -36.1707 -36.1431
   -36.1188 -36.1040 -35.9379 -35.9376 -35.8326 -35.8324 -35.8127 -35.8127
     3.8584   4.1472   4.6362   5.1303   5.2314   5.3786   5.6231   5.7283
     6.1256   6.3537   6.5024   6.5259   6.6497   6.7679   6.8269   7.2332
     7.4206   7.4980   7.6035   7.6873   7.7599   7.8005   7.8704   7.9247
     8.0962   8.2261   8.2906   8.3380   8.5098   8.5987   8.6890   8.6944
     8.7967   8.9315   9.0587   9.1743   9.3978   9.5792   9.7347   9.8196
    10.0947  10.3106  10.5655  10.7625  10.9569  11.8982  13.0017  14.0727

          k = 0.0556 0.3528 0.0000 (  4467 PWs)   bands (ev):

   -36.6267 -36.6143 -36.5909 -36.5808 -36.5218 -36.5139 -36.4613 -36.4299
   -36.3592 -36.3017 -36.2992 -36.2867 -36.2401 -36.2306 -36.2126 -36.1861
   -36.1503 -36.1365 -36.0909 -36.0902 -35.8567 -35.8565 -35.8238 -35.8236
     4.6564   4.8651   4.9644   5.0015   5.1437   5.2750   5.4295   5.4934
     5.7773   5.8807   6.0271   6.3227   6.7271   6.8654   7.1761   7.2012
     7.5044   7.5199   7.6167   7.6608   7.7847   7.9314   8.1464   8.3572
     8.4720   8.6116   8.7663   8.8413   9.0755   9.2994   9.4236   9.4726
     9.6162   9.7564   9.8367  10.0089  10.1215  10.1538  10.3464  10.4011
    10.4500  10.6502  10.7882  10.8603  11.8531  13.1319  14.4866  15.7946

          k = 0.0556 0.4811 0.0000 (  4463 PWs)   bands (ev):

   -36.7160 -36.7098 -36.6755 -36.6632 -36.6253 -36.5953 -36.4805 -36.4590
   -36.3647 -36.3407 -36.3364 -36.3078 -36.2794 -36.2704 -36.2413 -36.2204
   -36.1952 -36.1915 -36.1731 -36.1632 -35.8896 -35.8893 -35.8175 -35.8170
     4.4785   4.5894   4.6554   4.7952   4.8365   4.9705   5.0262   5.1803
     5.4420   5.4962   5.6047   6.0850   6.5556   6.9154   7.1638   7.3261
     7.4117   7.6051   7.7025   7.9399   8.1927   8.2615   8.6982   8.8424
     9.0092   9.4081   9.6247   9.8682   9.9961  10.1282  10.3704  10.4362
    10.5026  10.5589  10.6083  10.6470  10.7457  10.8192  10.9593  11.0916
    11.4812  11.9519  12.3338  12.4628  13.1236  14.2734  15.5405  16.7137

          k = 0.0556-0.5453 0.0000 (  4486 PWs)   bands (ev):

   -36.7441 -36.7382 -36.6950 -36.6905 -36.6460 -36.6265 -36.4693 -36.4594
   -36.3593 -36.3492 -36.3388 -36.3140 -36.2911 -36.2834 -36.2485 -36.2322
   -36.2131 -36.2100 -36.1772 -36.1737 -35.8972 -35.8970 -35.8163 -35.8158
     4.3591   4.5351   4.5641   4.6942   4.7816   4.8971   4.9212   5.1225
     5.3532   5.4009   5.5247   6.0203   6.5399   6.8515   7.0870   7.2664
     7.3607   7.6070   7.7770   8.0570   8.1636   8.4576   8.8046   8.9055
     9.2796   9.5289   9.7761  10.1167  10.2785  10.3828  10.4813  10.6460
    10.7319  10.7727  10.8293  10.8576  10.9236  10.9836  11.1226  11.1944
    12.0941  12.7783  13.4854  13.8117  13.8932  14.3344  14.9888  15.4569

          k = 0.0556-0.4170 0.0000 (  4465 PWs)   bands (ev):

   -36.6657 -36.6587 -36.6421 -36.6246 -36.5823 -36.5407 -36.5014 -36.4548
   -36.3668 -36.3242 -36.3217 -36.2992 -36.2624 -36.2515 -36.2287 -36.2048
   -36.1664 -36.1591 -36.1501 -36.1436 -35.8757 -35.8756 -35.8201 -35.8197
     4.6599   4.6968   4.8182   4.9123   4.9945   5.0874   5.2161   5.2854
     5.5804   5.6765   5.7694   6.1980   6.6166   6.9689   7.2708   7.3714
     7.5095   7.5202   7.6584   7.7693   7.9327   8.2389   8.3453   8.5187
     8.8285   9.0692   9.2710   9.3784   9.5199   9.7531   9.9402  10.0127
    10.0765  10.2153  10.2640  10.3730  10.4396  10.5885  10.7093  10.8585
    10.9355  11.0974  11.1854  11.4272  12.4356  13.7608  15.1710  16.5545

          k = 0.0556-0.2887 0.0000 (  4439 PWs)   bands (ev):

   -36.6329 -36.6219 -36.5464 -36.5136 -36.4765 -36.4361 -36.3791 -36.3767
   -36.3324 -36.2752 -36.2726 -36.2680 -36.2149 -36.2081 -36.1930 -36.1648
   -36.1335 -36.1192 -36.0164 -36.0161 -35.8348 -35.8346 -35.8277 -35.8274
     4.3812   4.5931   4.9177   5.1724   5.2712   5.4857   5.6953   5.7634
     6.0084   6.0621   6.2605   6.4177   6.5629   6.6945   6.9670   7.0196
     7.3551   7.5744   7.6491   7.7273   7.7443   7.8650   7.9320   8.0585
     8.1546   8.2710   8.5033   8.6561   8.6869   8.8128   8.9749   9.0263
     9.1789   9.2760   9.4141   9.5421   9.6190   9.8515   9.9602  10.0320
    10.1404  10.4880  10.6088  10.8047  11.3707  12.5069  13.7508  14.9486

          k = 0.0556-0.1604 0.0000 (  4443 PWs)   bands (ev):

   -36.6903 -36.6631 -36.5381 -36.4215 -36.3296 -36.2921 -36.2605 -36.2447
   -36.2331 -36.2196 -36.2096 -36.1996 -36.1658 -36.1590 -36.1483 -36.1215
   -36.1084 -36.0906 -35.8688 -35.8687 -35.8362 -35.8361 -35.7938 -35.7938
     3.3344   3.6705   4.2334   4.8050   4.9703   5.0140   5.2977   5.3321
     6.4868   6.6462   6.7411   6.8159   6.8999   6.9561   7.1280   7.2873
     7.5193   7.5310   7.6710   7.6995   7.7739   7.7910   7.8100   7.8484
     7.8975   7.9421   8.0922   8.1379   8.2503   8.3872   8.4299   8.8039
     8.8784   8.9593   9.0507   9.0868   9.3765   9.4805   9.5950   9.7245
    10.0577  10.1406  10.5652  10.5840  10.7452  11.3147  12.2502  13.1869

          k = 0.0556-0.0321 0.0000 (  4465 PWs)   bands (ev):

   -36.7235 -36.6886 -36.5477 -36.4029 -36.2644 -36.2142 -36.2104 -36.2038
   -36.2031 -36.1576 -36.1463 -36.1431 -36.1330 -36.1259 -36.1044 -36.1015
   -36.0833 -36.0719 -35.8461 -35.8456 -35.7838 -35.7834 -35.7725 -35.7723
     2.7295   3.0924   3.6884   4.2780   4.5046   4.5172   4.8073   4.8139
     6.9700   7.0220   7.2006   7.2191   7.2553   7.3005   7.3577   7.4032
     7.4265   7.4498   7.4694   7.5142   7.5573   7.6307   7.6633   7.7010
     7.7470   7.8590   7.9395   7.9704   7.9917   8.4737   9.1031   9.1061
     9.2357   9.2673   9.3272   9.3999   9.4146   9.5684   9.6715   9.9019
     9.9755  10.1248  10.3223  10.3315  10.6446  10.7993  10.9557  11.6868

          k = 0.1667 0.2887 0.0000 (  4425 PWs)   bands (ev):

   -36.6124 -36.6120 -36.5559 -36.5368 -36.5063 -36.4744 -36.4233 -36.4042
   -36.3573 -36.3046 -36.3009 -36.2795 -36.2387 -36.2253 -36.2069 -36.1935
   -36.1799 -36.1245 -36.0478 -36.0477 -35.8675 -35.8675 -35.8241 -35.8240
     4.8633   4.9588   5.1728   5.4487   5.7411   5.8122   5.8313   5.9144
     5.9548   6.0408   6.1099   6.2200   6.3798   6.4839   6.9075   6.9814
     6.9941   7.1594   7.3443   7.4100   7.4423   7.5057   7.6033   8.1439
     8.1593   8.3659   8.3857   8.5735   8.7814   9.0092   9.2024   9.2220
     9.4379   9.6155   9.8437  10.0525  10.0843  10.2144  10.3959  10.4633
    10.4890  10.5618  10.6516  10.9053  11.9075  13.0642  14.3195  15.5593

          k = 0.1667 0.4170 0.0000 (  4459 PWs)   bands (ev):

   -36.6501 -36.6460 -36.6200 -36.6130 -36.5668 -36.5447 -36.5073 -36.4590
   -36.3773 -36.3748 -36.3687 -36.3080 -36.2994 -36.2810 -36.2642 -36.2344
   -36.2175 -36.1565 -36.1425 -36.1411 -35.9297 -35.9294 -35.8172 -35.8167
     5.0305   5.0923   5.1879   5.3064   5.4087   5.4328   5.6352   5.6871
     5.7812   5.9212   6.2083   6.3394   6.4378   6.7060   6.8612   7.0264
     7.1094   7.2355   7.4456   7.5950   7.8167   7.9676   8.0042   8.2111
     8.3149   8.4420   8.6680   8.9737   9.1578   9.2242   9.3425   9.5657
     9.6975   9.8901  10.2616  10.6620  10.7535  10.8368  10.9012  11.0666
    12.0972  12.2334  12.3646  12.7540  13.5649  14.6934  15.9664  17.2585

          k = 0.1667 0.5453 0.0000 (  4490 PWs)   bands (ev):

   -36.7069 -36.7012 -36.6577 -36.6545 -36.6119 -36.5951 -36.4698 -36.4610
   -36.4165 -36.4162 -36.3770 -36.3497 -36.3279 -36.3015 -36.2786 -36.2680
   -36.2215 -36.1891 -36.1873 -36.1823 -35.9634 -35.9632 -35.8134 -35.8129
     4.7212   4.9478   5.0089   5.1515   5.2361   5.2963   5.3649   5.6447
     5.6749   5.7941   6.0761   6.2174   6.3365   6.5450   6.7489   7.1493
     7.2485   7.5103   7.6775   7.8201   7.9533   8.0812   8.3340   8.4521
     8.7050   8.9658   9.1566   9.2821   9.3963   9.7739   9.9835  10.1068
    10.2192  10.3164  10.4789  10.5990  10.6917  10.8023  10.9672  11.0707
    13.9399  14.2974  14.6844  15.0222  15.4188  15.8891  16.2665  16.4604

          k = 0.1667-0.4811 0.0000 (  4476 PWs)   bands (ev):

   -36.6866 -36.6810 -36.6436 -36.6401 -36.5949 -36.5784 -36.4857 -36.4613
   -36.4016 -36.4006 -36.3754 -36.3317 -36.3185 -36.2953 -36.2795 -36.2527
   -36.2212 -36.1763 -36.1724 -36.1678 -35.9516 -35.9515 -35.8146 -35.8143
     4.8310   5.0283   5.0408   5.2437   5.2692   5.3317   5.4670   5.6727
     5.7443   5.8098   6.1358   6.2566   6.3709   6.6459   6.8541   7.0019
     7.2137   7.4752   7.6672   7.7278   7.8973   8.0565   8.1293   8.3809
     8.5896   8.8560   8.9032   9.0270   9.3105   9.6350   9.7483   9.8065
     9.8761  10.0292  10.3518  10.7086  10.7780  10.8838  11.0141  11.1629
    13.0584  13.2847  13.5319  13.9271  14.6129  15.5661  16.6370  17.6150

          k = 0.1667-0.3528 0.0000 (  4458 PWs)   bands (ev):

   -36.6168 -36.6118 -36.5877 -36.5804 -36.5303 -36.5286 -36.4871 -36.4417
   -36.3708 -36.3403 -36.3369 -36.2924 -36.2706 -36.2568 -36.2310 -36.2175
   -36.2062 -36.1392 -36.1000 -36.0996 -35.9003 -35.9001 -35.8208 -35.8205
     5.1206   5.2139   5.2843   5.3646   5.5152   5.6143   5.6672   5.7904
     5.8827   6.1150   6.1780   6.3575   6.4001   6.6739   6.7329   6.9140
     7.0759   7.2757   7.3060   7.3630   7.5702   7.7262   7.8091   8.0607
     8.0853   8.3179   8.6162   8.7443   8.8218   9.1515   9.2310   9.3878
     9.5994   9.7817  10.1247  10.3891  10.5375  10.6205  10.6378  10.8412
    11.2053  11.2725  11.3478  11.6851  12.6176  13.8108  15.1078  16.3996

          k = 0.1667-0.2245 0.0000 (  4433 PWs)   bands (ev):

   -36.6366 -36.6257 -36.5405 -36.4916 -36.4531 -36.4138 -36.3582 -36.3566
   -36.3273 -36.2745 -36.2691 -36.2621 -36.2117 -36.1981 -36.1929 -36.1666
   -36.1442 -36.1140 -35.9917 -35.9916 -35.8376 -35.8375 -35.8282 -35.8280
     4.3330   4.5577   4.9498   5.3851   5.5160   5.6429   5.8332   5.9079
     6.0211   6.1755   6.2623   6.3068   6.4627   6.6389   6.7112   6.9829
     7.2266   7.2894   7.4041   7.5102   7.6019   7.7082   7.7734   7.9805
     8.1253   8.3390   8.4788   8.5313   8.6874   8.8076   8.8812   8.9552
     9.1313   9.2653   9.4400   9.5629   9.5823   9.9256   9.9511   9.9884
    10.0893  10.4229  10.5467  10.6330  11.3894  12.4391  13.6172  14.7755

          k = 0.1667-0.0962 0.0000 (  4427 PWs)   bands (ev):

   -36.6809 -36.6558 -36.5363 -36.4314 -36.3552 -36.3166 -36.2799 -36.2616
   -36.2348 -36.2344 -36.2335 -36.2120 -36.1768 -36.1653 -36.1592 -36.1282
   -36.1117 -36.0921 -35.8942 -35.8939 -35.8354 -35.8351 -35.7985 -35.7984
     3.5139   3.8355   4.3752   4.9169   5.0431   5.1508   5.4145   5.4790
     6.3092   6.5637   6.6452   6.7158   6.8412   6.9040   6.9690   7.3789
     7.5440   7.5595   7.6759   7.7053   7.7881   7.8614   7.8794   7.9411
     8.0179   8.0214   8.1251   8.1575   8.2350   8.4123   8.5246   8.6306
     8.8125   8.8532   9.0329   9.1435   9.3166   9.4304   9.6674   9.7975
     9.9467  10.3517  10.5423  10.6843  10.8524  11.4688  12.5150  13.5108

          k = 0.2778 0.4811 0.0000 (  4485 PWs)   bands (ev):

   -36.6514 -36.6476 -36.6220 -36.6079 -36.5716 -36.5471 -36.5284 -36.5006
   -36.4486 -36.4436 -36.4208 -36.3749 -36.3622 -36.3504 -36.2853 -36.2663
   -36.2359 -36.1893 -36.1511 -36.1510 -36.0224 -36.0223 -35.8119 -35.8119
     5.2526   5.2709   5.3963   5.4414   5.5962   5.7995   5.9322   6.0323
     6.0782   6.1415   6.2128   6.2823   6.2866   6.5858   6.6553   6.9313
     6.9758   7.2744   7.2801   7.6016   7.6969   7.9408   7.9778   8.1657
     8.1939   8.6621   8.7578   8.8509   9.0595   9.1988   9.3756   9.3992
     9.7337  10.0213  10.3807  10.6561  10.7684  10.7778  10.8805  11.0573
    14.4162  14.5790  14.9309  15.4635  16.1949  17.1119  18.1069  18.7805

          k = 0.2778 0.6094 0.0000 (  4491 PWs)   bands (ev):

   -36.6430 -36.6372 -36.6090 -36.5976 -36.5667 -36.5608 -36.5370 -36.5091
   -36.4772 -36.4661 -36.4437 -36.4086 -36.3735 -36.3623 -36.2821 -36.2674
   -36.2331 -36.2060 -36.1431 -36.1429 -36.0544 -36.0543 -35.8106 -35.8105
     5.2224   5.4105   5.4842   5.6100   5.7010   5.7768   5.9113   5.9898
     6.0166   6.0757   6.2076   6.2835   6.3570   6.5602   6.6088   6.9706
     7.1010   7.2943   7.3706   7.5234   7.6705   7.8791   7.9312   8.2263
     8.2409   8.6320   8.7850   8.9701   9.0879   9.2171   9.3946   9.4552
    10.0432  10.2037  10.3981  10.4958  10.5876  10.6587  10.6985  10.8346
    15.6212  15.8437  16.2206  16.6400  16.9863  17.3614  17.7962  18.2717

          k = 0.2778-0.4170 0.0000 (  4462 PWs)   bands (ev):

   -36.6562 -36.6530 -36.6218 -36.6172 -36.5681 -36.5609 -36.5094 -36.4732
   -36.4150 -36.4100 -36.3953 -36.3393 -36.3330 -36.3147 -36.2824 -36.2607
   -36.2303 -36.1708 -36.1522 -36.1520 -35.9770 -35.9769 -35.8139 -35.8137
     5.1101   5.2472   5.2721   5.4333   5.4806   5.6464   5.7285   5.8987
     5.9364   6.1124   6.2566   6.3687   6.4979   6.5381   6.7458   6.8245
     6.9706   7.2207   7.3797   7.5371   7.8020   7.9596   8.0279   8.1882
     8.2360   8.4289   8.6687   8.9152   9.0773   9.2410   9.3469   9.5201
     9.5905   9.8542  10.3340  10.7267  10.8483  10.9078  10.9875  11.1630
    13.2469  13.3504  13.6025  14.0745  14.8346  15.8567  17.0216  18.2017

          k = 0.2778-0.2887 0.0000 (  4463 PWs)   bands (ev):

   -36.6348 -36.6280 -36.6135 -36.6012 -36.5499 -36.5235 -36.5003 -36.4483
   -36.3671 -36.3341 -36.3308 -36.2932 -36.2667 -36.2548 -36.2250 -36.2197
   -36.1810 -36.1454 -36.1217 -36.1204 -35.8878 -35.8877 -35.8203 -35.8201
     4.8716   4.9953   5.0763   5.1250   5.2636   5.2997   5.4679   5.5109
     5.7605   5.8627   6.1004   6.2653   6.5460   6.8150   7.0185   7.1885
     7.3110   7.3829   7.5114   7.6833   7.7648   7.9088   8.0661   8.3535
     8.4066   8.5539   8.7080   8.9370   9.1700   9.2952   9.3809   9.5301
     9.7582  10.0514  10.1697  10.3179  10.5024  10.6188  10.6616  10.8645
    11.0522  11.2402  11.2721  11.5884  12.5379  13.7763  15.1208  16.4509

          k = 0.2778-0.1604 0.0000 (  4458 PWs)   bands (ev):

   -36.6282 -36.6155 -36.5625 -36.5476 -36.5049 -36.4736 -36.4172 -36.4030
   -36.3465 -36.2815 -36.2804 -36.2792 -36.2234 -36.2187 -36.1999 -36.1655
   -36.1376 -36.1258 -36.0532 -36.0530 -35.8392 -35.8391 -35.8263 -35.8262
     4.4879   4.6914   4.9170   5.0058   5.1419   5.3674   5.5057   5.6025
     5.8546   5.9348   6.1078   6.4076   6.7497   6.8735   7.1206   7.2347
     7.4719   7.5644   7.6817   7.7075   7.8775   7.8876   8.1688   8.2737
     8.3807   8.5049   8.6578   8.6715   8.8722   9.0789   9.1981   9.2951
     9.3193   9.4010   9.5579   9.6025   9.7129   9.8399   9.9717  10.0982
    10.3634  10.3841  10.7298  10.9209  11.4646  12.7193  14.0366  15.2919

          k = 0.3889 0.6736 0.0000 (  4511 PWs)   bands (ev):

   -36.6787 -36.6723 -36.6318 -36.6255 -36.5877 -36.5749 -36.4959 -36.4853
   -36.4562 -36.4375 -36.4182 -36.3829 -36.3621 -36.3312 -36.2805 -36.2765
   -36.2293 -36.1961 -36.1689 -36.1687 -36.0127 -36.0126 -35.8118 -35.8115
     4.9468   5.1667   5.3312   5.4815   5.5261   5.5707   5.6567   5.8005
     5.9708   5.9809   6.1324   6.4120   6.4158   6.4869   6.5056   6.9251
     7.0664   7.4107   7.5550   7.7194   7.8856   7.9125   8.2078   8.2942
     8.5283   8.6681   8.7258   8.9257   9.2462   9.4965   9.6746   9.7893
    10.2343  10.2388  10.4135  10.4723  10.5959  10.7275  10.8585  10.8803
    15.1446  15.3927  15.6694  15.9302  16.2136  16.5611  16.9213  17.2066

          k = 0.3889-0.3528 0.0000 (  4485 PWs)   bands (ev):

   -36.7201 -36.7141 -36.6736 -36.6675 -36.6254 -36.6043 -36.4721 -36.4570
   -36.3826 -36.3745 -36.3521 -36.3115 -36.3040 -36.2955 -36.2540 -36.2482
   -36.2061 -36.1962 -36.1894 -36.1718 -35.9204 -35.9204 -35.8156 -35.8151
     4.5601   4.7461   4.7680   4.8973   4.9904   5.0678   5.1479   5.3599
     5.5043   5.6096   5.7736   6.0971   6.4556   6.7559   6.9904   7.3161
     7.3753   7.5493   7.6685   7.8090   8.1246   8.2182   8.5315   8.7613
     8.8616   9.2543   9.4745   9.5856   9.7663   9.9705  10.2378  10.3131
    10.3355  10.4045  10.4622  10.7234  10.7628  10.8632  11.0232  11.1681
    12.6704  13.0910  13.4913  13.7399  14.2142  15.0086  15.8842  16.5548

          k = 0.3889-0.2245 0.0000 (  4444 PWs)   bands (ev):

   -36.6962 -36.6891 -36.6635 -36.6465 -36.6102 -36.5715 -36.4905 -36.4583
   -36.3652 -36.3222 -36.3205 -36.3086 -36.2630 -36.2556 -36.2351 -36.1981
   -36.1857 -36.1754 -36.1596 -36.1561 -35.8746 -35.8743 -35.8189 -35.8186
     4.5141   4.5613   4.6652   4.8017   4.8440   4.9615   5.0672   5.1573
     5.4509   5.5423   5.5976   6.1314   6.6261   6.9953   7.2625   7.3371
     7.4592   7.6639   7.6725   7.9346   8.1379   8.2364   8.7309   8.7345
     8.9928   9.3349   9.6936   9.8705   9.8947  10.2465  10.2658  10.3584
    10.4202  10.4968  10.5178  10.5486  10.6653  10.7054  10.8122  10.9220
    11.0327  11.0380  11.3636  11.4847  12.5126  13.8772  15.2991  16.6818

          k =-0.5000-0.8660 0.0000 (  4492 PWs)   bands (ev):

   -36.7520 -36.7475 -36.7017 -36.7008 -36.6530 -36.6349 -36.4693 -36.4611
   -36.3443 -36.3392 -36.3368 -36.3217 -36.2841 -36.2790 -36.2488 -36.2270
   -36.2166 -36.2112 -36.1776 -36.1682 -35.8887 -35.8887 -35.8166 -35.8165
     4.2840   4.4609   4.4899   4.6286   4.7060   4.8373   4.8455   5.0372
     5.2986   5.3196   5.4451   5.9940   6.5597   6.8944   7.1129   7.2161
     7.3513   7.5761   7.9585   8.0672   8.2175   8.6054   8.7059   9.1214
     9.3708   9.5464  10.0379  10.1100  10.5081  10.5176  10.7387  10.8347
    10.8440  10.9047  10.9447  10.9688  11.0371  11.1498  11.3089  11.3148
    11.6091  12.5714  13.4714  13.7686  14.1529  14.2486  14.5139  14.5458

     the Fermi energy is    10.2863 ev

!    total energy              =   -1369.42566286 Ry
     estimated scf accuracy    <       0.00000006 Ry
     smearing contrib. (-TS)   =      -0.03441643 Ry
     internal energy E=F+TS    =   -1369.39124643 Ry

     The total energy is F=E-TS. E is the sum of the following terms:
     one-electron contribution =  -12592.32405900 Ry
     hartree contribution      =    6356.93978662 Ry
     xc contribution           =    -239.30763043 Ry
     ewald contribution        =    5105.30065637 Ry

     total magnetization       =    -0.01 Bohr mag/cell
     absolute magnetization    =     0.01 Bohr mag/cell

     convergence has been achieved in  17 iterations

     negative rho (up, down):  2.297E-01 2.297E-01

     Forces acting on atoms (cartesian axes, Ry/au):

     atom    1 type  1   force =     0.00000000    0.00000000    0.00027950
     atom    2 type  1   force =     0.00000000    0.00000000    0.00096831
     atom    3 type  1   force =     0.00000000    0.00000000    0.00073421
     atom    4 type  1   force =     0.00000000    0.00000000   -0.00000919
     atom    5 type  1   force =     0.00000000    0.00000000    0.00001894
     atom    6 type  1   force =     0.00000000    0.00000000   -0.00073743
     atom    7 type  1   force =     0.00000000    0.00000000   -0.00097664
     atom    8 type  1   force =     0.00000000    0.00000000   -0.00027771

     Total force =     0.001769     Total SCF correction =     0.001500
     SCF correction compared to forces is large: reduce conv_thr to get better values
     Energy error            =      1.2E-05
     Gradient error          =      9.8E-04

     bfgs converged in   7 scf cycles and   6 bfgs steps
     (criteria: energy <  1.0E-04 Ry, force <  1.0E-03 Ry/Bohr)

     End of BFGS Geometry Optimization

     Final energy   =   -1369.4256628615 Ry

     File /home/STUDENTI/leonardo.razzai/WORK/relax_surf/8-L.bfgs deleted, as requested
Begin final coordinates

ATOMIC_POSITIONS (angstrom)
Rh            0.0000000000        0.0000000000        0.0320394367
Rh            2.7108568000        1.5651139000        2.2049443578
Rh            1.3554284000        0.7825569000        4.4071030435
Rh            0.0000000000        0.0000000000        6.6367901335
Rh            2.7108568000        1.5651139000        8.8570024999
Rh            1.3554284000        0.7825569000       11.0867340071
Rh            0.0000000000        0.0000000000       13.2889210510
Rh            2.7108568000        1.5651139000       15.4618135706
End final coordinates


 
     init_run     :      8.63s CPU      8.88s WALL (       1 calls)
     electrons    :   1788.55s CPU   1889.60s WALL (       8 calls)
     update_pot   :      2.89s CPU      2.91s WALL (       6 calls)
     forces       :     31.46s CPU     32.49s WALL (       8 calls)

     Called by init_run:
     wfcinit      :      7.43s CPU      7.60s WALL (       1 calls)
     potinit      :      0.38s CPU      0.41s WALL (       2 calls)
     hinit0       :      0.49s CPU      0.52s WALL (       1 calls)

     Called by electrons:
     c_bands      :   1504.34s CPU   1580.89s WALL (      88 calls)
     sum_band     :    235.92s CPU    255.82s WALL (      88 calls)
     v_of_rho     :     10.24s CPU     10.52s WALL (      96 calls)
     newd         :     17.71s CPU     20.76s WALL (      96 calls)
     mix_rho      :     21.62s CPU     22.68s WALL (      88 calls)

     Called by c_bands:
     init_us_2    :     16.39s CPU     17.33s WALL (    9250 calls)
     cegterg      :   1363.22s CPU   1434.44s WALL (    4400 calls)

     Called by *egterg:
     cdiaghg      :    147.41s CPU    153.93s WALL (   13959 calls)
     h_psi        :    815.94s CPU    867.16s WALL (   14359 calls)
     s_psi        :    102.64s CPU    105.66s WALL (   14359 calls)
     g_psi        :      4.43s CPU      4.58s WALL (    9909 calls)

     Called by h_psi:
     h_psi:calbec :    124.67s CPU    129.42s WALL (   14359 calls)
     vloc_psi     :    580.26s CPU    621.66s WALL (   14359 calls)
     add_vuspsi   :    107.62s CPU    112.66s WALL (   14359 calls)

     General routines
     calbec       :    194.29s CPU    201.62s WALL (   20359 calls)
     fft          :      5.28s CPU      5.47s WALL (    2508 calls)
     ffts         :     10.74s CPU     11.29s WALL (   17870 calls)
     fftw         :    656.20s CPU    704.54s WALL ( 1788464 calls)
     interpolate  :      0.52s CPU      0.58s WALL (     192 calls)
 
     Parallel routines
     fft_scatt_xy :     65.89s CPU     69.69s WALL ( 1808842 calls)
     fft_scatt_yz :    212.19s CPU    224.77s WALL ( 1808842 calls)
 
     PWSCF        :  30m33.62s CPU  32m16.60s WALL

 
   This run was terminated on:   9:26:11   5Apr2023            

=------------------------------------------------------------------------------=
   JOB DONE.
=------------------------------------------------------------------------------=
