MPI startup(): shm:dapl fabric is unknown or has been removed from the product, please use ofi or shm:ofi instead.

     Program PWSCF v.6.7MaX starts on  5Apr2023 at 12:27:22 

     This program is part of the open-source Quantum ESPRESSO suite
     for quantum simulation of materials; please cite
         "P. Giannozzi et al., J. Phys.:Condens. Matter 21 395502 (2009);
         "P. Giannozzi et al., J. Phys.:Condens. Matter 29 465901 (2017);
          URL http://www.quantum-espresso.org", 
     in publications or presentations arising from this work. More details at
     http://www.quantum-espresso.org/quote

     Parallel version (MPI), running on     8 processors

     MPI processes distributed on     1 nodes
     R & G space division:  proc/nbgrp/npool/nimage =       8
     Reading input from Rh_bulk.pwi

     Current dimensions of program PWSCF are:
     Max number of different atomic species (ntypx) = 10
     Max number of k-points (npk) =  40000
     Max angular momentum in pseudopotentials (lmaxx) =  3

     Subspace diagonalization in iterative solution of the eigenvalue problem:
     a serial algorithm will be used

     Found symmetry operation: I + (  0.3333 -0.3333  0.3333)
     This is a supercell, fractional translations are disabled
 
     Parallelization info
     --------------------
     sticks:   dense  smooth     PW     G-vecs:    dense   smooth      PW
     Min          63      31     11                 2830      995     224
     Max          65      32     12                 2833     1004     227
     Sum         511     253     91                22657     8003    1811
 


     bravais-lattice index     =            4
     lattice parameter (alat)  =       5.1228  a.u.
     unit-cell volume          =     285.1822 (a.u.)^3
     number of atoms/cell      =            3
     number of atomic types    =            1
     number of electrons       =        45.00
     number of Kohn-Sham states=           28
     kinetic-energy cutoff     =      35.0000  Ry
     charge density cutoff     =     280.0000  Ry
     scf convergence threshold =      1.0E-06
     mixing beta               =       0.4000
     number of iterations used =            8  local-TF  mixing
     energy convergence thresh.=      1.0E-04
     force convergence thresh. =      1.0E-03
     Exchange-correlation=  SLA  PW   PBX  PBC
                           (   1   4   3   4   0   0   0)
     nstep                     =           50


     celldm(1)=   5.122776  celldm(2)=   0.000000  celldm(3)=   2.449490
     celldm(4)=   0.000000  celldm(5)=   0.000000  celldm(6)=   0.000000

     crystal axes: (cart. coord. in units of alat)
               a(1) = (   1.000000   0.000000   0.000000 )  
               a(2) = (  -0.500000   0.866025   0.000000 )  
               a(3) = (   0.000000   0.000000   2.449490 )  

     reciprocal axes: (cart. coord. in units 2 pi/alat)
               b(1) = (  1.000000  0.577350  0.000000 )  
               b(2) = (  0.000000  1.154701  0.000000 )  
               b(3) = (  0.000000  0.000000  0.408248 )  


     PseudoPot. # 1 for Rh read from file:
     /home/software/materia/pseudo/rh_pbe_v1.4.uspp.F.UPF
     MD5 check sum: 761627e959a2e3a1f56b0b5fe687810e
     Pseudo is Ultrasoft + core correction, Zval = 15.0
     Generated by new atomic code, or converted to UPF format
     Using radial grid of  969 points,  7 beta functions with: 
                l(1) =   0
                l(2) =   0
                l(3) =   1
                l(4) =   1
                l(5) =   2
                l(6) =   2
                l(7) =   2
     Q(r) pseudized with  8 coefficients,  rinner =    1.200   1.200   1.200
                                                       1.200   1.200

     atomic species   valence    mass     pseudopotential
        Rh            15.00   102.90500     Rh( 1.00)

     Starting magnetic structure 
     atomic species   magnetization
        Rh           0.010

     12 Sym. Ops., with inversion, found



   Cartesian axes

     site n.     atom                  positions (alat units)
         1           Rh  tau(   1) = (   0.0000000   0.0000000   0.0000000  )
         2           Rh  tau(   2) = (   0.5000001  -0.2886752   0.8164967  )
         3           Rh  tau(   3) = (   0.5000001   0.2886752   1.6329934  )

     number of k points=    90  Gaussian smearing, width (Ry)=  0.0200
                       cart. coord. in units 2pi/alat
        k(    1) = (   0.0555556   0.0962250   0.0510310), wk =   0.0123457
        k(    2) = (   0.0555556   0.0962250   0.1530931), wk =   0.0123457
        k(    3) = (   0.0555556   0.2245251   0.0510310), wk =   0.0123457
        k(    4) = (   0.0555556   0.2245251   0.1530931), wk =   0.0123457
        k(    5) = (   0.0555556   0.3528252   0.0510310), wk =   0.0123457
        k(    6) = (   0.0555556   0.3528252   0.1530931), wk =   0.0123457
        k(    7) = (   0.0555556   0.4811252   0.0510310), wk =   0.0123457
        k(    8) = (   0.0555556   0.4811252   0.1530931), wk =   0.0123457
        k(    9) = (   0.0555556  -0.5452753   0.0510310), wk =   0.0123457
        k(   10) = (   0.0555556  -0.5452753   0.1530931), wk =   0.0123457
        k(   11) = (   0.0555556  -0.4169752   0.0510310), wk =   0.0123457
        k(   12) = (   0.0555556  -0.4169752   0.1530931), wk =   0.0123457
        k(   13) = (   0.0555556  -0.2886751   0.0510310), wk =   0.0123457
        k(   14) = (   0.0555556  -0.2886751   0.1530931), wk =   0.0123457
        k(   15) = (   0.0555556  -0.1603751   0.0510310), wk =   0.0123457
        k(   16) = (   0.0555556  -0.1603751   0.1530931), wk =   0.0123457
        k(   17) = (   0.0555556  -0.0320750   0.0510310), wk =   0.0061728
        k(   18) = (   0.0555556  -0.0320750   0.1530931), wk =   0.0061728
        k(   19) = (   0.1666667   0.2886751   0.0510310), wk =   0.0123457
        k(   20) = (   0.1666667   0.2886751   0.1530931), wk =   0.0123457
        k(   21) = (   0.1666667   0.4169752   0.0510310), wk =   0.0123457
        k(   22) = (   0.1666667   0.4169752   0.1530931), wk =   0.0123457
        k(   23) = (   0.1666667   0.5452753   0.0510310), wk =   0.0123457
        k(   24) = (   0.1666667   0.5452753   0.1530931), wk =   0.0123457
        k(   25) = (   0.1666667  -0.4811252   0.0510310), wk =   0.0123457
        k(   26) = (   0.1666667  -0.4811252   0.1530931), wk =   0.0123457
        k(   27) = (   0.1666667  -0.3528252   0.0510310), wk =   0.0123457
        k(   28) = (   0.1666667  -0.3528252   0.1530931), wk =   0.0123457
        k(   29) = (   0.1666667  -0.2245251   0.0510310), wk =   0.0123457
        k(   30) = (   0.1666667  -0.2245251   0.1530931), wk =   0.0123457
        k(   31) = (   0.1666667  -0.0962250   0.0510310), wk =   0.0061728
        k(   32) = (   0.1666667  -0.0962250   0.1530931), wk =   0.0061728
        k(   33) = (   0.2777778   0.4811252   0.0510310), wk =   0.0123457
        k(   34) = (   0.2777778   0.4811252   0.1530931), wk =   0.0123457
        k(   35) = (   0.2777778   0.6094253   0.0510310), wk =   0.0123457
        k(   36) = (   0.2777778   0.6094253   0.1530931), wk =   0.0123457
        k(   37) = (   0.2777778  -0.4169752   0.0510310), wk =   0.0123457
        k(   38) = (   0.2777778  -0.4169752   0.1530931), wk =   0.0123457
        k(   39) = (   0.2777778  -0.2886751   0.0510310), wk =   0.0123457
        k(   40) = (   0.2777778  -0.2886751   0.1530931), wk =   0.0123457
        k(   41) = (   0.2777778  -0.1603751   0.0510310), wk =   0.0061728
        k(   42) = (   0.2777778  -0.1603751   0.1530931), wk =   0.0061728
        k(   43) = (   0.3888889   0.6735753   0.0510310), wk =   0.0123457
        k(   44) = (   0.3888889   0.6735753   0.1530931), wk =   0.0123457
        k(   45) = (   0.3888889  -0.3528252   0.0510310), wk =   0.0123457
        k(   46) = (   0.3888889  -0.3528252   0.1530931), wk =   0.0123457
        k(   47) = (   0.3888889  -0.2245251   0.0510310), wk =   0.0061728
        k(   48) = (   0.3888889  -0.2245251   0.1530931), wk =   0.0061728
        k(   49) = (  -0.5000000  -0.8660254   0.0510310), wk =   0.0061728
        k(   50) = (  -0.5000000  -0.8660254   0.1530931), wk =   0.0061728
        k(   51) = (  -0.0555556   0.2245251  -0.0510310), wk =   0.0123457
        k(   52) = (  -0.0555556   0.2245251  -0.1530931), wk =   0.0123457
        k(   53) = (  -0.0555556   0.3528252  -0.0510310), wk =   0.0123457
        k(   54) = (  -0.0555556   0.3528252  -0.1530931), wk =   0.0123457
        k(   55) = (  -0.0555556   0.4811252  -0.0510310), wk =   0.0123457
        k(   56) = (  -0.0555556   0.4811252  -0.1530931), wk =   0.0123457
        k(   57) = (  -0.0555556  -0.5452753  -0.0510310), wk =   0.0123457
        k(   58) = (  -0.0555556  -0.5452753  -0.1530931), wk =   0.0123457
        k(   59) = (  -0.0555556  -0.4169752  -0.0510310), wk =   0.0123457
        k(   60) = (  -0.0555556  -0.4169752  -0.1530931), wk =   0.0123457
        k(   61) = (  -0.0555556  -0.2886751  -0.0510310), wk =   0.0123457
        k(   62) = (  -0.0555556  -0.2886751  -0.1530931), wk =   0.0123457
        k(   63) = (  -0.0555556  -0.1603751  -0.0510310), wk =   0.0123457
        k(   64) = (  -0.0555556  -0.1603751  -0.1530931), wk =   0.0123457
        k(   65) = (  -0.0555556  -0.0320750  -0.0510310), wk =   0.0061728
        k(   66) = (  -0.0555556  -0.0320750  -0.1530931), wk =   0.0061728
        k(   67) = (  -0.1666667   0.4169752  -0.0510310), wk =   0.0123457
        k(   68) = (  -0.1666667   0.4169752  -0.1530931), wk =   0.0123457
        k(   69) = (  -0.1666667   0.5452753  -0.0510310), wk =   0.0123457
        k(   70) = (  -0.1666667   0.5452753  -0.1530931), wk =   0.0123457
        k(   71) = (  -0.1666667  -0.4811252  -0.0510310), wk =   0.0123457
        k(   72) = (  -0.1666667  -0.4811252  -0.1530931), wk =   0.0123457
        k(   73) = (  -0.1666667  -0.3528252  -0.0510310), wk =   0.0123457
        k(   74) = (  -0.1666667  -0.3528252  -0.1530931), wk =   0.0123457
        k(   75) = (  -0.1666667  -0.2245251  -0.0510310), wk =   0.0123457
        k(   76) = (  -0.1666667  -0.2245251  -0.1530931), wk =   0.0123457
        k(   77) = (  -0.1666667  -0.0962250  -0.0510310), wk =   0.0061728
        k(   78) = (  -0.1666667  -0.0962250  -0.1530931), wk =   0.0061728
        k(   79) = (  -0.2777778   0.6094253  -0.0510310), wk =   0.0123457
        k(   80) = (  -0.2777778   0.6094253  -0.1530931), wk =   0.0123457
        k(   81) = (  -0.2777778  -0.4169752  -0.0510310), wk =   0.0123457
        k(   82) = (  -0.2777778  -0.4169752  -0.1530931), wk =   0.0123457
        k(   83) = (  -0.2777778  -0.2886751  -0.0510310), wk =   0.0123457
        k(   84) = (  -0.2777778  -0.2886751  -0.1530931), wk =   0.0123457
        k(   85) = (  -0.2777778  -0.1603751  -0.0510310), wk =   0.0061728
        k(   86) = (  -0.2777778  -0.1603751  -0.1530931), wk =   0.0061728
        k(   87) = (  -0.3888889  -0.3528252  -0.0510310), wk =   0.0123457
        k(   88) = (  -0.3888889  -0.3528252  -0.1530931), wk =   0.0123457
        k(   89) = (  -0.3888889  -0.2245251  -0.0510310), wk =   0.0061728
        k(   90) = (  -0.3888889  -0.2245251  -0.1530931), wk =   0.0061728

     Dense  grid:    22657 G-vectors     FFT dimensions: (  27,  27,  72)

     Smooth grid:     8003 G-vectors     FFT dimensions: (  20,  20,  48)

     Estimated max dynamical RAM per process >      27.20 MB

     Estimated total dynamical RAM >     217.58 MB
     Generating pointlists ...
     new r_m :   0.4125 (alat units)  2.1131 (a.u.) for type    1

     Initial potential from superposition of free atoms

     starting charge   43.49970, renormalised to   45.00000

     negative rho (up, down):  8.697E-02 8.524E-02
     Starting wfcs are   36 randomized atomic wfcs

     total cpu time spent up to now is        3.1 secs

     Self-consistent Calculation

     iteration #  1     ecut=    35.00 Ry     beta= 0.40
     Davidson diagonalization with overlap
     ethr =  1.00E-02,  avg # of iterations =  2.0

     negative rho (up, down):  8.482E-02 8.399E-02

     total cpu time spent up to now is        9.7 secs

     total energy              =    -513.68170606 Ry
     estimated scf accuracy    <       1.59831156 Ry

     total magnetization       =     0.16 Bohr mag/cell
     absolute magnetization    =     0.17 Bohr mag/cell

     iteration #  2     ecut=    35.00 Ry     beta= 0.40
     Davidson diagonalization with overlap
     ethr =  3.55E-03,  avg # of iterations =  1.0

     negative rho (up, down):  8.454E-02 8.509E-02

     total cpu time spent up to now is       15.0 secs

     total energy              =    -513.44032601 Ry
     estimated scf accuracy    <       0.53153279 Ry

     total magnetization       =     0.14 Bohr mag/cell
     absolute magnetization    =     0.15 Bohr mag/cell

     iteration #  3     ecut=    35.00 Ry     beta= 0.40
     Davidson diagonalization with overlap
     ethr =  1.18E-03,  avg # of iterations =  2.0

     negative rho (up, down):  8.812E-02 8.836E-02

     total cpu time spent up to now is       21.5 secs

     total energy              =    -513.57326646 Ry
     estimated scf accuracy    <       0.01286471 Ry

     total magnetization       =     0.09 Bohr mag/cell
     absolute magnetization    =     0.10 Bohr mag/cell

     iteration #  4     ecut=    35.00 Ry     beta= 0.40
     Davidson diagonalization with overlap
     ethr =  2.86E-05,  avg # of iterations =  2.4

     negative rho (up, down):  8.905E-02 8.946E-02

     total cpu time spent up to now is       29.1 secs

     total energy              =    -513.57566998 Ry
     estimated scf accuracy    <       0.01553449 Ry

     total magnetization       =     0.07 Bohr mag/cell
     absolute magnetization    =     0.08 Bohr mag/cell

     iteration #  5     ecut=    35.00 Ry     beta= 0.40
     Davidson diagonalization with overlap
     ethr =  2.86E-05,  avg # of iterations =  2.0

     negative rho (up, down):  8.913E-02 8.939E-02

     total cpu time spent up to now is       35.7 secs

     total energy              =    -513.57939162 Ry
     estimated scf accuracy    <       0.00029108 Ry

     total magnetization       =     0.04 Bohr mag/cell
     absolute magnetization    =     0.05 Bohr mag/cell

     iteration #  6     ecut=    35.00 Ry     beta= 0.40
     Davidson diagonalization with overlap
     ethr =  6.47E-07,  avg # of iterations =  2.2

     negative rho (up, down):  8.894E-02 8.905E-02

     total cpu time spent up to now is       41.5 secs

     total energy              =    -513.57940261 Ry
     estimated scf accuracy    <       0.00005093 Ry

     total magnetization       =     0.03 Bohr mag/cell
     absolute magnetization    =     0.03 Bohr mag/cell

     iteration #  7     ecut=    35.00 Ry     beta= 0.40
     Davidson diagonalization with overlap
     ethr =  1.13E-07,  avg # of iterations =  2.0

     negative rho (up, down):  8.887E-02 8.897E-02

     total cpu time spent up to now is       48.0 secs

     total energy              =    -513.57941625 Ry
     estimated scf accuracy    <       0.00000123 Ry

     total magnetization       =     0.01 Bohr mag/cell
     absolute magnetization    =     0.01 Bohr mag/cell

     iteration #  8     ecut=    35.00 Ry     beta= 0.40
     Davidson diagonalization with overlap
     ethr =  2.74E-09,  avg # of iterations =  3.0

     negative rho (up, down):  8.896E-02 8.898E-02

     total cpu time spent up to now is       56.1 secs

     total energy              =    -513.57941270 Ry
     estimated scf accuracy    <       0.00000873 Ry

     total magnetization       =     0.01 Bohr mag/cell
     absolute magnetization    =     0.01 Bohr mag/cell

     iteration #  9     ecut=    35.00 Ry     beta= 0.40
     Davidson diagonalization with overlap
     ethr =  2.74E-09,  avg # of iterations =  2.2

     negative rho (up, down):  8.899E-02 8.899E-02
 
     Magnetic moment per site:
     atom:    1    charge:   13.2477    magn:    0.0005    constr:    0.0000
     atom:    2    charge:   13.2477    magn:    0.0006    constr:    0.0000
     atom:    3    charge:   13.2477    magn:    0.0006    constr:    0.0000

     total cpu time spent up to now is       63.8 secs

     End of self-consistent calculation

     Number of k-points >= 100: set verbosity='high' to print the bands.

     the Fermi energy is    20.7288 ev

!    total energy              =    -513.57941573 Ry
     estimated scf accuracy    <       0.00000005 Ry
     smearing contrib. (-TS)   =      -0.01175346 Ry
     internal energy E=F+TS    =    -513.56766227 Ry

     The total energy is F=E-TS. E is the sum of the following terms:
     one-electron contribution =     -73.01806552 Ry
     hartree contribution      =      76.42826989 Ry
     xc contribution           =     -89.79908872 Ry
     ewald contribution        =    -427.17877791 Ry

     total magnetization       =     0.00 Bohr mag/cell
     absolute magnetization    =     0.00 Bohr mag/cell

     convergence has been achieved in   9 iterations

     negative rho (up, down):  8.899E-02 8.899E-02

     Forces acting on atoms (cartesian axes, Ry/au):

     atom    1 type  1   force =     0.00000000    0.00000000    0.00000000
     atom    2 type  1   force =    -0.00000000   -0.00000000   -0.00000225
     atom    3 type  1   force =     0.00000000    0.00000000    0.00000225

     Total force =     0.000003     Total SCF correction =     0.000064
     SCF correction compared to forces is large: reduce conv_thr to get better values

     BFGS Geometry Optimization
     Energy error            =      0.0E+00
     Gradient error          =      2.2E-06

     bfgs converged in   1 scf cycles and   0 bfgs steps
     (criteria: energy <  1.0E-04 Ry, force <  1.0E-03 Ry/Bohr)

     End of BFGS Geometry Optimization

     Final energy   =    -513.5794157304 Ry
Begin final coordinates

ATOMIC_POSITIONS (angstrom)
Rh            0.0000000000        0.0000000000        0.0000000000
Rh            1.3554284000       -0.7825569000        2.2134053000
Rh            1.3554284000        0.7825569000        4.4268106000
End final coordinates


 
     init_run     :      2.58s CPU      2.77s WALL (       1 calls)
     electrons    :     58.00s CPU     60.67s WALL (       1 calls)
     forces       :      0.82s CPU      0.82s WALL (       1 calls)

     Called by init_run:
     wfcinit      :      2.28s CPU      2.42s WALL (       1 calls)
     potinit      :      0.03s CPU      0.04s WALL (       1 calls)
     hinit0       :      0.20s CPU      0.21s WALL (       1 calls)

     Called by electrons:
     c_bands      :     49.70s CPU     51.94s WALL (       9 calls)
     sum_band     :      7.61s CPU      8.02s WALL (       9 calls)
     v_of_rho     :      0.20s CPU      0.21s WALL (      10 calls)
     newd         :      0.46s CPU      0.48s WALL (      10 calls)
     mix_rho      :      0.05s CPU      0.06s WALL (       9 calls)

     Called by c_bands:
     init_us_2    :      0.56s CPU      0.59s WALL (    3600 calls)
     cegterg      :     45.42s CPU     47.58s WALL (    1620 calls)

     Called by *egterg:
     cdiaghg      :      7.33s CPU      7.55s WALL (    4988 calls)
     h_psi        :     33.67s CPU     35.49s WALL (    5168 calls)
     s_psi        :      1.50s CPU      1.60s WALL (    5168 calls)
     g_psi        :      0.21s CPU      0.21s WALL (    3368 calls)

     Called by h_psi:
     h_psi:calbec :      1.71s CPU      1.82s WALL (    5168 calls)
     vloc_psi     :     30.28s CPU     31.89s WALL (    5168 calls)
     add_vuspsi   :      1.55s CPU      1.65s WALL (    5168 calls)

     General routines
     calbec       :      2.56s CPU      2.72s WALL (    7508 calls)
     fft          :      0.11s CPU      0.12s WALL (     263 calls)
     ffts         :      0.03s CPU      0.03s WALL (     188 calls)
     fftw         :     33.70s CPU     35.69s WALL (  288730 calls)
     interpolate  :      0.01s CPU      0.01s WALL (      20 calls)
 
     Parallel routines
     fft_scatt_xy :      2.46s CPU      2.38s WALL (  289181 calls)
     fft_scatt_yz :      9.80s CPU     10.34s WALL (  289181 calls)
 
     PWSCF        :   1m 1.65s CPU   1m 4.64s WALL

 
   This run was terminated on:  12:28:26   5Apr2023            

=------------------------------------------------------------------------------=
   JOB DONE.
=------------------------------------------------------------------------------=
