
     Program PWSCF v.7.1 starts on 22Apr2023 at 20: 4: 6 

     This program is part of the open-source Quantum ESPRESSO suite
     for quantum simulation of materials; please cite
         "P. Giannozzi et al., J. Phys.:Condens. Matter 21 395502 (2009);
         "P. Giannozzi et al., J. Phys.:Condens. Matter 29 465901 (2017);
         "P. Giannozzi et al., J. Chem. Phys. 152 154105 (2020);
          URL http://www.quantum-espresso.org", 
     in publications or presentations arising from this work. More details at
     http://www.quantum-espresso.org/quote

     Parallel version (MPI), running on    16 processors

     MPI processes distributed on     1 nodes
     244976 MiB available memory on the printing compute node when the environment starts

     Reading input from slab_2x2.pwi

     Current dimensions of program PWSCF are:
     Max number of different atomic species (ntypx) = 10
     Max number of k-points (npk) =  40000
     Max angular momentum in pseudopotentials (lmaxx) =  4
     Found identity + (  0.5000  0.0000  0.0000) symmetry
     This is a supercell, fractional translations are disabled

     R & G space division:  proc/nbgrp/npool/nimage =      16
     Subspace diagonalization in iterative solution of the eigenvalue problem:
     a serial algorithm will be used


     Parallelization info
     --------------------
     sticks:   dense  smooth     PW     G-vecs:    dense   smooth      PW
     Min         126      64     19                22550     7986    1337
     Max         127      65     20                22571     7992    1348
     Sum        2029    1027    313               360987   127803   21465

     Using Slab Decomposition



     bravais-lattice index     =            4
     lattice parameter (alat)  =      10.2456  a.u.
     unit-cell volume          =    4562.9146 (a.u.)^3
     number of atoms/cell      =           16
     number of atomic types    =            1
     number of electrons       =       240.00
     number of Kohn-Sham states=          144
     kinetic-energy cutoff     =      35.0000  Ry
     charge density cutoff     =     280.0000  Ry
     scf convergence threshold =      1.0E-06
     mixing beta               =       0.4000
     number of iterations used =            8  local-TF  mixing
     energy convergence thresh.=      1.0E-04
     force convergence thresh. =      1.0E-03
     Exchange-correlation=  SLA  PW   PBX  PBC
                           (   1   4   3   4   0   0   0)
     nstep                     =           50


     celldm(1)=  10.245552  celldm(2)=   0.000000  celldm(3)=   4.898979
     celldm(4)=   0.000000  celldm(5)=   0.000000  celldm(6)=   0.000000

     crystal axes: (cart. coord. in units of alat)
               a(1) = (   1.000000   0.000000   0.000000 )  
               a(2) = (  -0.500000   0.866025   0.000000 )  
               a(3) = (   0.000000   0.000000   4.898979 )  

     reciprocal axes: (cart. coord. in units 2 pi/alat)
               b(1) = (  1.000000  0.577350 -0.000000 )  
               b(2) = (  0.000000  1.154701  0.000000 )  
               b(3) = (  0.000000 -0.000000  0.204124 )  


     PseudoPot. # 1 for Rh read from file:
     /home/software.old/materia/pseudo/rh_pbe_v1.4.uspp.F.UPF
     MD5 check sum: 761627e959a2e3a1f56b0b5fe687810e
     Pseudo is Ultrasoft + core correction, Zval = 15.0
     Generated by new atomic code, or converted to UPF format
     Using radial grid of  969 points,  7 beta functions with: 
                l(1) =   0
                l(2) =   0
                l(3) =   1
                l(4) =   1
                l(5) =   2
                l(6) =   2
                l(7) =   2
     Q(r) pseudized with  8 coefficients,  rinner =    1.200   1.200   1.200
                                                       1.200   1.200

     atomic species   valence    mass     pseudopotential
        Rh            15.00   102.90500     Rh( 1.00)

     Starting magnetic structure 
     atomic species   magnetization
        Rh           0.010

      6 Sym. Ops. (no inversion) found



   Cartesian axes

     site n.     atom                  positions (alat units)
         1           Rh  tau(   1) = (   0.2500000   0.4330128   1.2155953  )
         2           Rh  tau(   2) = (  -0.2500000   0.4330128   1.2155953  )
         3           Rh  tau(   3) = (   0.5000001   0.0000000   1.2155953  )
         4           Rh  tau(   4) = (  -0.0000000  -0.0000000   1.2155953  )
         5           Rh  tau(   5) = (   0.5000001   0.5773504   0.8135241  )
         6           Rh  tau(   6) = (   0.0000000   0.5773504   0.8135241  )
         7           Rh  tau(   7) = (   0.7500001   0.1443376   0.8135241  )
         8           Rh  tau(   8) = (   0.2500000   0.1443376   0.8135241  )
         9           Rh  tau(   9) = (   0.2500000   0.7216880   0.4112210  )
        10           Rh  tau(  10) = (  -0.2500000   0.7216880   0.4112210  )
        11           Rh  tau(  11) = (   0.5000001   0.2886752   0.4112210  )
        12           Rh  tau(  12) = (   0.0000000   0.2886752   0.4112210  )
        13           Rh  tau(  13) = (   0.2500000   0.4330128   0.0091498  )
        14           Rh  tau(  14) = (  -0.2500000   0.4330128   0.0091498  )
        15           Rh  tau(  15) = (   0.5000001   0.0000000   0.0091498  )
        16           Rh  tau(  16) = (   0.0000000   0.0000000   0.0091498  )

     number of k points=     9  Gaussian smearing, width (Ry)=  0.0200
                       cart. coord. in units 2pi/alat
        k(    1) = (   0.1000000   0.1732051   0.0000000), wk =   0.0800000
        k(    2) = (   0.1000000   0.4041452   0.0000000), wk =   0.1600000
        k(    3) = (   0.1000000  -0.5196152   0.0000000), wk =   0.1600000
        k(    4) = (   0.1000000  -0.2886751   0.0000000), wk =   0.1600000
        k(    5) = (   0.1000000  -0.0577350   0.0000000), wk =   0.0800000
        k(    6) = (   0.3000000   0.5196152   0.0000000), wk =   0.0800000
        k(    7) = (   0.3000000  -0.4041452   0.0000000), wk =   0.1600000
        k(    8) = (   0.3000000  -0.1732051   0.0000000), wk =   0.0800000
        k(    9) = (  -0.5000000  -0.8660254   0.0000000), wk =   0.0400000

     Dense  grid:   360987 G-vectors     FFT dimensions: (  60,  60, 270)

     Smooth grid:   127803 G-vectors     FFT dimensions: (  40,  40, 192)

     Estimated max dynamical RAM per process >     188.29 MB

     Estimated total dynamical RAM >       2.94 GB
     Generating pointlists ...
     new r_m :   0.2042 (alat units)  2.0919 (a.u.) for type    1

     Initial potential from superposition of free atoms

     starting charge     231.9984, renormalised to     240.0000

     negative rho (up, down):  4.457E-01 4.368E-01
     Starting wfcs are  192 randomized atomic wfcs

     total cpu time spent up to now is       42.6 secs

     Self-consistent Calculation

     iteration #  1     ecut=    35.00 Ry     beta= 0.40
     Davidson diagonalization with overlap
     ethr =  1.00E-02,  avg # of iterations =  3.7

     negative rho (up, down):  4.586E-01 4.547E-01

     total cpu time spent up to now is      152.2 secs

     total energy              =   -2739.07723455 Ry
     estimated scf accuracy    <      11.09004954 Ry

     total magnetization       =     0.91 Bohr mag/cell
     absolute magnetization    =     0.93 Bohr mag/cell

     iteration #  2     ecut=    35.00 Ry     beta= 0.40
     Davidson diagonalization with overlap
     ethr =  4.62E-03,  avg # of iterations =  1.0

     negative rho (up, down):  4.804E-01 4.818E-01

     total cpu time spent up to now is      225.7 secs

     total energy              =   -2738.05713975 Ry
     estimated scf accuracy    <       3.16809817 Ry

     total magnetization       =     0.84 Bohr mag/cell
     absolute magnetization    =     0.86 Bohr mag/cell

     iteration #  3     ecut=    35.00 Ry     beta= 0.40
     Davidson diagonalization with overlap
     ethr =  1.32E-03,  avg # of iterations =  2.0

     negative rho (up, down):  4.832E-01 4.854E-01

     total cpu time spent up to now is      326.5 secs

     total energy              =   -2738.60365340 Ry
     estimated scf accuracy    <       0.14044235 Ry

     total magnetization       =     0.64 Bohr mag/cell
     absolute magnetization    =     0.67 Bohr mag/cell

     iteration #  4     ecut=    35.00 Ry     beta= 0.40
     Davidson diagonalization with overlap
     ethr =  5.85E-05,  avg # of iterations =  9.4

     negative rho (up, down):  4.839E-01 4.861E-01

     total cpu time spent up to now is      428.1 secs

     total energy              =   -2738.61136750 Ry
     estimated scf accuracy    <       0.05894350 Ry

     total magnetization       =     0.57 Bohr mag/cell
     absolute magnetization    =     0.60 Bohr mag/cell

     iteration #  5     ecut=    35.00 Ry     beta= 0.40
     Davidson diagonalization with overlap
     ethr =  2.46E-05,  avg # of iterations =  2.9

     negative rho (up, down):  4.855E-01 4.880E-01

     total cpu time spent up to now is      516.4 secs

     total energy              =   -2738.61146260 Ry
     estimated scf accuracy    <       0.01788037 Ry

     total magnetization       =     0.45 Bohr mag/cell
     absolute magnetization    =     0.48 Bohr mag/cell

     iteration #  6     ecut=    35.00 Ry     beta= 0.40
     Davidson diagonalization with overlap
     ethr =  7.45E-06,  avg # of iterations =  7.6

     negative rho (up, down):  4.816E-01 4.831E-01

     total cpu time spent up to now is      638.5 secs

     total energy              =   -2738.61637264 Ry
     estimated scf accuracy    <       0.00381689 Ry

     total magnetization       =     0.30 Bohr mag/cell
     absolute magnetization    =     0.33 Bohr mag/cell

     iteration #  7     ecut=    35.00 Ry     beta= 0.40
     Davidson diagonalization with overlap
     ethr =  1.59E-06,  avg # of iterations =  6.7

     negative rho (up, down):  4.742E-01 4.737E-01

     total cpu time spent up to now is      765.1 secs

     total energy              =   -2738.61361290 Ry
     estimated scf accuracy    <       0.01541854 Ry

     total magnetization       =     0.13 Bohr mag/cell
     absolute magnetization    =     0.14 Bohr mag/cell

     iteration #  8     ecut=    35.00 Ry     beta= 0.40
     Davidson diagonalization with overlap
     ethr =  1.59E-06,  avg # of iterations =  7.5

     negative rho (up, down):  4.711E-01 4.698E-01

     total cpu time spent up to now is      880.4 secs

     total energy              =   -2738.61196268 Ry
     estimated scf accuracy    <       0.00609474 Ry

     total magnetization       =    -0.07 Bohr mag/cell
     absolute magnetization    =     0.08 Bohr mag/cell

     iteration #  9     ecut=    35.00 Ry     beta= 0.40
     Davidson diagonalization with overlap
     ethr =  1.59E-06,  avg # of iterations =  7.1

     negative rho (up, down):  4.646E-01 4.626E-01

     total cpu time spent up to now is      995.4 secs

     total energy              =   -2738.61125074 Ry
     estimated scf accuracy    <       0.00134489 Ry

     total magnetization       =    -0.14 Bohr mag/cell
     absolute magnetization    =     0.15 Bohr mag/cell

     iteration # 10     ecut=    35.00 Ry     beta= 0.40
     Davidson diagonalization with overlap
     ethr =  5.60E-07,  avg # of iterations =  8.4

     negative rho (up, down):  4.624E-01 4.604E-01

     total cpu time spent up to now is     1133.5 secs

     total energy              =   -2738.61091235 Ry
     estimated scf accuracy    <       0.00227524 Ry

     total magnetization       =    -0.27 Bohr mag/cell
     absolute magnetization    =     0.29 Bohr mag/cell

     iteration # 11     ecut=    35.00 Ry     beta= 0.40
     Davidson diagonalization with overlap
     ethr =  5.60E-07,  avg # of iterations =  6.1

     negative rho (up, down):  4.594E-01 4.575E-01

     total cpu time spent up to now is     1248.9 secs

     total energy              =   -2738.61109595 Ry
     estimated scf accuracy    <       0.00016831 Ry

     total magnetization       =    -0.29 Bohr mag/cell
     absolute magnetization    =     0.32 Bohr mag/cell

     iteration # 12     ecut=    35.00 Ry     beta= 0.40
     Davidson diagonalization with overlap
     ethr =  7.01E-08,  avg # of iterations =  7.4

     negative rho (up, down):  4.557E-01 4.547E-01

     total cpu time spent up to now is     1361.5 secs

     total energy              =   -2738.61093322 Ry
     estimated scf accuracy    <       0.00038635 Ry

     total magnetization       =    -0.26 Bohr mag/cell
     absolute magnetization    =     0.29 Bohr mag/cell

     iteration # 13     ecut=    35.00 Ry     beta= 0.40
     Davidson diagonalization with overlap
     ethr =  7.01E-08,  avg # of iterations =  7.9

     negative rho (up, down):  4.549E-01 4.542E-01

     total cpu time spent up to now is     1484.5 secs

     total energy              =   -2738.61100986 Ry
     estimated scf accuracy    <       0.00001170 Ry

     total magnetization       =    -0.14 Bohr mag/cell
     absolute magnetization    =     0.16 Bohr mag/cell

     iteration # 14     ecut=    35.00 Ry     beta= 0.40
     Davidson diagonalization with overlap
     ethr =  4.87E-09,  avg # of iterations =  4.8

     negative rho (up, down):  4.545E-01 4.539E-01

     total cpu time spent up to now is     1581.0 secs

     total energy              =   -2738.61101249 Ry
     estimated scf accuracy    <       0.00000523 Ry

     total magnetization       =    -0.11 Bohr mag/cell
     absolute magnetization    =     0.12 Bohr mag/cell

     iteration # 15     ecut=    35.00 Ry     beta= 0.40
     Davidson diagonalization with overlap
     ethr =  2.18E-09,  avg # of iterations =  2.7

     negative rho (up, down):  4.541E-01 4.538E-01

     total cpu time spent up to now is     1669.9 secs

     total energy              =   -2738.61101393 Ry
     estimated scf accuracy    <       0.00000250 Ry

     total magnetization       =    -0.08 Bohr mag/cell
     absolute magnetization    =     0.09 Bohr mag/cell

     iteration # 16     ecut=    35.00 Ry     beta= 0.40
     Davidson diagonalization with overlap
     ethr =  1.04E-09,  avg # of iterations =  3.2

     negative rho (up, down):  4.540E-01 4.538E-01

     Magnetic moment per site  (integrated on atomic sphere of radius R)
     atom   1 (R=0.204)  charge= 13.1130  magn= -0.0043
     atom   2 (R=0.204)  charge= 13.1130  magn= -0.0043
     atom   3 (R=0.204)  charge= 13.1130  magn= -0.0043
     atom   4 (R=0.204)  charge= 13.1129  magn= -0.0043
     atom   5 (R=0.204)  charge= 13.1738  magn= -0.0015
     atom   6 (R=0.204)  charge= 13.1738  magn= -0.0015
     atom   7 (R=0.204)  charge= 13.1738  magn= -0.0015
     atom   8 (R=0.204)  charge= 13.1738  magn= -0.0015
     atom   9 (R=0.204)  charge= 13.1733  magn= -0.0015
     atom  10 (R=0.204)  charge= 13.1733  magn= -0.0015
     atom  11 (R=0.204)  charge= 13.1733  magn= -0.0015
     atom  12 (R=0.204)  charge= 13.1733  magn= -0.0015
     atom  13 (R=0.204)  charge= 13.1120  magn= -0.0043
     atom  14 (R=0.204)  charge= 13.1120  magn= -0.0043
     atom  15 (R=0.204)  charge= 13.1120  magn= -0.0043
     atom  16 (R=0.204)  charge= 13.1121  magn= -0.0043

     total cpu time spent up to now is     1776.6 secs

     End of self-consistent calculation

 ------ SPIN UP ------------


          k = 0.1000 0.1732 0.0000 ( 15993 PWs)   bands (ev):

   -43.5612 -43.5507 -43.5472 -43.5472 -43.5295 -43.5208 -43.5208 -43.3248
   -43.3248 -43.3130 -43.2553 -43.2298 -43.2298 -43.2274 -43.1814 -43.1640
   -43.1640 -43.1162 -43.0841 -43.0841 -43.0550 -43.0382 -43.0099 -43.0074
   -43.0054 -43.0011 -43.0011 -42.9886 -42.9886 -42.9809 -42.7046 -42.7041
   -42.6755 -42.6755 -42.6749 -42.6749 -42.6292 -42.6113 -42.5905 -42.5892
   -42.5892 -42.5878 -42.5857 -42.5845 -42.5844 -42.5831 -42.5631 -42.5630
    -3.6428  -2.4837  -2.2522  -2.2522  -2.2069  -2.0664  -2.0664  -2.0266
    -1.9569  -1.9117  -1.9117  -1.8902  -1.7479  -1.4723  -1.4723  -1.3786
    -1.1756  -1.1756  -1.0692  -0.8129  -0.8010  -0.8010  -0.0525   0.1300
     0.1300   0.2001   0.3414   0.4104   0.4767   0.4987   0.4987   0.6899
     0.7276   0.7276   0.7281   0.7371   0.8532   0.9155   1.0377   1.2212
     1.3270   1.3270   1.3397   1.3473   1.4149   1.4177   1.6531   1.6531
     2.0477   2.0478   2.1497   2.3201   2.4192   2.5755   2.8037   2.9093
     2.9302   2.9302   2.9573   3.0041   3.0041   3.0319   3.1598   3.1918
     3.4218   3.4218   3.6193   3.6195   3.6195   3.6346   3.7632   3.7958
     3.7958   3.9064   3.9064   3.9241   3.9320   4.0456   4.0456   4.0825
     4.2529   4.2949   4.2949   4.6620   4.9774   4.9774   5.7730   5.7730
     5.7751   6.4699   6.7749   6.7749   7.5921   8.2314   8.4460   8.6236

          k = 0.1000 0.4041 0.0000 ( 15953 PWs)   bands (ev):

   -43.5174 -43.5112 -43.4933 -43.4840 -43.4793 -43.4729 -43.4404 -43.3303
   -43.3256 -43.3126 -43.2802 -43.2627 -43.2269 -43.2017 -43.1912 -43.1807
   -43.1747 -43.1358 -43.1333 -43.1255 -43.1171 -43.0641 -43.0587 -43.0063
   -42.9691 -42.9644 -42.9503 -42.9426 -42.9112 -42.8992 -42.7756 -42.7717
   -42.7127 -42.7107 -42.6971 -42.6950 -42.6482 -42.6478 -42.6148 -42.6030
   -42.5968 -42.5909 -42.5905 -42.5902 -42.5882 -42.5853 -42.5822 -42.5813
    -2.8979  -1.9922  -1.8678  -1.8506  -1.7796  -1.7655  -1.6302  -1.5504
    -1.4880  -1.4776  -1.4576  -1.3425  -1.2189  -1.1457  -1.0510  -0.9497
    -0.8833  -0.6232  -0.5601  -0.5526  -0.5267  -0.4848  -0.3499  -0.3233
    -0.0987  -0.0704   0.0087   0.2915   0.4425   0.4430   0.5283   0.6416
     0.6875   0.7149   0.7433   0.8016   0.8858   0.8977   0.9150   0.9169
     1.0083   1.1797   1.2286   1.2970   1.2976   1.4479   1.6504   1.7187
     1.7860   1.8316   1.8624   1.8711   1.9256   1.9263   1.9352   2.1178
     2.1209   2.1314   2.3033   2.3286   2.6212   2.6832   2.6929   2.7001
     2.7614   2.8554   2.9098   2.9949   3.0758   3.1505   3.2241   3.2866
     3.3929   3.5133   3.6636   3.6825   3.7268   3.8741   3.8841   3.9180
     3.9618   4.0357   4.1200   4.1873   4.1888   5.4728   5.4940   5.8872
     5.9046   7.1119   7.4304   7.5266   7.9255   8.1784   9.1573   9.2987

          k = 0.1000-0.5196 0.0000 ( 15949 PWs)   bands (ev):

   -43.4968 -43.4872 -43.4801 -43.4782 -43.4626 -43.4497 -43.3739 -43.3544
   -43.3404 -43.3104 -43.2686 -43.2672 -43.2287 -43.2155 -43.2023 -43.1889
   -43.1865 -43.1715 -43.1500 -43.1402 -43.1115 -43.0880 -43.0410 -43.0234
   -42.9488 -42.9444 -42.9303 -42.9254 -42.8436 -42.8349 -42.8041 -42.7990
   -42.7693 -42.7646 -42.7294 -42.7269 -42.6293 -42.6285 -42.6097 -42.6092
   -42.6077 -42.6013 -42.5992 -42.5953 -42.5872 -42.5860 -42.5814 -42.5807
    -2.4476  -2.1098  -1.6848  -1.6387  -1.5602  -1.5527  -1.4446  -1.3727
    -1.3513  -1.3286  -1.2150  -1.0728  -1.0014  -0.8597  -0.8523  -0.7694
    -0.7524  -0.6679  -0.5559  -0.5049  -0.4065  -0.3552  -0.3266  -0.2883
    -0.1900  -0.1548  -0.1461   0.0726   0.2637   0.3280   0.4380   0.4438
     0.5861   0.6236   0.7522   0.8933   0.9271   0.9419   1.0154   1.0292
     1.0763   1.1504   1.2279   1.2578   1.2757   1.3224   1.3721   1.3941
     1.5475   1.5501   1.5682   1.5932   1.6963   1.8971   1.9235   1.9247
     2.0104   2.0384   2.2025   2.3430   2.3762   2.4855   2.5527   2.6537
     2.6686   2.6844   2.8019   2.8326   2.8530   2.9706   2.9925   3.0524
     3.1540   3.3002   3.4381   3.4867   3.6331   3.6602   3.9360   3.9387
     3.9810   3.9895   4.1798   4.1856   4.4953   4.9555   5.5749   5.9582
     6.5680   7.2035   7.2449   7.6427   8.2906   8.3254   9.1481   9.7239

          k = 0.1000-0.2887 0.0000 ( 15965 PWs)   bands (ev):

   -43.5401 -43.5365 -43.5204 -43.5093 -43.5064 -43.4991 -43.4912 -43.3275
   -43.3255 -43.3071 -43.2759 -43.2379 -43.2289 -43.2113 -43.1893 -43.1682
   -43.1510 -43.1507 -43.1027 -43.0889 -43.0734 -43.0686 -43.0405 -42.9918
   -42.9913 -42.9884 -42.9774 -42.9668 -42.9652 -42.9510 -42.7378 -42.7358
   -42.6910 -42.6905 -42.6641 -42.6635 -42.6371 -42.6368 -42.6217 -42.6042
   -42.5926 -42.5890 -42.5868 -42.5848 -42.5834 -42.5820 -42.5745 -42.5743
    -3.3244  -2.1930  -2.0979  -2.0346  -2.0065  -1.9945  -1.8779  -1.7738
    -1.7555  -1.7412  -1.7175  -1.6666  -1.4721  -1.3638  -1.2728  -1.1500
    -1.0462  -0.9345  -0.7863  -0.7036  -0.6921  -0.6819  -0.2515  -0.0430
     0.0125   0.1600   0.1917   0.2179   0.5348   0.6064   0.6309   0.7572
     0.7586   0.7841   0.7946   0.8360   0.8723   0.9519   1.0094   1.0226
     1.0247   1.0688   1.2164   1.2193   1.4131   1.4719   1.5748   1.5895
     1.9337   2.0141   2.0301   2.1922   2.2643   2.3218   2.3523   2.3813
     2.4707   2.6291   2.6806   2.7467   2.8763   2.8805   2.8855   2.9280
     3.0183   3.2540   3.2664   3.2761   3.3548   3.3629   3.4984   3.5279
     3.6701   3.7279   3.7301   3.7561   3.7604   3.9323   3.9358   3.9499
     4.1259   4.2000   4.2047   4.2939   4.6994   5.2619   5.2657   5.7821
     6.1233   6.5763   6.9460   7.1664   7.9535   8.7305   8.8961   9.4984

          k = 0.1000-0.0577 0.0000 ( 15995 PWs)   bands (ev):

   -43.5700 -43.5700 -43.5646 -43.5584 -43.5387 -43.5387 -43.5352 -43.3233
   -43.3196 -43.3196 -43.2416 -43.2416 -43.2338 -43.2238 -43.1710 -43.1710
   -43.1643 -43.0901 -43.0901 -43.0786 -43.0358 -43.0287 -43.0172 -43.0172
   -43.0153 -43.0098 -43.0098 -43.0038 -42.9860 -42.9751 -42.6816 -42.6816
   -42.6811 -42.6811 -42.6718 -42.6710 -42.6330 -42.6107 -42.5882 -42.5872
   -42.5872 -42.5837 -42.5832 -42.5832 -42.5664 -42.5661 -42.5572 -42.5569
    -3.8108  -2.6427  -2.3577  -2.3381  -2.3381  -2.1669  -2.1477  -2.1096
    -2.1096  -1.9971  -1.9941  -1.9941  -1.9013  -1.5663  -1.5323  -1.5323
    -1.2825  -1.2454  -1.2454  -0.8650  -0.8650  -0.8581   0.1029   0.1029
     0.1718   0.3849   0.4223   0.4223   0.4282   0.4444   0.4844   0.5655
     0.6382   0.6853   0.6910   0.6910   0.7815   1.0065   1.1110   1.1146
     1.2288   1.4860   1.4860   1.4867   1.5381   1.6544   1.6544   1.7882
     2.0613   2.1496   2.1496   2.4345   2.4358   2.7789   2.8412   3.0011
     3.0012   3.0584   3.0671   3.1975   3.2055   3.2055   3.4825   3.5251
     3.5962   3.5962   3.7062   3.7887   3.7887   3.8145   3.8794   3.8794
     3.9178   3.9657   4.0939   4.0939   4.1369   4.1857   4.3004   4.3004
     4.3900   4.3900   4.4052   4.4487   4.8657   5.1678   5.6056   5.6056
     6.1494   6.7946   6.8948   6.8948   7.2832   7.2832   8.3039   8.4862

          k = 0.3000 0.5196 0.0000 ( 15942 PWs)   bands (ev):

   -43.4836 -43.4707 -43.4706 -43.4537 -43.4405 -43.4027 -43.3834 -43.3834
   -43.3349 -43.3097 -43.2985 -43.2985 -43.2476 -43.2268 -43.2140 -43.1749
   -43.1749 -43.1582 -43.1320 -43.1320 -43.1031 -43.0817 -43.0817 -43.0552
   -42.9224 -42.9145 -42.8689 -42.8622 -42.8592 -42.8592 -42.8522 -42.8521
   -42.8035 -42.7979 -42.6627 -42.6627 -42.6617 -42.6617 -42.6350 -42.6346
   -42.6023 -42.5970 -42.5964 -42.5963 -42.5933 -42.5933 -42.5798 -42.5781
    -2.0865  -1.7419  -1.7419  -1.3637  -1.3578  -1.3578  -1.3326  -1.1512
    -1.1403  -1.1403  -1.0753  -1.0488  -0.9090  -0.8978  -0.8978  -0.6803
    -0.6764  -0.6363  -0.6125  -0.6125  -0.4256  -0.4256  -0.4023  -0.2657
    -0.1936  -0.0216  -0.0216   0.0099   0.2415   0.2415   0.2983   0.4970
     0.5444   0.5714   0.5756   0.6025   0.6025   0.6749   0.6749   0.7913
     0.8172   0.8172   1.0517   1.1366   1.2606   1.2607   1.2997   1.3244
     1.3567   1.4740   1.4740   1.5192   1.8700   1.8858   1.8858   1.9521
     2.1064   2.1066   2.1066   2.2216   2.5246   2.5487   2.5487   2.5698
     2.8145   2.9639   2.9640   3.0653   3.2053   3.3101   3.3203   3.3593
     3.3593   3.3849   3.4504   3.4504   3.6533   3.7262   3.7660   3.7915
     3.7915   3.8244   3.9530   3.9530   4.0107   4.0107   4.9333   5.4956
     5.4956   7.0518   7.7305   7.7305   8.8613   9.6656   9.6657  10.1493

          k = 0.3000-0.4041 0.0000 ( 15934 PWs)   bands (ev):

   -43.5009 -43.4872 -43.4728 -43.4721 -43.4620 -43.4329 -43.4068 -43.3595
   -43.3270 -43.3018 -43.2932 -43.2921 -43.2241 -43.2016 -43.1976 -43.1879
   -43.1828 -43.1576 -43.1418 -43.1318 -43.1050 -43.0795 -43.0691 -43.0283
   -42.9509 -42.9434 -42.9099 -42.9018 -42.8801 -42.8707 -42.8247 -42.8192
   -42.7475 -42.7438 -42.6893 -42.6879 -42.6546 -42.6542 -42.6105 -42.6099
   -42.6088 -42.5997 -42.5965 -42.5922 -42.5916 -42.5889 -42.5804 -42.5793
    -2.5134  -1.8590  -1.6271  -1.6023  -1.5920  -1.5547  -1.5308  -1.3823
    -1.3191  -1.2685  -1.2561  -1.0451  -1.0280  -0.9873  -0.9266  -0.8047
    -0.7333  -0.6393  -0.5133  -0.4793  -0.4732  -0.4439  -0.2989  -0.2852
    -0.2283  -0.0757  -0.0258   0.0914   0.2242   0.2359   0.4182   0.4744
     0.5343   0.5881   0.6317   0.7060   0.7547   0.9307   0.9507   0.9642
     1.0187   1.1149   1.1433   1.2032   1.2641   1.3297   1.4553   1.5057
     1.5452   1.5718   1.5718   1.6939   1.8054   1.8882   1.9518   1.9741
     1.9785   1.9983   2.2407   2.3380   2.3435   2.5761   2.6184   2.6196
     2.7024   2.7726   2.9067   2.9806   3.0124   3.0814   3.2875   3.2888
     3.3218   3.5115   3.5802   3.6662   3.7504   3.7831   3.8047   3.8203
     3.9123   3.9771   3.9933   4.0072   4.4896   4.6569   4.8874   5.4798
     6.2287   6.4400   7.7895   8.1082   8.4744   8.7215   9.5837   9.6960

          k = 0.3000-0.1732 0.0000 ( 15949 PWs)   bands (ev):

   -43.5296 -43.5224 -43.5224 -43.4972 -43.4972 -43.4897 -43.4716 -43.3230
   -43.3203 -43.3203 -43.2549 -43.2549 -43.2452 -43.1995 -43.1848 -43.1848
   -43.1417 -43.1417 -43.1384 -43.1076 -43.0803 -43.0583 -43.0551 -42.9940
   -42.9782 -42.9781 -42.9721 -42.9721 -42.9421 -42.9276 -42.7294 -42.7293
   -42.7273 -42.7273 -42.6588 -42.6580 -42.6499 -42.6488 -42.6193 -42.6039
   -42.5953 -42.5888 -42.5854 -42.5853 -42.5830 -42.5829 -42.5789 -42.5785
    -3.1782  -2.0786  -2.0749  -2.0046  -1.9231  -1.9231  -1.6849  -1.6849
    -1.6815  -1.6732  -1.6005  -1.6005  -1.3556  -1.3469  -1.1131  -1.1131
    -1.0313  -0.7266  -0.7266  -0.6461  -0.6461  -0.6132  -0.1956  -0.1956
    -0.1617   0.0979   0.1401   0.2989   0.5308   0.5308   0.6710   0.7757
     0.8025   0.8042   0.8042   0.8361   0.8990   0.9215   0.9215   0.9243
     1.0340   1.0458   1.2291   1.2577   1.2577   1.5048   1.6315   1.6713
     1.8458   1.9572   1.9573   2.0405   2.1414   2.1414   2.2529   2.2947
     2.3576   2.4536   2.4536   2.6316   2.7956   2.7957   2.8095   2.8179
     2.9933   3.1631   3.1631   3.1892   3.2342   3.2342   3.3179   3.4630
     3.4813   3.6936   3.6973   3.6973   3.7413   3.7513   3.7957   4.0024
     4.0070   4.0070   4.1221   4.2627   4.2627   5.4869   5.6566   6.3659
     6.3660   6.8893   6.9546   6.9546   8.0157   8.0157   8.8728   9.0309

          k =-0.5000-0.8660 0.0000 ( 15982 PWs)   bands (ev):

   -43.4891 -43.4891 -43.4847 -43.4847 -43.4590 -43.4590 -43.3475 -43.3475
   -43.3397 -43.3397 -43.2356 -43.2356 -43.2311 -43.2311 -43.2208 -43.2208
   -43.1668 -43.1668 -43.1613 -43.1613 -43.0979 -43.0979 -43.0262 -43.0262
   -42.9415 -42.9415 -42.9406 -42.9406 -42.8046 -42.8046 -42.7980 -42.7979
   -42.7696 -42.7696 -42.7661 -42.7661 -42.6150 -42.6149 -42.6141 -42.6141
   -42.6053 -42.6052 -42.5980 -42.5979 -42.5835 -42.5834 -42.5833 -42.5832
    -2.3128  -2.3128  -1.7007  -1.7007  -1.5332  -1.5332  -1.4176  -1.4176
    -1.3613  -1.3613  -1.1319  -1.1319  -0.8847  -0.8847  -0.7992  -0.7992
    -0.7381  -0.7381  -0.4825  -0.4825  -0.3350  -0.3350  -0.3152  -0.3152
    -0.2528  -0.2528  -0.0198  -0.0198   0.2510   0.2510   0.5427   0.5428
     0.5961   0.5961   0.8662   0.8662   1.0272   1.0272   1.0902   1.0902
     1.2168   1.2168   1.2348   1.2349   1.3074   1.3074   1.3524   1.3524
     1.4693   1.4693   1.5718   1.5718   1.7424   1.7424   1.9505   1.9505
     2.0156   2.0156   2.2014   2.2014   2.4371   2.4372   2.5504   2.5504
     2.6477   2.6477   2.7699   2.7699   2.8512   2.8513   2.8806   2.8806
     3.0042   3.0042   3.4721   3.4721   3.6620   3.6620   4.0390   4.0390
     4.0463   4.0464   4.2649   4.2649   4.6158   4.6158   6.5769   6.5769
     6.8360   6.8360   7.1205   7.1205   8.3300   8.3300   8.6445   8.6445

 ------ SPIN DOWN ----------


          k = 0.1000 0.1732 0.0000 ( 15993 PWs)   bands (ev):

   -43.5632 -43.5527 -43.5492 -43.5492 -43.5314 -43.5228 -43.5228 -43.3269
   -43.3269 -43.3151 -43.2575 -43.2321 -43.2321 -43.2296 -43.1835 -43.1660
   -43.1660 -43.1183 -43.0862 -43.0862 -43.0570 -43.0402 -43.0119 -43.0116
   -43.0094 -43.0054 -43.0053 -42.9927 -42.9926 -42.9828 -42.7092 -42.7087
   -42.6801 -42.6801 -42.6795 -42.6795 -42.6353 -42.6171 -42.5954 -42.5954
   -42.5951 -42.5925 -42.5919 -42.5906 -42.5906 -42.5892 -42.5677 -42.5676
    -3.6427  -2.4839  -2.2535  -2.2535  -2.2082  -2.0675  -2.0675  -2.0278
    -1.9580  -1.9131  -1.9131  -1.8916  -1.7494  -1.4744  -1.4744  -1.3807
    -1.1777  -1.1777  -1.0713  -0.8154  -0.8035  -0.8034  -0.0552   0.1271
     0.1271   0.1977   0.3397   0.4088   0.4745   0.4964   0.4964   0.6881
     0.7254   0.7254   0.7263   0.7344   0.8504   0.9124   1.0344   1.2180
     1.3241   1.3241   1.3369   1.3441   1.4118   1.4145   1.6500   1.6500
     2.0446   2.0446   2.1467   2.3174   2.4166   2.5718   2.8000   2.9054
     2.9266   2.9266   2.9540   3.0002   3.0003   3.0284   3.1566   3.1889
     3.4191   3.4191   3.6155   3.6162   3.6162   3.6317   3.7594   3.7925
     3.7925   3.9038   3.9038   3.9206   3.9288   4.0424   4.0424   4.0790
     4.2498   4.2914   4.2914   4.6592   4.9752   4.9752   5.7716   5.7716
     5.7735   6.4685   6.7736   6.7736   7.5910   8.2076   8.4460   8.6234

          k = 0.1000 0.4041 0.0000 ( 15953 PWs)   bands (ev):

   -43.5193 -43.5132 -43.4953 -43.4859 -43.4812 -43.4749 -43.4424 -43.3324
   -43.3276 -43.3147 -43.2823 -43.2648 -43.2291 -43.2038 -43.1934 -43.1828
   -43.1768 -43.1378 -43.1353 -43.1275 -43.1191 -43.0661 -43.0607 -43.0083
   -42.9734 -42.9686 -42.9547 -42.9469 -42.9157 -42.9036 -42.7802 -42.7762
   -42.7173 -42.7152 -42.7017 -42.6996 -42.6528 -42.6524 -42.6208 -42.6089
   -42.6030 -42.5970 -42.5951 -42.5948 -42.5943 -42.5915 -42.5884 -42.5875
    -2.8979  -1.9930  -1.8690  -1.8510  -1.7810  -1.7668  -1.6313  -1.5517
    -1.4892  -1.4790  -1.4588  -1.3439  -1.2208  -1.1472  -1.0528  -0.9517
    -0.8852  -0.6251  -0.5625  -0.5546  -0.5291  -0.4872  -0.3520  -0.3253
    -0.1011  -0.0724   0.0070   0.2889   0.4404   0.4408   0.5263   0.6397
     0.6849   0.7128   0.7405   0.7992   0.8827   0.8952   0.9116   0.9139
     1.0062   1.1767   1.2260   1.2938   1.2956   1.4447   1.6480   1.7161
     1.7834   1.8283   1.8597   1.8682   1.9223   1.9235   1.9323   2.1140
     2.1181   2.1283   2.3007   2.3251   2.6182   2.6793   2.6897   2.6967
     2.7579   2.8522   2.9062   2.9920   3.0719   3.1468   3.2201   3.2840
     3.3887   3.5097   3.6597   3.6778   3.7234   3.8713   3.8809   3.9148
     3.9585   4.0325   4.1169   4.1846   4.1860   5.4707   5.4917   5.8850
     5.9021   7.1100   7.4289   7.5251   7.9235   8.1768   9.1572   9.2984

          k = 0.1000-0.5196 0.0000 ( 15949 PWs)   bands (ev):

   -43.4987 -43.4892 -43.4820 -43.4801 -43.4646 -43.4517 -43.3759 -43.3564
   -43.3424 -43.3124 -43.2707 -43.2692 -43.2308 -43.2176 -43.2043 -43.1910
   -43.1885 -43.1736 -43.1520 -43.1422 -43.1135 -43.0900 -43.0430 -43.0254
   -42.9532 -42.9487 -42.9347 -42.9297 -42.8481 -42.8393 -42.8086 -42.8035
   -42.7739 -42.7692 -42.7340 -42.7315 -42.6339 -42.6331 -42.6144 -42.6139
   -42.6136 -42.6074 -42.6051 -42.6013 -42.5933 -42.5922 -42.5876 -42.5869
    -2.4478  -2.1103  -1.6859  -1.6394  -1.5615  -1.5539  -1.4459  -1.3739
    -1.3527  -1.3297  -1.2164  -1.0742  -1.0032  -0.8613  -0.8540  -0.7712
    -0.7541  -0.6695  -0.5579  -0.5065  -0.4087  -0.3575  -0.3285  -0.2904
    -0.1917  -0.1570  -0.1485   0.0707   0.2615   0.3258   0.4355   0.4417
     0.5841   0.6211   0.7497   0.8907   0.9241   0.9397   1.0119   1.0272
     1.0731   1.1478   1.2247   1.2552   1.2728   1.3195   1.3693   1.3911
     1.5447   1.5471   1.5656   1.5902   1.6939   1.8942   1.9204   1.9219
     2.0077   2.0351   2.1996   2.3399   2.3735   2.4821   2.5491   2.6502
     2.6655   2.6808   2.7992   2.8290   2.8491   2.9667   2.9891   3.0482
     3.1505   3.2968   3.4340   3.4830   3.6289   3.6555   3.9328   3.9352
     3.9778   3.9860   4.1773   4.1830   4.4924   4.9529   5.5728   5.9559
     6.5657   7.2015   7.2427   7.6412   8.2892   8.3236   9.1467   9.7238

          k = 0.1000-0.2887 0.0000 ( 15965 PWs)   bands (ev):

   -43.5421 -43.5385 -43.5224 -43.5113 -43.5083 -43.5011 -43.4932 -43.3296
   -43.3276 -43.3092 -43.2780 -43.2401 -43.2312 -43.2135 -43.1914 -43.1702
   -43.1530 -43.1528 -43.1048 -43.0909 -43.0754 -43.0707 -43.0424 -42.9955
   -42.9937 -42.9926 -42.9817 -42.9710 -42.9696 -42.9552 -42.7423 -42.7404
   -42.6956 -42.6951 -42.6687 -42.6681 -42.6419 -42.6415 -42.6276 -42.6100
   -42.5988 -42.5952 -42.5929 -42.5910 -42.5896 -42.5882 -42.5791 -42.5789
    -3.3244  -2.1933  -2.0991  -2.0359  -2.0079  -1.9955  -1.8790  -1.7749
    -1.7569  -1.7426  -1.7186  -1.6679  -1.4736  -1.3658  -1.2748  -1.1520
    -1.0482  -0.9366  -0.7883  -0.7060  -0.6946  -0.6843  -0.2538  -0.0453
     0.0099   0.1582   0.1890   0.2164   0.5326   0.6043   0.6285   0.7545
     0.7557   0.7818   0.7917   0.8332   0.8705   0.9498   1.0062   1.0201
     1.0221   1.0663   1.2134   1.2164   1.4100   1.4690   1.5716   1.5863
     1.9305   2.0110   2.0271   2.1891   2.2608   2.3184   2.3496   2.3785
     2.4680   2.6261   2.6775   2.7440   2.8722   2.8765   2.8821   2.9245
     3.0155   3.2506   3.2624   3.2722   3.3512   3.3600   3.4955   3.5241
     3.6671   3.7249   3.7266   3.7515   3.7570   3.9293   3.9324   3.9468
     4.1228   4.1971   4.2016   4.2908   4.6973   5.2593   5.2635   5.7802
     6.1215   6.5747   6.9443   7.1650   7.9521   8.7304   8.8958   9.4981

          k = 0.1000-0.0577 0.0000 ( 15995 PWs)   bands (ev):

   -43.5720 -43.5720 -43.5666 -43.5603 -43.5407 -43.5407 -43.5371 -43.3255
   -43.3218 -43.3218 -43.2440 -43.2440 -43.2362 -43.2261 -43.1730 -43.1730
   -43.1662 -43.0921 -43.0921 -43.0805 -43.0377 -43.0307 -43.0214 -43.0213
   -43.0195 -43.0138 -43.0138 -43.0078 -42.9880 -42.9770 -42.6862 -42.6862
   -42.6857 -42.6857 -42.6764 -42.6756 -42.6391 -42.6165 -42.5944 -42.5935
   -42.5934 -42.5898 -42.5894 -42.5894 -42.5710 -42.5707 -42.5618 -42.5615
    -3.8107  -2.6430  -2.3590  -2.3394  -2.3394  -2.1681  -2.1487  -2.1106
    -2.1106  -1.9985  -1.9955  -1.9955  -1.9028  -1.5684  -1.5345  -1.5345
    -1.2847  -1.2475  -1.2475  -0.8675  -0.8674  -0.8605   0.0999   0.0999
     0.1687   0.3824   0.4201   0.4201   0.4259   0.4427   0.4827   0.5638
     0.6365   0.6832   0.6887   0.6887   0.7786   1.0033   1.1079   1.1113
     1.2256   1.4830   1.4830   1.4836   1.5347   1.6512   1.6512   1.7850
     2.0582   2.1464   2.1464   2.4320   2.4333   2.7755   2.8376   2.9969
     2.9969   3.0541   3.0635   3.1936   3.2015   3.2015   3.4779   3.5225
     3.5938   3.5938   3.7030   3.7857   3.7857   3.8115   3.8761   3.8761
     3.9158   3.9623   4.0915   4.0915   4.1343   4.1829   4.2967   4.2967
     4.3862   4.3863   4.4011   4.4448   4.8643   5.1664   5.6041   5.6041
     6.1484   6.7936   6.8939   6.8939   7.2823   7.2823   8.3038   8.4860

          k = 0.3000 0.5196 0.0000 ( 15942 PWs)   bands (ev):

   -43.4855 -43.4726 -43.4726 -43.4556 -43.4425 -43.4047 -43.3854 -43.3854
   -43.3369 -43.3117 -43.3005 -43.3005 -43.2496 -43.2289 -43.2160 -43.1769
   -43.1769 -43.1602 -43.1340 -43.1340 -43.1051 -43.0837 -43.0837 -43.0572
   -42.9269 -42.9188 -42.8734 -42.8666 -42.8637 -42.8637 -42.8566 -42.8566
   -42.8080 -42.8024 -42.6673 -42.6673 -42.6663 -42.6663 -42.6397 -42.6392
   -42.6084 -42.6030 -42.6025 -42.6024 -42.5994 -42.5994 -42.5860 -42.5843
    -2.0867  -1.7425  -1.7425  -1.3652  -1.3589  -1.3589  -1.3333  -1.1527
    -1.1416  -1.1416  -1.0768  -1.0499  -0.9104  -0.8992  -0.8992  -0.6821
    -0.6781  -0.6381  -0.6141  -0.6141  -0.4277  -0.4277  -0.4044  -0.2673
    -0.1956  -0.0237  -0.0237   0.0083   0.2390   0.2390   0.2957   0.4948
     0.5412   0.5686   0.5735   0.6001   0.6001   0.6721   0.6721   0.7888
     0.8145   0.8146   1.0484   1.1330   1.2578   1.2578   1.2964   1.3220
     1.3538   1.4711   1.4711   1.5160   1.8666   1.8824   1.8824   1.9485
     2.1029   2.1030   2.1043   2.2191   2.5212   2.5459   2.5459   2.5667
     2.8117   2.9599   2.9599   3.0611   3.2023   3.3063   3.3148   3.3564
     3.3564   3.3817   3.4466   3.4466   3.6486   3.7233   3.7629   3.7888
     3.7888   3.8222   3.9500   3.9500   4.0077   4.0077   4.9306   5.4932
     5.4932   7.0495   7.7284   7.7284   8.8599   9.6643   9.6644  10.1489

          k = 0.3000-0.4041 0.0000 ( 15934 PWs)   bands (ev):

   -43.5029 -43.4891 -43.4747 -43.4740 -43.4640 -43.4349 -43.4088 -43.3615
   -43.3291 -43.3038 -43.2953 -43.2942 -43.2262 -43.2036 -43.1997 -43.1899
   -43.1849 -43.1596 -43.1439 -43.1338 -43.1070 -43.0815 -43.0712 -43.0303
   -42.9552 -42.9477 -42.9143 -42.9061 -42.8846 -42.8751 -42.8292 -42.8236
   -42.7521 -42.7483 -42.6939 -42.6925 -42.6592 -42.6588 -42.6153 -42.6149
   -42.6145 -42.6055 -42.6026 -42.5982 -42.5977 -42.5950 -42.5866 -42.5855
    -2.5135  -1.8597  -1.6281  -1.6035  -1.5935  -1.5552  -1.5320  -1.3836
    -1.3205  -1.2696  -1.2575  -1.0464  -1.0296  -0.9888  -0.9281  -0.8066
    -0.7353  -0.6412  -0.5153  -0.4814  -0.4751  -0.4462  -0.3010  -0.2874
    -0.2301  -0.0774  -0.0281   0.0895   0.2220   0.2333   0.4160   0.4719
     0.5321   0.5860   0.6288   0.7029   0.7525   0.9281   0.9472   0.9619
     1.0162   1.1118   1.1400   1.2003   1.2615   1.3273   1.4528   1.5028
     1.5423   1.5690   1.5692   1.6911   1.8023   1.8851   1.9487   1.9716
     1.9753   1.9950   2.2375   2.3346   2.3404   2.5724   2.6151   2.6166
     2.6989   2.7697   2.9035   2.9765   3.0082   3.0776   3.2835   3.2840
     3.3190   3.5078   3.5765   3.6613   3.7472   3.7801   3.8015   3.8175
     3.9093   3.9740   3.9906   4.0046   4.4867   4.6543   4.8848   5.4774
     6.2265   6.4376   7.7875   8.1067   8.4725   8.7203   9.5836   9.6957

          k = 0.3000-0.1732 0.0000 ( 15949 PWs)   bands (ev):

   -43.5316 -43.5244 -43.5244 -43.4992 -43.4992 -43.4917 -43.4736 -43.3251
   -43.3223 -43.3223 -43.2570 -43.2570 -43.2473 -43.2017 -43.1869 -43.1869
   -43.1437 -43.1437 -43.1404 -43.1096 -43.0823 -43.0603 -43.0571 -42.9960
   -42.9824 -42.9824 -42.9763 -42.9763 -42.9465 -42.9318 -42.7339 -42.7339
   -42.7319 -42.7319 -42.6634 -42.6627 -42.6545 -42.6534 -42.6254 -42.6098
   -42.6015 -42.5949 -42.5916 -42.5915 -42.5891 -42.5891 -42.5835 -42.5831
    -3.1782  -2.0797  -2.0752  -2.0057  -1.9244  -1.9244  -1.6860  -1.6860
    -1.6829  -1.6743  -1.6019  -1.6019  -1.3572  -1.3489  -1.1150  -1.1150
    -1.0333  -0.7286  -0.7286  -0.6485  -0.6485  -0.6156  -0.1979  -0.1979
    -0.1639   0.0959   0.1386   0.2962   0.5286   0.5286   0.6685   0.7728
     0.7996   0.8017   0.8017   0.8341   0.8964   0.9189   0.9189   0.9225
     1.0308   1.0440   1.2262   1.2546   1.2546   1.5020   1.6283   1.6681
     1.8427   1.9544   1.9544   2.0372   2.1386   2.1386   2.2490   2.2916
     2.3551   2.4508   2.4508   2.6284   2.7915   2.7915   2.8064   2.8145
     2.9912   3.1603   3.1603   3.1852   3.2304   3.2304   3.3156   3.4595
     3.4769   3.6899   3.6930   3.6931   3.7384   3.7476   3.7939   3.9991
     4.0037   4.0037   4.1189   4.2599   4.2599   5.4843   5.6544   6.3642
     6.3642   6.8878   6.9528   6.9528   8.0142   8.0142   8.1680   8.8727

          k =-0.5000-0.8660 0.0000 ( 15982 PWs)   bands (ev):

   -43.4910 -43.4910 -43.4866 -43.4866 -43.4610 -43.4610 -43.3496 -43.3496
   -43.3417 -43.3417 -43.2377 -43.2377 -43.2332 -43.2331 -43.2229 -43.2229
   -43.1688 -43.1688 -43.1633 -43.1633 -43.0999 -43.0999 -43.0282 -43.0282
   -42.9459 -42.9458 -42.9449 -42.9449 -42.8092 -42.8091 -42.8025 -42.8024
   -42.7742 -42.7741 -42.7707 -42.7706 -42.6196 -42.6195 -42.6187 -42.6187
   -42.6114 -42.6113 -42.6040 -42.6039 -42.5897 -42.5896 -42.5894 -42.5894
    -2.3131  -2.3131  -1.7017  -1.7017  -1.5345  -1.5345  -1.4190  -1.4190
    -1.3624  -1.3624  -1.1334  -1.1333  -0.8868  -0.8868  -0.8006  -0.8006
    -0.7398  -0.7398  -0.4841  -0.4841  -0.3372  -0.3372  -0.3173  -0.3173
    -0.2551  -0.2551  -0.0218  -0.0218   0.2487   0.2488   0.5407   0.5407
     0.5936   0.5936   0.8635   0.8635   1.0252   1.0252   1.0867   1.0867
     1.2142   1.2142   1.2321   1.2322   1.3045   1.3045   1.3494   1.3494
     1.4663   1.4663   1.5688   1.5689   1.7401   1.7401   1.9476   1.9476
     2.0133   2.0133   2.1981   2.1981   2.4343   2.4343   2.5469   2.5469
     2.6444   2.6444   2.7661   2.7662   2.8471   2.8471   2.8771   2.8771
     3.0007   3.0007   3.4680   3.4681   3.6575   3.6575   4.0353   4.0353
     4.0431   4.0431   4.2623   4.2623   4.6130   4.6130   6.5751   6.5751
     6.8337   6.8337   7.1184   7.1184   8.3281   8.3282   8.6431   8.6431

     the Fermi energy is     3.4850 ev

!    total energy              =   -2738.61101752 Ry
     estimated scf accuracy    <       0.00000067 Ry
     smearing contrib. (-TS)   =      -0.07084891 Ry
     internal energy E=F+TS    =   -2738.54016861 Ry

     The total energy is F=E-TS. E is the sum of the following terms:
     one-electron contribution =  -31035.84549355 Ry
     hartree contribution      =   15580.21048725 Ry
     xc contribution           =    -478.35961075 Ry
     ewald contribution        =   13195.45444843 Ry

     total magnetization       =    -0.05 Bohr mag/cell
     absolute magnetization    =     0.05 Bohr mag/cell

     convergence has been achieved in  16 iterations

     negative rho (up, down):  4.540E-01 4.538E-01

     Forces acting on atoms (cartesian axes, Ry/au):

     atom    1 type  1   force =     0.00000052   -0.00000030   -0.00003892
     atom    2 type  1   force =    -0.00000052   -0.00000030   -0.00003892
     atom    3 type  1   force =     0.00000000    0.00000060   -0.00003892
     atom    4 type  1   force =     0.00000000    0.00000000   -0.00004438
     atom    5 type  1   force =     0.00000000   -0.00000164   -0.00043277
     atom    6 type  1   force =     0.00000000    0.00000000   -0.00043303
     atom    7 type  1   force =    -0.00000142    0.00000082   -0.00043277
     atom    8 type  1   force =     0.00000142    0.00000082   -0.00043277
     atom    9 type  1   force =    -0.00000038   -0.00000022    0.00043349
     atom   10 type  1   force =     0.00000038   -0.00000022    0.00043349
     atom   11 type  1   force =     0.00000000    0.00000000    0.00043267
     atom   12 type  1   force =     0.00000000    0.00000044    0.00043349
     atom   13 type  1   force =     0.00000034   -0.00000020    0.00004022
     atom   14 type  1   force =    -0.00000034   -0.00000020    0.00004022
     atom   15 type  1   force =     0.00000000    0.00000039    0.00004022
     atom   16 type  1   force =    -0.00000000   -0.00000000    0.00003867

     Total force =     0.001230     Total SCF correction =     0.001097
     SCF correction compared to forces is large: reduce conv_thr to get better values

     BFGS Geometry Optimization
     Energy error            =      0.0E+00 Ry
     Gradient error          =      4.3E-04 Ry/Bohr

     bfgs converged in   1 scf cycles and   0 bfgs steps
     (criteria: energy <  1.0E-04 Ry, force <  1.0E-03 Ry/Bohr)

     End of BFGS Geometry Optimization

     Final energy             =   -2738.6110175249 Ry
Begin final coordinates

ATOMIC_POSITIONS (angstrom)
Rh            1.3554284000        2.3476708000        6.5906085000
Rh           -1.3554284000        2.3476708000        6.5906085000
Rh            2.7108568000        0.0000000000        6.5906085000
Rh            0.0000000000        0.0000000000        6.5906085000
Rh            2.7108568000        3.1302277000        4.4106939000
Rh            0.0000000000        3.1302277000        4.4106939000
Rh            4.0662852000        0.7825569000        4.4106939000
Rh            1.3554284000        0.7825569000        4.4106939000
Rh            1.3554284000        3.9127847000        2.2295220000
Rh           -1.3554284000        3.9127847000        2.2295220000
Rh            2.7108568000        1.5651139000        2.2295220000
Rh            0.0000000000        1.5651139000        2.2295220000
Rh            1.3554284000        2.3476708000        0.0496074000
Rh           -1.3554284000        2.3476708000        0.0496074000
Rh            2.7108568000        0.0000000000        0.0496074000
Rh            0.0000000000        0.0000000000        0.0496074000
End final coordinates



     Writing all to output data dir /home/STUDENTI/leonardo.razzai/Rh_work/surf_111_H2O/slab_2x2-L.save/

     init_run     :     41.53s CPU     42.12s WALL (       1 calls)
     electrons    :   1694.39s CPU   1734.00s WALL (       1 calls)
     forces       :     28.72s CPU     29.04s WALL (       1 calls)

     Called by init_run:
     wfcinit      :     38.85s CPU     39.32s WALL (       1 calls)
     potinit      :      0.44s CPU      0.46s WALL (       1 calls)
     hinit0       :      0.44s CPU      0.45s WALL (       1 calls)

     Called by electrons:
     c_bands      :   1503.94s CPU   1539.16s WALL (      16 calls)
     sum_band     :    151.73s CPU    154.22s WALL (      16 calls)
     v_of_rho     :      3.87s CPU      4.00s WALL (      17 calls)
     newd         :     28.19s CPU     29.26s WALL (      17 calls)
     mix_rho      :      8.25s CPU      8.37s WALL (      16 calls)

     Called by c_bands:
     init_us_2    :      3.20s CPU      3.27s WALL (     612 calls)
     init_us_2:cp :      3.20s CPU      3.27s WALL (     612 calls)
     cegterg      :   1486.32s CPU   1503.32s WALL (     288 calls)

     Called by *egterg:
     cdiaghg      :    174.98s CPU    176.39s WALL (    1880 calls)
     h_psi        :    638.37s CPU    645.77s WALL (    1898 calls)
     s_psi        :    189.61s CPU    191.55s WALL (    1898 calls)
     g_psi        :      0.45s CPU      0.46s WALL (    1592 calls)

     Called by h_psi:
     h_psi:calbec :    236.72s CPU    239.05s WALL (    1898 calls)
     vloc_psi     :    140.05s CPU    141.63s WALL (    1898 calls)
     add_vuspsi   :    260.42s CPU    263.28s WALL (    1898 calls)

     General routines
     calbec       :    351.18s CPU    354.50s WALL (    2258 calls)
     fft          :      1.95s CPU      2.11s WALL (     438 calls)
     ffts         :      4.71s CPU      4.79s WALL (    4447 calls)
     fftw         :    158.82s CPU    160.58s WALL (  253174 calls)
     interpolate  :      0.18s CPU      0.20s WALL (      34 calls)

     Parallel routines

     PWSCF        :  29m25.01s CPU  30m 5.79s WALL


   This run was terminated on:  20:34:12  22Apr2023            

=------------------------------------------------------------------------------=
   JOB DONE.
=------------------------------------------------------------------------------=
