MPI startup(): shm:dapl fabric is unknown or has been removed from the product, please use ofi or shm:ofi instead.

     Program PWSCF v.6.7MaX starts on 28Mar2023 at 17: 5:16 

     This program is part of the open-source Quantum ESPRESSO suite
     for quantum simulation of materials; please cite
         "P. Giannozzi et al., J. Phys.:Condens. Matter 21 395502 (2009);
         "P. Giannozzi et al., J. Phys.:Condens. Matter 29 465901 (2017);
          URL http://www.quantum-espresso.org", 
     in publications or presentations arising from this work. More details at
     http://www.quantum-espresso.org/quote

     Parallel version (MPI), running on     8 processors

     MPI processes distributed on     1 nodes
     R & G space division:  proc/nbgrp/npool/nimage =       8
     Reading input from k_points_10.pwi

     Current dimensions of program PWSCF are:
     Max number of different atomic species (ntypx) = 10
     Max number of k-points (npk) =  40000
     Max angular momentum in pseudopotentials (lmaxx) =  3

     Subspace diagonalization in iterative solution of the eigenvalue problem:
     a serial algorithm will be used

 
     Parallelization info
     --------------------
     sticks:   dense  smooth     PW     G-vecs:    dense   smooth      PW
     Min          63      31     10                  953      334      66
     Max          64      32     11                  955      337      69
     Sum         511     253     85                 7631     2685     537
 


     bravais-lattice index     =            2
     lattice parameter (alat)  =       7.2447  a.u.
     unit-cell volume          =      95.0607 (a.u.)^3
     number of atoms/cell      =            1
     number of atomic types    =            1
     number of electrons       =        15.00
     number of Kohn-Sham states=           12
     kinetic-energy cutoff     =      35.0000  Ry
     charge density cutoff     =     280.0000  Ry
     scf convergence threshold =      1.0E-06
     mixing beta               =       0.4000
     number of iterations used =            8  plain     mixing
     Exchange-correlation=  SLA  PW   PBX  PBC
                           (   1   4   3   4   0   0   0)

     celldm(1)=   7.244700  celldm(2)=   0.000000  celldm(3)=   0.000000
     celldm(4)=   0.000000  celldm(5)=   0.000000  celldm(6)=   0.000000

     crystal axes: (cart. coord. in units of alat)
               a(1) = (  -0.500000   0.000000   0.500000 )  
               a(2) = (   0.000000   0.500000   0.500000 )  
               a(3) = (  -0.500000   0.500000   0.000000 )  

     reciprocal axes: (cart. coord. in units 2 pi/alat)
               b(1) = ( -1.000000 -1.000000  1.000000 )  
               b(2) = (  1.000000  1.000000  1.000000 )  
               b(3) = ( -1.000000  1.000000 -1.000000 )  


     PseudoPot. # 1 for Rh read from file:
     /home/software/materia/pseudo/rh_pbe_v1.4.uspp.F.UPF
     MD5 check sum: 761627e959a2e3a1f56b0b5fe687810e
     Pseudo is Ultrasoft + core correction, Zval = 15.0
     Generated by new atomic code, or converted to UPF format
     Using radial grid of  969 points,  7 beta functions with: 
                l(1) =   0
                l(2) =   0
                l(3) =   1
                l(4) =   1
                l(5) =   2
                l(6) =   2
                l(7) =   2
     Q(r) pseudized with  8 coefficients,  rinner =    1.200   1.200   1.200
                                                       1.200   1.200

     atomic species   valence    mass     pseudopotential
        Rh            15.00   102.90500     Rh( 1.00)

     Starting magnetic structure 
     atomic species   magnetization
        Rh           0.010

     48 Sym. Ops., with inversion, found



   Cartesian axes

     site n.     atom                  positions (alat units)
         1           Rh  tau(   1) = (   0.0000000   0.0000000   0.0000000  )

     number of k points=    47  Gaussian smearing, width (Ry)=  0.0200
                       cart. coord. in units 2pi/alat
        k(    1) = (   0.0000000   0.0000000   0.0000000), wk =   0.0010000
        k(    2) = (  -0.1000000   0.1000000  -0.1000000), wk =   0.0080000
        k(    3) = (  -0.2000000   0.2000000  -0.2000000), wk =   0.0080000
        k(    4) = (  -0.3000000   0.3000000  -0.3000000), wk =   0.0080000
        k(    5) = (  -0.4000000   0.4000000  -0.4000000), wk =   0.0080000
        k(    6) = (   0.5000000  -0.5000000   0.5000000), wk =   0.0040000
        k(    7) = (   0.0000000   0.2000000   0.0000000), wk =   0.0060000
        k(    8) = (  -0.1000000   0.3000000  -0.1000000), wk =   0.0240000
        k(    9) = (  -0.2000000   0.4000000  -0.2000000), wk =   0.0240000
        k(   10) = (  -0.3000000   0.5000000  -0.3000000), wk =   0.0240000
        k(   11) = (   0.6000000  -0.4000000   0.6000000), wk =   0.0240000
        k(   12) = (   0.5000000  -0.3000000   0.5000000), wk =   0.0240000
        k(   13) = (   0.4000000  -0.2000000   0.4000000), wk =   0.0240000
        k(   14) = (   0.3000000  -0.1000000   0.3000000), wk =   0.0240000
        k(   15) = (   0.2000000   0.0000000   0.2000000), wk =   0.0120000
        k(   16) = (   0.0000000   0.4000000   0.0000000), wk =   0.0060000
        k(   17) = (  -0.1000000   0.5000000  -0.1000000), wk =   0.0240000
        k(   18) = (  -0.2000000   0.6000000  -0.2000000), wk =   0.0240000
        k(   19) = (   0.7000000  -0.3000000   0.7000000), wk =   0.0240000
        k(   20) = (   0.6000000  -0.2000000   0.6000000), wk =   0.0240000
        k(   21) = (   0.5000000  -0.1000000   0.5000000), wk =   0.0240000
        k(   22) = (   0.4000000   0.0000000   0.4000000), wk =   0.0120000
        k(   23) = (   0.0000000   0.6000000   0.0000000), wk =   0.0060000
        k(   24) = (  -0.1000000   0.7000000  -0.1000000), wk =   0.0240000
        k(   25) = (   0.8000000  -0.2000000   0.8000000), wk =   0.0240000
        k(   26) = (   0.7000000  -0.1000000   0.7000000), wk =   0.0240000
        k(   27) = (   0.6000000  -0.0000000   0.6000000), wk =   0.0120000
        k(   28) = (   0.0000000   0.8000000   0.0000000), wk =   0.0060000
        k(   29) = (   0.9000000  -0.1000000   0.9000000), wk =   0.0240000
        k(   30) = (   0.8000000   0.0000000   0.8000000), wk =   0.0120000
        k(   31) = (   0.0000000  -1.0000000   0.0000000), wk =   0.0030000
        k(   32) = (  -0.2000000   0.4000000   0.0000000), wk =   0.0240000
        k(   33) = (  -0.3000000   0.5000000  -0.1000000), wk =   0.0480000
        k(   34) = (   0.6000000  -0.4000000   0.8000000), wk =   0.0480000
        k(   35) = (   0.5000000  -0.3000000   0.7000000), wk =   0.0240000
        k(   36) = (  -0.2000000   0.6000000   0.0000000), wk =   0.0240000
        k(   37) = (   0.7000000  -0.3000000   0.9000000), wk =   0.0480000
        k(   38) = (   0.6000000  -0.2000000   0.8000000), wk =   0.0480000
        k(   39) = (   0.5000000  -0.1000000   0.7000000), wk =   0.0480000
        k(   40) = (   0.4000000   0.0000000   0.6000000), wk =   0.0240000
        k(   41) = (   0.8000000  -0.2000000   1.0000000), wk =   0.0240000
        k(   42) = (   0.7000000  -0.1000000   0.9000000), wk =   0.0480000
        k(   43) = (   0.6000000   0.0000000   0.8000000), wk =   0.0240000
        k(   44) = (  -0.2000000  -1.0000000   0.0000000), wk =   0.0120000
        k(   45) = (   0.6000000  -0.2000000   1.0000000), wk =   0.0240000
        k(   46) = (   0.5000000  -0.1000000   0.9000000), wk =   0.0240000
        k(   47) = (  -0.4000000  -1.0000000   0.0000000), wk =   0.0120000

     Dense  grid:     7631 G-vectors     FFT dimensions: (  27,  27,  27)

     Smooth grid:     2685 G-vectors     FFT dimensions: (  20,  20,  20)

     Estimated max dynamical RAM per process >       7.77 MB

     Estimated total dynamical RAM >      62.19 MB
     Generating pointlists ...
     new r_m :   0.2917 (alat units)  2.1131 (a.u.) for type    1

     Initial potential from superposition of free atoms

     starting charge   14.49990, renormalised to   15.00000

     negative rho (up, down):  2.592E-02 2.540E-02
     Starting wfcs are   12 randomized atomic wfcs

     total cpu time spent up to now is        0.7 secs

     Self-consistent Calculation

     iteration #  1     ecut=    35.00 Ry     beta= 0.40
     Davidson diagonalization with overlap
     ethr =  1.00E-02,  avg # of iterations =  4.5

     negative rho (up, down):  2.708E-02 2.691E-02

     total cpu time spent up to now is        1.8 secs

     total energy              =    -171.08933426 Ry
     estimated scf accuracy    <       0.55577160 Ry

     total magnetization       =     0.06 Bohr mag/cell
     absolute magnetization    =     0.06 Bohr mag/cell

     iteration #  2     ecut=    35.00 Ry     beta= 0.40
     Davidson diagonalization with overlap
     ethr =  3.71E-03,  avg # of iterations =  2.0

     negative rho (up, down):  2.712E-02 2.717E-02

     total cpu time spent up to now is        2.6 secs

     total energy              =    -171.19352411 Ry
     estimated scf accuracy    <       0.00140422 Ry

     total magnetization       =     0.06 Bohr mag/cell
     absolute magnetization    =     0.06 Bohr mag/cell

     iteration #  3     ecut=    35.00 Ry     beta= 0.40
     Davidson diagonalization with overlap
     ethr =  9.36E-06,  avg # of iterations =  3.8

     negative rho (up, down):  2.703E-02 2.735E-02

     total cpu time spent up to now is        3.6 secs

     total energy              =    -171.19387958 Ry
     estimated scf accuracy    <       0.00047121 Ry

     total magnetization       =     0.05 Bohr mag/cell
     absolute magnetization    =     0.05 Bohr mag/cell

     iteration #  4     ecut=    35.00 Ry     beta= 0.40
     Davidson diagonalization with overlap
     ethr =  3.14E-06,  avg # of iterations =  1.1

     negative rho (up, down):  2.706E-02 2.734E-02

     total cpu time spent up to now is        4.3 secs

     total energy              =    -171.19390808 Ry
     estimated scf accuracy    <       0.00003375 Ry

     total magnetization       =     0.03 Bohr mag/cell
     absolute magnetization    =     0.03 Bohr mag/cell

     iteration #  5     ecut=    35.00 Ry     beta= 0.40
     Davidson diagonalization with overlap
     ethr =  2.25E-07,  avg # of iterations =  1.8

     negative rho (up, down):  2.716E-02 2.726E-02

     total cpu time spent up to now is        5.1 secs

     total energy              =    -171.19391443 Ry
     estimated scf accuracy    <       0.00000481 Ry

     total magnetization       =     0.02 Bohr mag/cell
     absolute magnetization    =     0.03 Bohr mag/cell

     iteration #  6     ecut=    35.00 Ry     beta= 0.40
     Davidson diagonalization with overlap
     ethr =  3.20E-08,  avg # of iterations =  2.0

     negative rho (up, down):  2.719E-02 2.722E-02

     total cpu time spent up to now is        6.0 secs

     total energy              =    -171.19392304 Ry
     estimated scf accuracy    <       0.00000231 Ry

     total magnetization       =     0.01 Bohr mag/cell
     absolute magnetization    =     0.01 Bohr mag/cell

     iteration #  7     ecut=    35.00 Ry     beta= 0.40
     Davidson diagonalization with overlap
     ethr =  1.54E-08,  avg # of iterations =  2.1

     negative rho (up, down):  2.720E-02 2.721E-02

     total cpu time spent up to now is        6.9 secs

     total energy              =    -171.19392366 Ry
     estimated scf accuracy    <       0.00000528 Ry

     total magnetization       =     0.00 Bohr mag/cell
     absolute magnetization    =     0.00 Bohr mag/cell

     iteration #  8     ecut=    35.00 Ry     beta= 0.40
     Davidson diagonalization with overlap
     ethr =  1.54E-08,  avg # of iterations =  2.0

     negative rho (up, down):  2.720E-02 2.721E-02
 
     Magnetic moment per site:
     atom:    1    charge:   13.2477    magn:    0.0004    constr:    0.0000

     total cpu time spent up to now is        7.8 secs

     End of self-consistent calculation

 ------ SPIN UP ------------


          k = 0.0000 0.0000 0.0000 (   331 PWs)   bands (ev):

   -25.6372 -25.6372 -25.6372  12.9179  17.7566  17.7566  17.7566  19.7659
    19.7659  37.2998  42.6322  42.6322

          k =-0.1000 0.1000-0.1000 (   332 PWs)   bands (ev):

   -25.7033 -25.6459 -25.6459  13.3040  17.5999  17.9003  17.9003  19.6967
    19.6967  37.7928  40.6329  43.1470

          k =-0.2000 0.2000-0.2000 (   329 PWs)   bands (ev):

   -25.8708 -25.6690 -25.6690  14.2585  17.4324  18.1167  18.1167  19.7324
    19.7324  37.3765  38.7459  44.4486

          k =-0.3000 0.3000-0.3000 (   338 PWs)   bands (ev):

   -26.0812 -25.6979 -25.6979  14.9119  18.0181  18.0181  18.2156  20.2572
    20.2572  34.1005  38.2061  44.8773

          k =-0.4000 0.4000-0.4000 (   332 PWs)   bands (ev):

   -26.2430 -25.7205 -25.7205  14.8803  17.7869  17.7869  20.1820  20.9640
    20.9640  30.8265  37.1258  43.0590

          k = 0.5000-0.5000 0.5000 (   332 PWs)   bands (ev):

   -26.3059 -25.7290 -25.7290  14.8013  17.6884  17.6884  21.2743  21.2743
    21.4734  29.1092  36.6970  42.2575

          k = 0.0000 0.2000 0.0000 (   335 PWs)   bands (ev):

   -25.7012 -25.6614 -25.6614  13.4335  17.4265  18.0204  18.0204  19.4258
    19.8951  37.9975  41.1749  42.4833

          k =-0.1000 0.3000-0.1000 (   328 PWs)   bands (ev):

   -25.8254 -25.6888 -25.6772  14.2243  17.1150  18.2631  18.3112  19.2736
    20.0458  38.5015  39.1009  42.4379

          k =-0.2000 0.4000-0.2000 (   332 PWs)   bands (ev):

   -26.0160 -25.7186 -25.7066  15.0866  17.2623  18.0073  18.3552  20.0359
    20.4870  35.4416  38.8563  42.2346

          k =-0.3000 0.5000-0.3000 (   333 PWs)   bands (ev):

   -26.1878 -25.7416 -25.7398  15.1846  17.6280  18.1448  18.4632  21.0806
    21.5530  31.9515  37.7721  41.5461

          k = 0.6000-0.4000 0.6000 (   339 PWs)   bands (ev):

   -26.2807 -25.7694 -25.7447  15.0777  17.4449  17.9593  19.5204  21.2945
    23.1992  29.2817  37.1054  41.2783

          k = 0.5000-0.3000 0.5000 (   335 PWs)   bands (ev):

   -26.2597 -25.7769 -25.7296  15.1241  17.5210  17.9553  19.4344  20.8750
    22.9435  29.9842  37.1866  40.7088

          k = 0.4000-0.2000 0.4000 (   331 PWs)   bands (ev):

   -26.1341 -25.7628 -25.7010  15.2594  17.7562  18.1513  18.2160  20.0387
    21.6275  33.1450  37.9241  41.4485

          k = 0.3000-0.1000 0.3000 (   327 PWs)   bands (ev):

   -25.9512 -25.7300 -25.6697  14.8933  17.1888  18.1364  18.3625  19.3222
    20.5507  36.5159  38.7144  42.6874

          k = 0.2000 0.0000 0.2000 (   329 PWs)   bands (ev):

   -25.7853 -25.6859 -25.6493  13.9022  17.3289  18.1161  18.1337  19.3707
    19.9414  38.4062  39.2194  42.3736

          k = 0.0000 0.4000 0.0000 (   331 PWs)   bands (ev):

   -25.8632 -25.7225 -25.7225  14.7033  16.6498  18.7916  18.7916  18.8062
    20.2452  39.7247  39.7397  40.9154

          k =-0.1000 0.5000-0.1000 (   327 PWs)   bands (ev):

   -25.9940 -25.7578 -25.7566  15.3848  16.3479  18.2935  19.0947  20.0262
    20.6168  37.1071  39.5279  39.7837

          k =-0.2000 0.6000-0.2000 (   327 PWs)   bands (ev):

   -26.1328 -25.8064 -25.7801  15.5803  16.6843  17.9580  18.9718  21.1756
    22.0577  33.4043  38.1719  39.1188

          k = 0.7000-0.3000 0.7000 (   327 PWs)   bands (ev):

   -26.2172 -25.8594 -25.7812  15.5762  16.9174  18.2102  18.7384  21.3555
    24.5749  29.9795  36.9576  39.3642

          k = 0.6000-0.2000 0.6000 (   332 PWs)   bands (ev):

   -26.2195 -25.8954 -25.7629  15.7440  16.9795  18.3619  18.6029  20.8728
    25.3936  29.4108  36.1294  39.8198

          k = 0.5000-0.1000 0.5000 (   335 PWs)   bands (ev):

   -26.1491 -25.8890 -25.7300  16.0324  17.2146  17.7216  18.6557  19.9677
    23.6219  32.5365  35.9369  40.0521

          k = 0.4000 0.0000 0.4000 (   331 PWs)   bands (ev):

   -26.0471 -25.8248 -25.6942  15.9026  16.8637  17.8093  18.8729  19.0765
    21.9285  35.5463  36.8472  41.3567

          k = 0.0000 0.6000 0.0000 (   323 PWs)   bands (ev):

   -26.0582 -25.7965 -25.7965  15.3483  15.8163  19.5648  19.9342  19.9342
    20.7062  37.8740  37.8740  38.2666

          k =-0.1000 0.7000-0.1000 (   331 PWs)   bands (ev):

   -26.1480 -25.8477 -25.8259  15.3168  15.6431  19.3442  20.0803  21.1919
    22.0955  34.9142  36.7695  36.7849

          k = 0.8000-0.2000 0.8000 (   336 PWs)   bands (ev):

   -26.1900 -25.9263 -25.8302  15.3742  15.9763  18.8302  19.8312  21.4299
    25.0599  31.3710  35.0757  36.9083

          k = 0.7000-0.1000 0.7000 (   336 PWs)   bands (ev):

   -26.1578 -26.0138 -25.8089  15.6914  16.5372  18.1980  19.5420  20.9953
    27.7715  29.0186  33.5966  38.3878

          k = 0.6000-0.0000 0.6000 (   335 PWs)   bands (ev):

   -26.1219 -26.0206 -25.7709  16.2127  17.0898  17.4172  19.2086  20.2959
    25.7535  32.0755  32.8603  40.4124

          k = 0.0000 0.8000 0.0000 (   327 PWs)   bands (ev):

   -26.2103 -25.8590 -25.8590  14.8974  15.2086  21.0909  21.1182  21.1182
    22.1763  34.9071  35.1758  35.1758

          k = 0.9000-0.1000 0.9000 (   332 PWs)   bands (ev):

   -26.2383 -25.9027 -25.8681  14.8715  15.2243  20.5216  20.8778  21.5326
    24.6302  32.9043  33.5708  34.8868

          k = 0.8000 0.0000 0.8000 (   331 PWs)   bands (ev):

   -26.1961 -25.9828 -25.8484  15.1843  15.7424  19.3398  20.4125  21.2930
    27.2846  30.4602  32.6026  36.1280

          k = 0.0000-1.0000 0.0000 (   342 PWs)   bands (ev):

   -26.2713 -25.8837 -25.8837  14.6287  14.9894  21.2438  21.6651  21.6651
    23.9598  32.6658  34.0713  34.0713

          k =-0.2000 0.4000 0.0000 (   326 PWs)   bands (ev):

   -25.9349 -25.7491 -25.6933  15.0699  16.7649  18.1187  18.7979  19.2593
    20.6063  37.5611  38.6701  42.0180

          k =-0.3000 0.5000-0.1000 (   332 PWs)   bands (ev):

   -26.0801 -25.8074 -25.7222  15.7205  16.9732  17.6332  18.8319  19.9565
    21.8394  34.6199  37.7793  40.2982

          k = 0.6000-0.4000 0.8000 (   332 PWs)   bands (ev):

   -26.2005 -25.8396 -25.7519  15.6282  17.1817  18.0300  18.6199  20.8294
    23.6020  31.0876  37.3074  39.0828

          k = 0.5000-0.3000 0.7000 (   336 PWs)   bands (ev):

   -26.2471 -25.8506 -25.7653  15.5541  17.0217  18.4319  18.6376  21.1365
    25.0373  28.9728  37.1779  38.7712

          k =-0.2000 0.6000 0.0000 (   329 PWs)   bands (ev):

   -26.0860 -25.8313 -25.7763  15.7469  16.0519  18.1676  19.9169  20.1332
    21.8463  35.9800  36.7679  38.6318

          k = 0.7000-0.3000 0.9000 (   333 PWs)   bands (ev):

   -26.1601 -25.8978 -25.8037  15.7941  16.3394  17.8877  19.6813  20.9338
    24.0151  32.6021  36.1244  36.9921

          k = 0.6000-0.2000 0.8000 (   334 PWs)   bands (ev):

   -26.1826 -25.9535 -25.8112  15.9391  16.5777  17.8504  19.2982  21.1591
    26.6732  29.3998  35.5395  36.7192

          k = 0.5000-0.1000 0.7000 (   334 PWs)   bands (ev):

   -26.1586 -25.9741 -25.7895  16.3283  16.6392  17.5390  19.2165  20.7292
    25.9501  30.6929  34.4934  37.9005

          k = 0.4000 0.0000 0.6000 (   331 PWs)   bands (ev):

   -26.1242 -25.9165 -25.7518  16.6302  16.6870  17.0440  19.3962  19.9591
    23.7638  33.9802  34.5668  39.0451

          k = 0.8000-0.2000 1.0000 (   334 PWs)   bands (ev):

   -26.1945 -25.8957 -25.8540  15.2637  15.5221  19.2741  20.7584  21.1080
    24.1307  34.0301  34.4094  35.0783

          k = 0.7000-0.1000 0.9000 (   339 PWs)   bands (ev):

   -26.1818 -25.9740 -25.8610  15.4416  15.9084  18.6824  20.1798  21.4270
    26.9308  31.0869  33.3722  34.9303

          k = 0.6000 0.0000 0.8000 (   333 PWs)   bands (ev):

   -26.1047 -26.0686 -25.8326  15.8629  16.5505  17.8290  19.6659  21.1128
    28.3647  29.8301  32.4756  36.4126

          k =-0.2000-1.0000 0.0000 (   332 PWs)   bands (ev):

   -26.2322 -25.9206 -25.8828  14.9835  15.3313  19.9914  20.7637  21.6694
    25.9426  32.3834  33.3849  33.6171

          k = 0.6000-0.2000 1.0000 (   343 PWs)   bands (ev):

   -26.1462 -25.9912 -25.8413  16.0543  16.4333  17.4946  19.8377  21.0916
    26.4119  32.4183  32.8385  35.4695

          k = 0.5000-0.1000 0.9000 (   330 PWs)   bands (ev):

   -26.1118 -26.0444 -25.8581  16.0459  16.8154  17.2372  19.5691  21.4009
    29.0115  29.4804  33.4014  34.3273

          k =-0.4000-1.0000 0.0000 (   336 PWs)   bands (ev):

   -26.1360 -26.0173 -25.8896  15.7262  16.3285  17.9230  19.7858  21.6811
    28.8028  31.4689  31.9030  33.2163

 ------ SPIN DOWN ----------


          k = 0.0000 0.0000 0.0000 (   331 PWs)   bands (ev):

   -25.6367 -25.6367 -25.6367  12.9174  17.7568  17.7568  17.7568  19.7665
    19.7665  37.2989  42.6317  42.6317

          k =-0.1000 0.1000-0.1000 (   332 PWs)   bands (ev):

   -25.7028 -25.6453 -25.6453  13.3035  17.6001  17.9005  17.9005  19.6974
    19.6974  37.7921  40.6323  43.1465

          k =-0.2000 0.2000-0.2000 (   329 PWs)   bands (ev):

   -25.8703 -25.6685 -25.6685  14.2580  17.4325  18.1170  18.1170  19.7330
    19.7330  37.3760  38.7451  44.4482

          k =-0.3000 0.3000-0.3000 (   338 PWs)   bands (ev):

   -26.0807 -25.6974 -25.6974  14.9116  18.0184  18.0184  18.2153  20.2578
    20.2578  34.1001  38.2054  44.8770

          k =-0.4000 0.4000-0.4000 (   332 PWs)   bands (ev):

   -26.2425 -25.7200 -25.7200  14.8802  17.7873  17.7873  20.1815  20.9645
    20.9645  30.8263  37.1250  43.0587

          k = 0.5000-0.5000 0.5000 (   332 PWs)   bands (ev):

   -26.3054 -25.7285 -25.7285  14.8012  17.6888  17.6888  21.2748  21.2748
    21.4727  29.1092  36.6961  42.2571

          k = 0.0000 0.2000 0.0000 (   335 PWs)   bands (ev):

   -25.7007 -25.6609 -25.6609  13.4329  17.4267  18.0206  18.0206  19.4264
    19.8958  37.9967  41.1743  42.4829

          k =-0.1000 0.3000-0.1000 (   328 PWs)   bands (ev):

   -25.8249 -25.6883 -25.6767  14.2237  17.1151  18.2633  18.3115  19.2741
    20.0465  38.5009  39.1002  42.4374

          k =-0.2000 0.4000-0.2000 (   332 PWs)   bands (ev):

   -26.0155 -25.7181 -25.7061  15.0862  17.2622  18.0076  18.3556  20.0363
    20.4875  35.4412  38.8556  42.2343

          k =-0.3000 0.5000-0.3000 (   333 PWs)   bands (ev):

   -26.1873 -25.7411 -25.7393  15.1845  17.6284  18.1452  18.4630  21.0811
    21.5532  31.9513  37.7713  41.5458

          k = 0.6000-0.4000 0.6000 (   339 PWs)   bands (ev):

   -26.2802 -25.7689 -25.7442  15.0776  17.4453  17.9596  19.5204  21.2950
    23.1990  29.2816  37.1047  41.2780

          k = 0.5000-0.3000 0.5000 (   335 PWs)   bands (ev):

   -26.2592 -25.7764 -25.7291  15.1240  17.5213  17.9557  19.4343  20.8755
    22.9435  29.9841  37.1858  40.7085

          k = 0.4000-0.2000 0.4000 (   331 PWs)   bands (ev):

   -26.1336 -25.7623 -25.7004  15.2592  17.7565  18.1517  18.2159  20.0391
    21.6279  33.1447  37.9234  41.4482

          k = 0.3000-0.1000 0.3000 (   327 PWs)   bands (ev):

   -25.9507 -25.7295 -25.6692  14.8928  17.1888  18.1367  18.3628  19.3227
    20.5512  36.5154  38.7138  42.6870

          k = 0.2000 0.0000 0.2000 (   329 PWs)   bands (ev):

   -25.7848 -25.6854 -25.6488  13.9016  17.3291  18.1163  18.1339  19.3713
    19.9420  38.4055  39.2188  42.3732

          k = 0.0000 0.4000 0.0000 (   331 PWs)   bands (ev):

   -25.8627 -25.7220 -25.7220  14.7028  16.6499  18.7918  18.7918  18.8066
    20.2459  39.7241  39.7390  40.9151

          k =-0.1000 0.5000-0.1000 (   327 PWs)   bands (ev):

   -25.9935 -25.7573 -25.7561  15.3845  16.3480  18.2937  19.0950  20.0265
    20.6174  37.1067  39.5273  39.7834

          k =-0.2000 0.6000-0.2000 (   327 PWs)   bands (ev):

   -26.1323 -25.8059 -25.7796  15.5802  16.6843  17.9581  18.9721  21.1761
    22.0577  33.4040  38.1713  39.1184

          k = 0.7000-0.3000 0.7000 (   327 PWs)   bands (ev):

   -26.2167 -25.8588 -25.7807  15.5762  16.9176  18.2102  18.7388  21.3560
    24.5748  29.9794  36.9571  39.3639

          k = 0.6000-0.2000 0.6000 (   332 PWs)   bands (ev):

   -26.2190 -25.8949 -25.7624  15.7440  16.9797  18.3619  18.6034  20.8732
    25.3934  29.4107  36.1290  39.8192

          k = 0.5000-0.1000 0.5000 (   335 PWs)   bands (ev):

   -26.1486 -25.8885 -25.7295  16.0323  17.2148  17.7216  18.6562  19.9681
    23.6221  32.5362  35.9366  40.0515

          k = 0.4000 0.0000 0.4000 (   331 PWs)   bands (ev):

   -26.0466 -25.8243 -25.6937  15.9022  16.8637  17.8096  18.8734  19.0768
    21.9289  35.5459  36.8468  41.3561

          k = 0.0000 0.6000 0.0000 (   323 PWs)   bands (ev):

   -26.0577 -25.7960 -25.7960  15.3482  15.8164  19.5647  19.9344  19.9344
    20.7068  37.8737  37.8737  38.2660

          k =-0.1000 0.7000-0.1000 (   331 PWs)   bands (ev):

   -26.1475 -25.8472 -25.8254  15.3168  15.6432  19.3443  20.0808  21.1924
    22.0954  34.9138  36.7692  36.7846

          k = 0.8000-0.2000 0.8000 (   336 PWs)   bands (ev):

   -26.1895 -25.9258 -25.8297  15.3743  15.9764  18.8302  19.8317  21.4303
    25.0598  31.3708  35.0755  36.9080

          k = 0.7000-0.1000 0.7000 (   336 PWs)   bands (ev):

   -26.1574 -26.0133 -25.8084  15.6915  16.5372  18.1980  19.5425  20.9957
    27.7713  29.0184  33.5964  38.3875

          k = 0.6000-0.0000 0.6000 (   335 PWs)   bands (ev):

   -26.1214 -26.0201 -25.7704  16.2128  17.0898  17.4172  19.2092  20.2962
    25.7534  32.0752  32.8601  40.8074

          k = 0.0000 0.8000 0.0000 (   327 PWs)   bands (ev):

   -26.2098 -25.8585 -25.8585  14.8975  15.2086  21.0916  21.1185  21.1185
    22.1759  34.9070  35.1754  35.1754

          k = 0.9000-0.1000 0.9000 (   332 PWs)   bands (ev):

   -26.2378 -25.9022 -25.8676  14.8717  15.2244  20.5217  20.8784  21.5330
    24.6299  32.9041  33.5706  34.8864

          k = 0.8000 0.0000 0.8000 (   331 PWs)   bands (ev):

   -26.1956 -25.9823 -25.8479  15.1845  15.7424  19.3399  20.4132  21.2933
    27.2843  30.4599  32.6025  36.1277

          k = 0.0000-1.0000 0.0000 (   342 PWs)   bands (ev):

   -26.2708 -25.8832 -25.8832  14.6288  14.9894  21.2446  21.6655  21.6655
    23.9592  32.6658  34.0709  34.0709

          k =-0.2000 0.4000 0.0000 (   326 PWs)   bands (ev):

   -25.9344 -25.7486 -25.6928  15.0694  16.7650  18.1191  18.7981  19.2598
    20.6068  37.5605  38.6696  42.0175

          k =-0.3000 0.5000-0.1000 (   332 PWs)   bands (ev):

   -26.0796 -25.8069 -25.7217  15.7203  16.9731  17.6335  18.8322  19.9569
    21.8397  34.6196  37.7788  40.2977

          k = 0.6000-0.4000 0.8000 (   332 PWs)   bands (ev):

   -26.2001 -25.8391 -25.7514  15.6281  17.1820  18.0300  18.6203  20.8299
    23.6021  31.0874  37.3069  39.0824

          k = 0.5000-0.3000 0.7000 (   336 PWs)   bands (ev):

   -26.2466 -25.8501 -25.7648  15.5540  17.0220  18.4323  18.6376  21.1369
    25.0372  28.9727  37.1773  38.7709

          k =-0.2000 0.6000 0.0000 (   329 PWs)   bands (ev):

   -26.0855 -25.8308 -25.7757  15.7468  16.0520  18.1677  19.9172  20.1337
    21.8465  35.9796  36.7675  38.6313

          k = 0.7000-0.3000 0.9000 (   333 PWs)   bands (ev):

   -26.1596 -25.8973 -25.8031  15.7941  16.3395  17.8878  19.6817  20.9343
    24.0151  32.6018  36.1241  36.9918

          k = 0.6000-0.2000 0.8000 (   334 PWs)   bands (ev):

   -26.1821 -25.9530 -25.8107  15.9392  16.5778  17.8505  19.2987  21.1595
    26.6730  29.3997  35.5392  36.7188

          k = 0.5000-0.1000 0.7000 (   334 PWs)   bands (ev):

   -26.1581 -25.9736 -25.7890  16.3283  16.6394  17.5390  19.2170  20.7296
    25.9500  30.6927  34.4931  37.9001

          k = 0.4000 0.0000 0.6000 (   331 PWs)   bands (ev):

   -26.1237 -25.9160 -25.7513  16.6300  16.6870  17.0443  19.3967  19.9594
    23.7640  33.9799  34.5665  39.0446

          k = 0.8000-0.2000 1.0000 (   334 PWs)   bands (ev):

   -26.1940 -25.8952 -25.8535  15.2638  15.5221  19.2742  20.7590  21.1084
    24.1306  34.0298  34.4091  35.0780

          k = 0.7000-0.1000 0.9000 (   339 PWs)   bands (ev):

   -26.1813 -25.9735 -25.8605  15.4418  15.9085  18.6825  20.1804  21.4273
    26.9306  31.0867  33.3720  34.9299

          k = 0.6000 0.0000 0.8000 (   333 PWs)   bands (ev):

   -26.1042 -26.0681 -25.8321  15.8631  16.5506  17.8291  19.6664  21.1132
    28.3645  29.8298  32.4755  36.4123

          k =-0.2000-1.0000 0.0000 (   332 PWs)   bands (ev):

   -26.2317 -25.9201 -25.8823  14.9836  15.3313  19.9915  20.7643  21.6698
    25.9423  32.3834  33.3845  33.6167

          k = 0.6000-0.2000 1.0000 (   343 PWs)   bands (ev):

   -26.1457 -25.9907 -25.8408  16.0545  16.4333  17.4947  19.8382  21.0919
    26.4118  32.4180  32.8383  35.4692

          k = 0.5000-0.1000 0.9000 (   330 PWs)   bands (ev):

   -26.1113 -26.0439 -25.8576  16.0461  16.8154  17.2372  19.5696  21.4013
    29.0113  29.4802  33.4012  34.3270

          k =-0.4000-1.0000 0.0000 (   336 PWs)   bands (ev):

   -26.1355 -26.0168 -25.8891  15.7264  16.3286  17.9230  19.7864  21.6815
    28.8025  31.4686  31.9029  33.2160

     the Fermi energy is    20.7367 ev

!    total energy              =    -171.19392477 Ry
     estimated scf accuracy    <       0.00000002 Ry
     smearing contrib. (-TS)   =      -0.00392352 Ry
     internal energy E=F+TS    =    -171.19000126 Ry

     The total energy is F=E-TS. E is the sum of the following terms:
     one-electron contribution =     -24.33665880 Ry
     hartree contribution      =      25.47172571 Ry
     xc contribution           =     -29.93215105 Ry
     ewald contribution        =    -142.39291712 Ry

     total magnetization       =     0.00 Bohr mag/cell
     absolute magnetization    =     0.00 Bohr mag/cell

     convergence has been achieved in   8 iterations
 
     init_run     :      0.40s CPU      0.49s WALL (       1 calls)
     electrons    :      6.66s CPU      7.10s WALL (       1 calls)

     Called by init_run:
     wfcinit      :      0.24s CPU      0.25s WALL (       1 calls)
     potinit      :      0.01s CPU      0.02s WALL (       1 calls)
     hinit0       :      0.13s CPU      0.20s WALL (       1 calls)

     Called by electrons:
     c_bands      :      5.45s CPU      5.79s WALL (       8 calls)
     sum_band     :      1.05s CPU      1.11s WALL (       8 calls)
     v_of_rho     :      0.08s CPU      0.09s WALL (       9 calls)
     newd         :      0.09s CPU      0.09s WALL (       9 calls)
     mix_rho      :      0.01s CPU      0.01s WALL (       8 calls)

     Called by c_bands:
     init_us_2    :      0.07s CPU      0.08s WALL (    1598 calls)
     cegterg      :      5.17s CPU      5.49s WALL (     752 calls)

     Called by *egterg:
     cdiaghg      :      0.69s CPU      0.74s WALL (    2559 calls)
     h_psi        :      4.18s CPU      4.44s WALL (    2653 calls)
     s_psi        :      0.07s CPU      0.08s WALL (    2653 calls)
     g_psi        :      0.02s CPU      0.02s WALL (    1807 calls)

     Called by h_psi:
     h_psi:calbec :      0.13s CPU      0.14s WALL (    2653 calls)
     vloc_psi     :      3.93s CPU      4.18s WALL (    2653 calls)
     add_vuspsi   :      0.08s CPU      0.09s WALL (    2653 calls)

     General routines
     calbec       :      0.16s CPU      0.17s WALL (    3405 calls)
     fft          :      0.05s CPU      0.05s WALL (     219 calls)
     ffts         :      0.00s CPU      0.00s WALL (      34 calls)
     fftw         :      4.42s CPU      4.73s WALL (   55606 calls)
     interpolate  :      0.01s CPU      0.01s WALL (      18 calls)
 
     Parallel routines
     fft_scatt_xy :      0.26s CPU      0.25s WALL (   55859 calls)
     fft_scatt_yz :      1.59s CPU      1.68s WALL (   55859 calls)
 
     PWSCF        :      7.29s CPU      7.84s WALL

 
   This run was terminated on:  17: 5:24  28Mar2023            

=------------------------------------------------------------------------------=
   JOB DONE.
=------------------------------------------------------------------------------=
