MPI startup(): shm:dapl fabric is unknown or has been removed from the product, please use ofi or shm:ofi instead.

     Program PWSCF v.6.7MaX starts on 28Mar2023 at 17: 6:46 

     This program is part of the open-source Quantum ESPRESSO suite
     for quantum simulation of materials; please cite
         "P. Giannozzi et al., J. Phys.:Condens. Matter 21 395502 (2009);
         "P. Giannozzi et al., J. Phys.:Condens. Matter 29 465901 (2017);
          URL http://www.quantum-espresso.org", 
     in publications or presentations arising from this work. More details at
     http://www.quantum-espresso.org/quote

     Parallel version (MPI), running on     8 processors

     MPI processes distributed on     1 nodes
     R & G space division:  proc/nbgrp/npool/nimage =       8
     Reading input from k_points_16.pwi

     Current dimensions of program PWSCF are:
     Max number of different atomic species (ntypx) = 10
     Max number of k-points (npk) =  40000
     Max angular momentum in pseudopotentials (lmaxx) =  3

     Subspace diagonalization in iterative solution of the eigenvalue problem:
     a serial algorithm will be used

 
     Parallelization info
     --------------------
     sticks:   dense  smooth     PW     G-vecs:    dense   smooth      PW
     Min          63      31     10                  953      334      66
     Max          64      32     11                  955      337      69
     Sum         511     253     85                 7631     2685     537
 


     bravais-lattice index     =            2
     lattice parameter (alat)  =       7.2447  a.u.
     unit-cell volume          =      95.0607 (a.u.)^3
     number of atoms/cell      =            1
     number of atomic types    =            1
     number of electrons       =        15.00
     number of Kohn-Sham states=           12
     kinetic-energy cutoff     =      35.0000  Ry
     charge density cutoff     =     280.0000  Ry
     scf convergence threshold =      1.0E-06
     mixing beta               =       0.4000
     number of iterations used =            8  plain     mixing
     Exchange-correlation=  SLA  PW   PBX  PBC
                           (   1   4   3   4   0   0   0)

     celldm(1)=   7.244700  celldm(2)=   0.000000  celldm(3)=   0.000000
     celldm(4)=   0.000000  celldm(5)=   0.000000  celldm(6)=   0.000000

     crystal axes: (cart. coord. in units of alat)
               a(1) = (  -0.500000   0.000000   0.500000 )  
               a(2) = (   0.000000   0.500000   0.500000 )  
               a(3) = (  -0.500000   0.500000   0.000000 )  

     reciprocal axes: (cart. coord. in units 2 pi/alat)
               b(1) = ( -1.000000 -1.000000  1.000000 )  
               b(2) = (  1.000000  1.000000  1.000000 )  
               b(3) = ( -1.000000  1.000000 -1.000000 )  


     PseudoPot. # 1 for Rh read from file:
     /home/software/materia/pseudo/rh_pbe_v1.4.uspp.F.UPF
     MD5 check sum: 761627e959a2e3a1f56b0b5fe687810e
     Pseudo is Ultrasoft + core correction, Zval = 15.0
     Generated by new atomic code, or converted to UPF format
     Using radial grid of  969 points,  7 beta functions with: 
                l(1) =   0
                l(2) =   0
                l(3) =   1
                l(4) =   1
                l(5) =   2
                l(6) =   2
                l(7) =   2
     Q(r) pseudized with  8 coefficients,  rinner =    1.200   1.200   1.200
                                                       1.200   1.200

     atomic species   valence    mass     pseudopotential
        Rh            15.00   102.90500     Rh( 1.00)

     Starting magnetic structure 
     atomic species   magnetization
        Rh           0.010

     48 Sym. Ops., with inversion, found



   Cartesian axes

     site n.     atom                  positions (alat units)
         1           Rh  tau(   1) = (   0.0000000   0.0000000   0.0000000  )

     number of k points=   145  Gaussian smearing, width (Ry)=  0.0200

     Number of k-points >= 100: set verbosity='high' to print them.

     Dense  grid:     7631 G-vectors     FFT dimensions: (  27,  27,  27)

     Smooth grid:     2685 G-vectors     FFT dimensions: (  20,  20,  20)

     Estimated max dynamical RAM per process >       9.24 MB

     Estimated total dynamical RAM >      73.96 MB
     Generating pointlists ...
     new r_m :   0.2917 (alat units)  2.1131 (a.u.) for type    1

     Initial potential from superposition of free atoms

     starting charge   14.49990, renormalised to   15.00000

     negative rho (up, down):  2.592E-02 2.540E-02
     Starting wfcs are   12 randomized atomic wfcs

     total cpu time spent up to now is        1.3 secs

     Self-consistent Calculation

     iteration #  1     ecut=    35.00 Ry     beta= 0.40
     Davidson diagonalization with overlap
     ethr =  1.00E-02,  avg # of iterations =  4.4

     negative rho (up, down):  2.707E-02 2.691E-02

     total cpu time spent up to now is        4.8 secs

     total energy              =    -171.08858592 Ry
     estimated scf accuracy    <       0.55568553 Ry

     total magnetization       =     0.06 Bohr mag/cell
     absolute magnetization    =     0.06 Bohr mag/cell

     iteration #  2     ecut=    35.00 Ry     beta= 0.40
     Davidson diagonalization with overlap
     ethr =  3.70E-03,  avg # of iterations =  2.0

     negative rho (up, down):  2.711E-02 2.716E-02

     total cpu time spent up to now is        7.2 secs

     total energy              =    -171.19275288 Ry
     estimated scf accuracy    <       0.00135672 Ry

     total magnetization       =     0.06 Bohr mag/cell
     absolute magnetization    =     0.06 Bohr mag/cell

     iteration #  3     ecut=    35.00 Ry     beta= 0.40
     Davidson diagonalization with overlap
     ethr =  9.04E-06,  avg # of iterations =  3.5

     negative rho (up, down):  2.702E-02 2.734E-02

     total cpu time spent up to now is       10.1 secs

     total energy              =    -171.19309972 Ry
     estimated scf accuracy    <       0.00046602 Ry

     total magnetization       =     0.05 Bohr mag/cell
     absolute magnetization    =     0.05 Bohr mag/cell

     iteration #  4     ecut=    35.00 Ry     beta= 0.40
     Davidson diagonalization with overlap
     ethr =  3.11E-06,  avg # of iterations =  1.1

     negative rho (up, down):  2.705E-02 2.732E-02

     total cpu time spent up to now is       12.2 secs

     total energy              =    -171.19312878 Ry
     estimated scf accuracy    <       0.00003500 Ry

     total magnetization       =     0.03 Bohr mag/cell
     absolute magnetization    =     0.03 Bohr mag/cell

     iteration #  5     ecut=    35.00 Ry     beta= 0.40
     Davidson diagonalization with overlap
     ethr =  2.33E-07,  avg # of iterations =  1.7

     negative rho (up, down):  2.715E-02 2.724E-02

     total cpu time spent up to now is       14.4 secs

     total energy              =    -171.19313567 Ry
     estimated scf accuracy    <       0.00000484 Ry

     total magnetization       =     0.02 Bohr mag/cell
     absolute magnetization    =     0.03 Bohr mag/cell

     iteration #  6     ecut=    35.00 Ry     beta= 0.40
     Davidson diagonalization with overlap
     ethr =  3.23E-08,  avg # of iterations =  2.0

     negative rho (up, down):  2.717E-02 2.720E-02

     total cpu time spent up to now is       16.9 secs

     total energy              =    -171.19314451 Ry
     estimated scf accuracy    <       0.00000170 Ry

     total magnetization       =     0.01 Bohr mag/cell
     absolute magnetization    =     0.01 Bohr mag/cell

     iteration #  7     ecut=    35.00 Ry     beta= 0.40
     Davidson diagonalization with overlap
     ethr =  1.13E-08,  avg # of iterations =  2.0

     negative rho (up, down):  2.719E-02 2.719E-02

     total cpu time spent up to now is       19.5 secs

     total energy              =    -171.19314500 Ry
     estimated scf accuracy    <       0.00000304 Ry

     total magnetization       =     0.00 Bohr mag/cell
     absolute magnetization    =     0.00 Bohr mag/cell

     iteration #  8     ecut=    35.00 Ry     beta= 0.40
     Davidson diagonalization with overlap
     ethr =  1.13E-08,  avg # of iterations =  2.0

     negative rho (up, down):  2.719E-02 2.719E-02
 
     Magnetic moment per site:
     atom:    1    charge:   13.2486    magn:    0.0003    constr:    0.0000

     total cpu time spent up to now is       22.0 secs

     End of self-consistent calculation

     Number of k-points >= 100: set verbosity='high' to print the bands.

     the Fermi energy is    20.7262 ev

!    total energy              =    -171.19314574 Ry
     estimated scf accuracy    <          7.7E-09 Ry
     smearing contrib. (-TS)   =      -0.00387900 Ry
     internal energy E=F+TS    =    -171.18926674 Ry

     The total energy is F=E-TS. E is the sum of the following terms:
     one-electron contribution =     -24.34112707 Ry
     hartree contribution      =      25.47812097 Ry
     xc contribution           =     -29.93334352 Ry
     ewald contribution        =    -142.39291712 Ry

     total magnetization       =     0.00 Bohr mag/cell
     absolute magnetization    =     0.00 Bohr mag/cell

     convergence has been achieved in   8 iterations
 
     init_run     :      0.90s CPU      1.05s WALL (       1 calls)
     electrons    :     19.26s CPU     20.66s WALL (       1 calls)

     Called by init_run:
     wfcinit      :      0.71s CPU      0.77s WALL (       1 calls)
     potinit      :      0.01s CPU      0.01s WALL (       1 calls)
     hinit0       :      0.17s CPU      0.24s WALL (       1 calls)

     Called by electrons:
     c_bands      :     16.25s CPU     17.43s WALL (       8 calls)
     sum_band     :      2.86s CPU      3.06s WALL (       8 calls)
     v_of_rho     :      0.08s CPU      0.09s WALL (       9 calls)
     newd         :      0.07s CPU      0.08s WALL (       9 calls)
     mix_rho      :      0.01s CPU      0.01s WALL (       8 calls)

     Called by c_bands:
     init_us_2    :      0.22s CPU      0.23s WALL (    4930 calls)
     cegterg      :     15.45s CPU     16.57s WALL (    2320 calls)

     Called by *egterg:
     cdiaghg      :      1.98s CPU      2.12s WALL (    7760 calls)
     h_psi        :     12.62s CPU     13.57s WALL (    8050 calls)
     s_psi        :      0.22s CPU      0.24s WALL (    8050 calls)
     g_psi        :      0.05s CPU      0.06s WALL (    5440 calls)

     Called by h_psi:
     h_psi:calbec :      0.36s CPU      0.38s WALL (    8050 calls)
     vloc_psi     :     11.94s CPU     12.83s WALL (    8050 calls)
     add_vuspsi   :      0.24s CPU      0.26s WALL (    8050 calls)

     General routines
     calbec       :      0.42s CPU      0.46s WALL (   10370 calls)
     fft          :      0.05s CPU      0.05s WALL (     219 calls)
     ffts         :      0.00s CPU      0.00s WALL (      34 calls)
     fftw         :     13.47s CPU     14.56s WALL (  170360 calls)
     interpolate  :      0.01s CPU      0.01s WALL (      18 calls)
 
     Parallel routines
     fft_scatt_xy :      0.75s CPU      0.74s WALL (  170613 calls)
     fft_scatt_yz :      4.88s CPU      5.26s WALL (  170613 calls)
 
     PWSCF        :     20.38s CPU     21.97s WALL

 
   This run was terminated on:  17: 7: 8  28Mar2023            

=------------------------------------------------------------------------------=
   JOB DONE.
=------------------------------------------------------------------------------=
