MPI startup(): shm:dapl fabric is unknown or has been removed from the product, please use ofi or shm:ofi instead.

     Program PWSCF v.6.7MaX starts on 28Mar2023 at 17: 5:26 

     This program is part of the open-source Quantum ESPRESSO suite
     for quantum simulation of materials; please cite
         "P. Giannozzi et al., J. Phys.:Condens. Matter 21 395502 (2009);
         "P. Giannozzi et al., J. Phys.:Condens. Matter 29 465901 (2017);
          URL http://www.quantum-espresso.org", 
     in publications or presentations arising from this work. More details at
     http://www.quantum-espresso.org/quote

     Parallel version (MPI), running on     8 processors

     MPI processes distributed on     1 nodes
     R & G space division:  proc/nbgrp/npool/nimage =       8
     Reading input from k_points_11.pwi

     Current dimensions of program PWSCF are:
     Max number of different atomic species (ntypx) = 10
     Max number of k-points (npk) =  40000
     Max angular momentum in pseudopotentials (lmaxx) =  3

     Subspace diagonalization in iterative solution of the eigenvalue problem:
     a serial algorithm will be used

 
     Parallelization info
     --------------------
     sticks:   dense  smooth     PW     G-vecs:    dense   smooth      PW
     Min          63      31     10                  953      334      66
     Max          64      32     11                  955      337      69
     Sum         511     253     85                 7631     2685     537
 


     bravais-lattice index     =            2
     lattice parameter (alat)  =       7.2447  a.u.
     unit-cell volume          =      95.0607 (a.u.)^3
     number of atoms/cell      =            1
     number of atomic types    =            1
     number of electrons       =        15.00
     number of Kohn-Sham states=           12
     kinetic-energy cutoff     =      35.0000  Ry
     charge density cutoff     =     280.0000  Ry
     scf convergence threshold =      1.0E-06
     mixing beta               =       0.4000
     number of iterations used =            8  plain     mixing
     Exchange-correlation=  SLA  PW   PBX  PBC
                           (   1   4   3   4   0   0   0)

     celldm(1)=   7.244700  celldm(2)=   0.000000  celldm(3)=   0.000000
     celldm(4)=   0.000000  celldm(5)=   0.000000  celldm(6)=   0.000000

     crystal axes: (cart. coord. in units of alat)
               a(1) = (  -0.500000   0.000000   0.500000 )  
               a(2) = (   0.000000   0.500000   0.500000 )  
               a(3) = (  -0.500000   0.500000   0.000000 )  

     reciprocal axes: (cart. coord. in units 2 pi/alat)
               b(1) = ( -1.000000 -1.000000  1.000000 )  
               b(2) = (  1.000000  1.000000  1.000000 )  
               b(3) = ( -1.000000  1.000000 -1.000000 )  


     PseudoPot. # 1 for Rh read from file:
     /home/software/materia/pseudo/rh_pbe_v1.4.uspp.F.UPF
     MD5 check sum: 761627e959a2e3a1f56b0b5fe687810e
     Pseudo is Ultrasoft + core correction, Zval = 15.0
     Generated by new atomic code, or converted to UPF format
     Using radial grid of  969 points,  7 beta functions with: 
                l(1) =   0
                l(2) =   0
                l(3) =   1
                l(4) =   1
                l(5) =   2
                l(6) =   2
                l(7) =   2
     Q(r) pseudized with  8 coefficients,  rinner =    1.200   1.200   1.200
                                                       1.200   1.200

     atomic species   valence    mass     pseudopotential
        Rh            15.00   102.90500     Rh( 1.00)

     Starting magnetic structure 
     atomic species   magnetization
        Rh           0.010

     48 Sym. Ops., with inversion, found



   Cartesian axes

     site n.     atom                  positions (alat units)
         1           Rh  tau(   1) = (   0.0000000   0.0000000   0.0000000  )

     number of k points=    56  Gaussian smearing, width (Ry)=  0.0200
                       cart. coord. in units 2pi/alat
        k(    1) = (   0.0000000   0.0000000   0.0000000), wk =   0.0007513
        k(    2) = (  -0.0909091   0.0909091  -0.0909091), wk =   0.0060105
        k(    3) = (  -0.1818182   0.1818182  -0.1818182), wk =   0.0060105
        k(    4) = (  -0.2727273   0.2727273  -0.2727273), wk =   0.0060105
        k(    5) = (  -0.3636364   0.3636364  -0.3636364), wk =   0.0060105
        k(    6) = (  -0.4545455   0.4545455  -0.4545455), wk =   0.0060105
        k(    7) = (   0.0000000   0.1818182   0.0000000), wk =   0.0045079
        k(    8) = (  -0.0909091   0.2727273  -0.0909091), wk =   0.0180316
        k(    9) = (  -0.1818182   0.3636364  -0.1818182), wk =   0.0180316
        k(   10) = (  -0.2727273   0.4545455  -0.2727273), wk =   0.0180316
        k(   11) = (  -0.3636364   0.5454545  -0.3636364), wk =   0.0180316
        k(   12) = (   0.5454545  -0.3636364   0.5454545), wk =   0.0180316
        k(   13) = (   0.4545455  -0.2727273   0.4545455), wk =   0.0180316
        k(   14) = (   0.3636364  -0.1818182   0.3636364), wk =   0.0180316
        k(   15) = (   0.2727273  -0.0909091   0.2727273), wk =   0.0180316
        k(   16) = (   0.1818182  -0.0000000   0.1818182), wk =   0.0090158
        k(   17) = (   0.0000000   0.3636364   0.0000000), wk =   0.0045079
        k(   18) = (  -0.0909091   0.4545455  -0.0909091), wk =   0.0180316
        k(   19) = (  -0.1818182   0.5454545  -0.1818182), wk =   0.0180316
        k(   20) = (  -0.2727273   0.6363636  -0.2727273), wk =   0.0180316
        k(   21) = (   0.6363636  -0.2727273   0.6363636), wk =   0.0180316
        k(   22) = (   0.5454545  -0.1818182   0.5454545), wk =   0.0180316
        k(   23) = (   0.4545455  -0.0909091   0.4545455), wk =   0.0180316
        k(   24) = (   0.3636364   0.0000000   0.3636364), wk =   0.0090158
        k(   25) = (   0.0000000   0.5454545   0.0000000), wk =   0.0045079
        k(   26) = (  -0.0909091   0.6363636  -0.0909091), wk =   0.0180316
        k(   27) = (  -0.1818182   0.7272727  -0.1818182), wk =   0.0180316
        k(   28) = (   0.7272727  -0.1818182   0.7272727), wk =   0.0180316
        k(   29) = (   0.6363636  -0.0909091   0.6363636), wk =   0.0180316
        k(   30) = (   0.5454545   0.0000000   0.5454545), wk =   0.0090158
        k(   31) = (   0.0000000   0.7272727   0.0000000), wk =   0.0045079
        k(   32) = (  -0.0909091   0.8181818  -0.0909091), wk =   0.0180316
        k(   33) = (   0.8181818  -0.0909091   0.8181818), wk =   0.0180316
        k(   34) = (   0.7272727   0.0000000   0.7272727), wk =   0.0090158
        k(   35) = (   0.0000000   0.9090909   0.0000000), wk =   0.0045079
        k(   36) = (   0.9090909  -0.0000000   0.9090909), wk =   0.0090158
        k(   37) = (  -0.1818182   0.3636364   0.0000000), wk =   0.0180316
        k(   38) = (  -0.2727273   0.4545455  -0.0909091), wk =   0.0360631
        k(   39) = (  -0.3636364   0.5454545  -0.1818182), wk =   0.0360631
        k(   40) = (   0.5454545  -0.3636364   0.7272727), wk =   0.0360631
        k(   41) = (  -0.1818182   0.5454545   0.0000000), wk =   0.0180316
        k(   42) = (  -0.2727273   0.6363636  -0.0909091), wk =   0.0360631
        k(   43) = (   0.6363636  -0.2727273   0.8181818), wk =   0.0360631
        k(   44) = (   0.5454545  -0.1818182   0.7272727), wk =   0.0360631
        k(   45) = (   0.4545455  -0.0909091   0.6363636), wk =   0.0360631
        k(   46) = (   0.3636364   0.0000000   0.5454545), wk =   0.0180316
        k(   47) = (  -0.1818182   0.7272727   0.0000000), wk =   0.0180316
        k(   48) = (   0.7272727  -0.1818182   0.9090909), wk =   0.0360631
        k(   49) = (   0.6363636  -0.0909091   0.8181818), wk =   0.0360631
        k(   50) = (   0.5454545   0.0000000   0.7272727), wk =   0.0180316
        k(   51) = (   0.8181818  -0.0909091   1.0000000), wk =   0.0180316
        k(   52) = (   0.7272727   0.0000000   0.9090909), wk =   0.0180316
        k(   53) = (   0.6363636  -0.2727273   1.0000000), wk =   0.0180316
        k(   54) = (   0.5454545  -0.1818182   0.9090909), wk =   0.0360631
        k(   55) = (   0.6363636  -0.0909091   1.0000000), wk =   0.0180316
        k(   56) = (   0.5454545   0.0000000   0.9090909), wk =   0.0180316

     Dense  grid:     7631 G-vectors     FFT dimensions: (  27,  27,  27)

     Smooth grid:     2685 G-vectors     FFT dimensions: (  20,  20,  20)

     Estimated max dynamical RAM per process >       7.91 MB

     Estimated total dynamical RAM >      63.27 MB
     Generating pointlists ...
     new r_m :   0.2917 (alat units)  2.1131 (a.u.) for type    1

     Initial potential from superposition of free atoms

     starting charge   14.49990, renormalised to   15.00000

     negative rho (up, down):  2.592E-02 2.540E-02
     Starting wfcs are   12 randomized atomic wfcs

     total cpu time spent up to now is        0.8 secs

     Self-consistent Calculation

     iteration #  1     ecut=    35.00 Ry     beta= 0.40
     Davidson diagonalization with overlap
     ethr =  1.00E-02,  avg # of iterations =  4.4

     negative rho (up, down):  2.707E-02 2.692E-02

     total cpu time spent up to now is        2.1 secs

     total energy              =    -171.08774078 Ry
     estimated scf accuracy    <       0.55587315 Ry

     total magnetization       =     0.07 Bohr mag/cell
     absolute magnetization    =     0.07 Bohr mag/cell

     iteration #  2     ecut=    35.00 Ry     beta= 0.40
     Davidson diagonalization with overlap
     ethr =  3.71E-03,  avg # of iterations =  2.1

     negative rho (up, down):  2.708E-02 2.715E-02

     total cpu time spent up to now is        3.0 secs

     total energy              =    -171.19227650 Ry
     estimated scf accuracy    <       0.00120715 Ry

     total magnetization       =     0.06 Bohr mag/cell
     absolute magnetization    =     0.06 Bohr mag/cell

     iteration #  3     ecut=    35.00 Ry     beta= 0.40
     Davidson diagonalization with overlap
     ethr =  8.05E-06,  avg # of iterations =  3.7

     negative rho (up, down):  2.697E-02 2.730E-02

     total cpu time spent up to now is        4.2 secs

     total energy              =    -171.19261065 Ry
     estimated scf accuracy    <       0.00044350 Ry

     total magnetization       =     0.05 Bohr mag/cell
     absolute magnetization    =     0.05 Bohr mag/cell

     iteration #  4     ecut=    35.00 Ry     beta= 0.40
     Davidson diagonalization with overlap
     ethr =  2.96E-06,  avg # of iterations =  1.0

     negative rho (up, down):  2.700E-02 2.728E-02

     total cpu time spent up to now is        5.1 secs

     total energy              =    -171.19263921 Ry
     estimated scf accuracy    <       0.00003298 Ry

     total magnetization       =     0.03 Bohr mag/cell
     absolute magnetization    =     0.03 Bohr mag/cell

     iteration #  5     ecut=    35.00 Ry     beta= 0.40
     Davidson diagonalization with overlap
     ethr =  2.20E-07,  avg # of iterations =  1.7

     negative rho (up, down):  2.710E-02 2.720E-02

     total cpu time spent up to now is        5.9 secs

     total energy              =    -171.19264567 Ry
     estimated scf accuracy    <       0.00000503 Ry

     total magnetization       =     0.03 Bohr mag/cell
     absolute magnetization    =     0.03 Bohr mag/cell

     iteration #  6     ecut=    35.00 Ry     beta= 0.40
     Davidson diagonalization with overlap
     ethr =  3.35E-08,  avg # of iterations =  1.9

     negative rho (up, down):  2.713E-02 2.716E-02

     total cpu time spent up to now is        7.0 secs

     total energy              =    -171.19265513 Ry
     estimated scf accuracy    <       0.00000200 Ry

     total magnetization       =     0.01 Bohr mag/cell
     absolute magnetization    =     0.01 Bohr mag/cell

     iteration #  7     ecut=    35.00 Ry     beta= 0.40
     Davidson diagonalization with overlap
     ethr =  1.33E-08,  avg # of iterations =  2.0

     negative rho (up, down):  2.715E-02 2.715E-02

     total cpu time spent up to now is        8.0 secs

     total energy              =    -171.19265574 Ry
     estimated scf accuracy    <       0.00000483 Ry

     total magnetization       =     0.00 Bohr mag/cell
     absolute magnetization    =     0.00 Bohr mag/cell

     iteration #  8     ecut=    35.00 Ry     beta= 0.40
     Davidson diagonalization with overlap
     ethr =  1.33E-08,  avg # of iterations =  2.0

     negative rho (up, down):  2.715E-02 2.715E-02
 
     Magnetic moment per site:
     atom:    1    charge:   13.2516    magn:    0.0003    constr:    0.0000

     total cpu time spent up to now is        9.0 secs

     End of self-consistent calculation

     Number of k-points >= 100: set verbosity='high' to print the bands.

     the Fermi energy is    20.7529 ev

!    total energy              =    -171.19265674 Ry
     estimated scf accuracy    <       0.00000002 Ry
     smearing contrib. (-TS)   =      -0.00401186 Ry
     internal energy E=F+TS    =    -171.18864487 Ry

     The total energy is F=E-TS. E is the sum of the following terms:
     one-electron contribution =     -24.35454206 Ry
     hartree contribution      =      25.49541296 Ry
     xc contribution           =     -29.93659865 Ry
     ewald contribution        =    -142.39291712 Ry

     total magnetization       =     0.00 Bohr mag/cell
     absolute magnetization    =     0.00 Bohr mag/cell

     convergence has been achieved in   8 iterations
 
     init_run     :      0.50s CPU      0.55s WALL (       1 calls)
     electrons    :      7.72s CPU      8.26s WALL (       1 calls)

     Called by init_run:
     wfcinit      :      0.31s CPU      0.35s WALL (       1 calls)
     potinit      :      0.01s CPU      0.01s WALL (       1 calls)
     hinit0       :      0.17s CPU      0.17s WALL (       1 calls)

     Called by electrons:
     c_bands      :      6.39s CPU      6.85s WALL (       8 calls)
     sum_band     :      1.17s CPU      1.25s WALL (       8 calls)
     v_of_rho     :      0.08s CPU      0.08s WALL (       9 calls)
     newd         :      0.07s CPU      0.08s WALL (       9 calls)
     mix_rho      :      0.01s CPU      0.01s WALL (       8 calls)

     Called by c_bands:
     init_us_2    :      0.09s CPU      0.09s WALL (    1904 calls)
     cegterg      :      6.07s CPU      6.50s WALL (     896 calls)

     Called by *egterg:
     cdiaghg      :      0.81s CPU      0.86s WALL (    3006 calls)
     h_psi        :      4.92s CPU      5.29s WALL (    3118 calls)
     s_psi        :      0.09s CPU      0.09s WALL (    3118 calls)
     g_psi        :      0.02s CPU      0.02s WALL (    2110 calls)

     Called by h_psi:
     h_psi:calbec :      0.13s CPU      0.14s WALL (    3118 calls)
     vloc_psi     :      4.65s CPU      5.00s WALL (    3118 calls)
     add_vuspsi   :      0.09s CPU      0.10s WALL (    3118 calls)

     General routines
     calbec       :      0.16s CPU      0.17s WALL (    4014 calls)
     fft          :      0.05s CPU      0.05s WALL (     219 calls)
     ffts         :      0.00s CPU      0.00s WALL (      34 calls)
     fftw         :      5.23s CPU      5.65s WALL (   66246 calls)
     interpolate  :      0.01s CPU      0.01s WALL (      18 calls)
 
     Parallel routines
     fft_scatt_xy :      0.30s CPU      0.30s WALL (   66499 calls)
     fft_scatt_yz :      1.88s CPU      2.01s WALL (   66499 calls)
 
     PWSCF        :      8.45s CPU      9.05s WALL

 
   This run was terminated on:  17: 5:35  28Mar2023            

=------------------------------------------------------------------------------=
   JOB DONE.
=------------------------------------------------------------------------------=
