MPI startup(): shm:dapl fabric is unknown or has been removed from the product, please use ofi or shm:ofi instead.

     Program PWSCF v.6.7MaX starts on 28Mar2023 at 17: 5:51 

     This program is part of the open-source Quantum ESPRESSO suite
     for quantum simulation of materials; please cite
         "P. Giannozzi et al., J. Phys.:Condens. Matter 21 395502 (2009);
         "P. Giannozzi et al., J. Phys.:Condens. Matter 29 465901 (2017);
          URL http://www.quantum-espresso.org", 
     in publications or presentations arising from this work. More details at
     http://www.quantum-espresso.org/quote

     Parallel version (MPI), running on     8 processors

     MPI processes distributed on     1 nodes
     R & G space division:  proc/nbgrp/npool/nimage =       8
     Reading input from k_points_13.pwi

     Current dimensions of program PWSCF are:
     Max number of different atomic species (ntypx) = 10
     Max number of k-points (npk) =  40000
     Max angular momentum in pseudopotentials (lmaxx) =  3

     Subspace diagonalization in iterative solution of the eigenvalue problem:
     a serial algorithm will be used

 
     Parallelization info
     --------------------
     sticks:   dense  smooth     PW     G-vecs:    dense   smooth      PW
     Min          63      31     10                  953      334      66
     Max          64      32     11                  955      337      69
     Sum         511     253     85                 7631     2685     537
 


     bravais-lattice index     =            2
     lattice parameter (alat)  =       7.2447  a.u.
     unit-cell volume          =      95.0607 (a.u.)^3
     number of atoms/cell      =            1
     number of atomic types    =            1
     number of electrons       =        15.00
     number of Kohn-Sham states=           12
     kinetic-energy cutoff     =      35.0000  Ry
     charge density cutoff     =     280.0000  Ry
     scf convergence threshold =      1.0E-06
     mixing beta               =       0.4000
     number of iterations used =            8  plain     mixing
     Exchange-correlation=  SLA  PW   PBX  PBC
                           (   1   4   3   4   0   0   0)

     celldm(1)=   7.244700  celldm(2)=   0.000000  celldm(3)=   0.000000
     celldm(4)=   0.000000  celldm(5)=   0.000000  celldm(6)=   0.000000

     crystal axes: (cart. coord. in units of alat)
               a(1) = (  -0.500000   0.000000   0.500000 )  
               a(2) = (   0.000000   0.500000   0.500000 )  
               a(3) = (  -0.500000   0.500000   0.000000 )  

     reciprocal axes: (cart. coord. in units 2 pi/alat)
               b(1) = ( -1.000000 -1.000000  1.000000 )  
               b(2) = (  1.000000  1.000000  1.000000 )  
               b(3) = ( -1.000000  1.000000 -1.000000 )  


     PseudoPot. # 1 for Rh read from file:
     /home/software/materia/pseudo/rh_pbe_v1.4.uspp.F.UPF
     MD5 check sum: 761627e959a2e3a1f56b0b5fe687810e
     Pseudo is Ultrasoft + core correction, Zval = 15.0
     Generated by new atomic code, or converted to UPF format
     Using radial grid of  969 points,  7 beta functions with: 
                l(1) =   0
                l(2) =   0
                l(3) =   1
                l(4) =   1
                l(5) =   2
                l(6) =   2
                l(7) =   2
     Q(r) pseudized with  8 coefficients,  rinner =    1.200   1.200   1.200
                                                       1.200   1.200

     atomic species   valence    mass     pseudopotential
        Rh            15.00   102.90500     Rh( 1.00)

     Starting magnetic structure 
     atomic species   magnetization
        Rh           0.010

     48 Sym. Ops., with inversion, found



   Cartesian axes

     site n.     atom                  positions (alat units)
         1           Rh  tau(   1) = (   0.0000000   0.0000000   0.0000000  )

     number of k points=    84  Gaussian smearing, width (Ry)=  0.0200
                       cart. coord. in units 2pi/alat
        k(    1) = (   0.0000000   0.0000000   0.0000000), wk =   0.0004552
        k(    2) = (  -0.0769231   0.0769231  -0.0769231), wk =   0.0036413
        k(    3) = (  -0.1538462   0.1538462  -0.1538462), wk =   0.0036413
        k(    4) = (  -0.2307692   0.2307692  -0.2307692), wk =   0.0036413
        k(    5) = (  -0.3076923   0.3076923  -0.3076923), wk =   0.0036413
        k(    6) = (  -0.3846154   0.3846154  -0.3846154), wk =   0.0036413
        k(    7) = (  -0.4615385   0.4615385  -0.4615385), wk =   0.0036413
        k(    8) = (   0.0000000   0.1538462   0.0000000), wk =   0.0027310
        k(    9) = (  -0.0769231   0.2307692  -0.0769231), wk =   0.0109240
        k(   10) = (  -0.1538462   0.3076923  -0.1538462), wk =   0.0109240
        k(   11) = (  -0.2307692   0.3846154  -0.2307692), wk =   0.0109240
        k(   12) = (  -0.3076923   0.4615385  -0.3076923), wk =   0.0109240
        k(   13) = (  -0.3846154   0.5384615  -0.3846154), wk =   0.0109240
        k(   14) = (   0.5384615  -0.3846154   0.5384615), wk =   0.0109240
        k(   15) = (   0.4615385  -0.3076923   0.4615385), wk =   0.0109240
        k(   16) = (   0.3846154  -0.2307692   0.3846154), wk =   0.0109240
        k(   17) = (   0.3076923  -0.1538462   0.3076923), wk =   0.0109240
        k(   18) = (   0.2307692  -0.0769231   0.2307692), wk =   0.0109240
        k(   19) = (   0.1538462   0.0000000   0.1538462), wk =   0.0054620
        k(   20) = (   0.0000000   0.3076923   0.0000000), wk =   0.0027310
        k(   21) = (  -0.0769231   0.3846154  -0.0769231), wk =   0.0109240
        k(   22) = (  -0.1538462   0.4615385  -0.1538462), wk =   0.0109240
        k(   23) = (  -0.2307692   0.5384615  -0.2307692), wk =   0.0109240
        k(   24) = (  -0.3076923   0.6153846  -0.3076923), wk =   0.0109240
        k(   25) = (   0.6153846  -0.3076923   0.6153846), wk =   0.0109240
        k(   26) = (   0.5384615  -0.2307692   0.5384615), wk =   0.0109240
        k(   27) = (   0.4615385  -0.1538462   0.4615385), wk =   0.0109240
        k(   28) = (   0.3846154  -0.0769231   0.3846154), wk =   0.0109240
        k(   29) = (   0.3076923   0.0000000   0.3076923), wk =   0.0054620
        k(   30) = (   0.0000000   0.4615385   0.0000000), wk =   0.0027310
        k(   31) = (  -0.0769231   0.5384615  -0.0769231), wk =   0.0109240
        k(   32) = (  -0.1538462   0.6153846  -0.1538462), wk =   0.0109240
        k(   33) = (  -0.2307692   0.6923077  -0.2307692), wk =   0.0109240
        k(   34) = (   0.6923077  -0.2307692   0.6923077), wk =   0.0109240
        k(   35) = (   0.6153846  -0.1538462   0.6153846), wk =   0.0109240
        k(   36) = (   0.5384615  -0.0769231   0.5384615), wk =   0.0109240
        k(   37) = (   0.4615385   0.0000000   0.4615385), wk =   0.0054620
        k(   38) = (   0.0000000   0.6153846   0.0000000), wk =   0.0027310
        k(   39) = (  -0.0769231   0.6923077  -0.0769231), wk =   0.0109240
        k(   40) = (  -0.1538462   0.7692308  -0.1538462), wk =   0.0109240
        k(   41) = (   0.7692308  -0.1538462   0.7692308), wk =   0.0109240
        k(   42) = (   0.6923077  -0.0769231   0.6923077), wk =   0.0109240
        k(   43) = (   0.6153846   0.0000000   0.6153846), wk =   0.0054620
        k(   44) = (   0.0000000   0.7692308   0.0000000), wk =   0.0027310
        k(   45) = (  -0.0769231   0.8461538  -0.0769231), wk =   0.0109240
        k(   46) = (   0.8461538  -0.0769231   0.8461538), wk =   0.0109240
        k(   47) = (   0.7692308   0.0000000   0.7692308), wk =   0.0054620
        k(   48) = (   0.0000000   0.9230769   0.0000000), wk =   0.0027310
        k(   49) = (   0.9230769   0.0000000   0.9230769), wk =   0.0054620
        k(   50) = (  -0.1538462   0.3076923   0.0000000), wk =   0.0109240
        k(   51) = (  -0.2307692   0.3846154  -0.0769231), wk =   0.0218480
        k(   52) = (  -0.3076923   0.4615385  -0.1538462), wk =   0.0218480
        k(   53) = (  -0.3846154   0.5384615  -0.2307692), wk =   0.0218480
        k(   54) = (   0.5384615  -0.3846154   0.6923077), wk =   0.0218480
        k(   55) = (  -0.1538462   0.4615385   0.0000000), wk =   0.0109240
        k(   56) = (  -0.2307692   0.5384615  -0.0769231), wk =   0.0218480
        k(   57) = (  -0.3076923   0.6153846  -0.1538462), wk =   0.0218480
        k(   58) = (   0.6153846  -0.3076923   0.7692308), wk =   0.0218480
        k(   59) = (   0.5384615  -0.2307692   0.6923077), wk =   0.0218480
        k(   60) = (   0.4615385  -0.1538462   0.6153846), wk =   0.0218480
        k(   61) = (   0.3846154  -0.0769231   0.5384615), wk =   0.0218480
        k(   62) = (   0.3076923   0.0000000   0.4615385), wk =   0.0109240
        k(   63) = (  -0.1538462   0.6153846   0.0000000), wk =   0.0109240
        k(   64) = (  -0.2307692   0.6923077  -0.0769231), wk =   0.0218480
        k(   65) = (   0.6923077  -0.2307692   0.8461538), wk =   0.0218480
        k(   66) = (   0.6153846  -0.1538462   0.7692308), wk =   0.0218480
        k(   67) = (   0.5384615  -0.0769231   0.6923077), wk =   0.0218480
        k(   68) = (   0.4615385   0.0000000   0.6153846), wk =   0.0109240
        k(   69) = (  -0.1538462   0.7692308   0.0000000), wk =   0.0109240
        k(   70) = (   0.7692308  -0.1538462   0.9230769), wk =   0.0218480
        k(   71) = (   0.6923077  -0.0769231   0.8461538), wk =   0.0218480
        k(   72) = (   0.6153846   0.0000000   0.7692308), wk =   0.0109240
        k(   73) = (   0.8461538  -0.0769231   1.0000000), wk =   0.0109240
        k(   74) = (   0.7692308   0.0000000   0.9230769), wk =   0.0109240
        k(   75) = (  -0.3076923   0.6153846   0.0000000), wk =   0.0109240
        k(   76) = (   0.6153846  -0.3076923   0.9230769), wk =   0.0218480
        k(   77) = (   0.5384615  -0.2307692   0.8461538), wk =   0.0218480
        k(   78) = (   0.6923077  -0.2307692   1.0000000), wk =   0.0109240
        k(   79) = (   0.6153846  -0.1538462   0.9230769), wk =   0.0218480
        k(   80) = (   0.5384615  -0.0769231   0.8461538), wk =   0.0218480
        k(   81) = (   0.4615385   0.0000000   0.7692308), wk =   0.0109240
        k(   82) = (   0.6923077  -0.0769231   1.0000000), wk =   0.0109240
        k(   83) = (   0.6153846   0.0000000   0.9230769), wk =   0.0109240
        k(   84) = (   0.5384615  -0.0769231   1.0000000), wk =   0.0109240

     Dense  grid:     7631 G-vectors     FFT dimensions: (  27,  27,  27)

     Smooth grid:     2685 G-vectors     FFT dimensions: (  20,  20,  20)

     Estimated max dynamical RAM per process >       8.33 MB

     Estimated total dynamical RAM >      66.63 MB
     Generating pointlists ...
     new r_m :   0.2917 (alat units)  2.1131 (a.u.) for type    1

     Initial potential from superposition of free atoms

     starting charge   14.49990, renormalised to   15.00000

     negative rho (up, down):  2.592E-02 2.540E-02
     Starting wfcs are   12 randomized atomic wfcs

     total cpu time spent up to now is        1.0 secs

     Self-consistent Calculation

     iteration #  1     ecut=    35.00 Ry     beta= 0.40
     Davidson diagonalization with overlap
     ethr =  1.00E-02,  avg # of iterations =  4.5

     negative rho (up, down):  2.707E-02 2.691E-02

     total cpu time spent up to now is        3.0 secs

     total energy              =    -171.08896616 Ry
     estimated scf accuracy    <       0.55518688 Ry

     total magnetization       =     0.06 Bohr mag/cell
     absolute magnetization    =     0.06 Bohr mag/cell

     iteration #  2     ecut=    35.00 Ry     beta= 0.40
     Davidson diagonalization with overlap
     ethr =  3.70E-03,  avg # of iterations =  2.0

     negative rho (up, down):  2.710E-02 2.716E-02

     total cpu time spent up to now is        4.5 secs

     total energy              =    -171.19294789 Ry
     estimated scf accuracy    <       0.00135114 Ry

     total magnetization       =     0.06 Bohr mag/cell
     absolute magnetization    =     0.06 Bohr mag/cell

     iteration #  3     ecut=    35.00 Ry     beta= 0.40
     Davidson diagonalization with overlap
     ethr =  9.01E-06,  avg # of iterations =  3.5

     negative rho (up, down):  2.701E-02 2.734E-02

     total cpu time spent up to now is        6.3 secs

     total energy              =    -171.19328648 Ry
     estimated scf accuracy    <       0.00046593 Ry

     total magnetization       =     0.05 Bohr mag/cell
     absolute magnetization    =     0.05 Bohr mag/cell

     iteration #  4     ecut=    35.00 Ry     beta= 0.40
     Davidson diagonalization with overlap
     ethr =  3.11E-06,  avg # of iterations =  1.1

     negative rho (up, down):  2.705E-02 2.732E-02

     total cpu time spent up to now is        7.5 secs

     total energy              =    -171.19331526 Ry
     estimated scf accuracy    <       0.00003417 Ry

     total magnetization       =     0.03 Bohr mag/cell
     absolute magnetization    =     0.03 Bohr mag/cell

     iteration #  5     ecut=    35.00 Ry     beta= 0.40
     Davidson diagonalization with overlap
     ethr =  2.28E-07,  avg # of iterations =  1.8

     negative rho (up, down):  2.714E-02 2.724E-02

     total cpu time spent up to now is        8.9 secs

     total energy              =    -171.19332190 Ry
     estimated scf accuracy    <       0.00000488 Ry

     total magnetization       =     0.02 Bohr mag/cell
     absolute magnetization    =     0.03 Bohr mag/cell

     iteration #  6     ecut=    35.00 Ry     beta= 0.40
     Davidson diagonalization with overlap
     ethr =  3.26E-08,  avg # of iterations =  2.0

     negative rho (up, down):  2.717E-02 2.720E-02

     total cpu time spent up to now is       10.4 secs

     total energy              =    -171.19333078 Ry
     estimated scf accuracy    <       0.00000203 Ry

     total magnetization       =     0.01 Bohr mag/cell
     absolute magnetization    =     0.01 Bohr mag/cell

     iteration #  7     ecut=    35.00 Ry     beta= 0.40
     Davidson diagonalization with overlap
     ethr =  1.35E-08,  avg # of iterations =  2.0

     negative rho (up, down):  2.719E-02 2.719E-02

     total cpu time spent up to now is       12.1 secs

     total energy              =    -171.19333136 Ry
     estimated scf accuracy    <       0.00000460 Ry

     total magnetization       =     0.00 Bohr mag/cell
     absolute magnetization    =     0.00 Bohr mag/cell

     iteration #  8     ecut=    35.00 Ry     beta= 0.40
     Davidson diagonalization with overlap
     ethr =  1.35E-08,  avg # of iterations =  2.0

     negative rho (up, down):  2.719E-02 2.719E-02
 
     Magnetic moment per site:
     atom:    1    charge:   13.2488    magn:    0.0004    constr:    0.0000

     total cpu time spent up to now is       13.7 secs

     End of self-consistent calculation

     Number of k-points >= 100: set verbosity='high' to print the bands.

     the Fermi energy is    20.7315 ev

!    total energy              =    -171.19333236 Ry
     estimated scf accuracy    <       0.00000002 Ry
     smearing contrib. (-TS)   =      -0.00393589 Ry
     internal energy E=F+TS    =    -171.18939647 Ry

     The total energy is F=E-TS. E is the sum of the following terms:
     one-electron contribution =     -24.34178447 Ry
     hartree contribution      =      25.47877575 Ry
     xc contribution           =     -29.93347062 Ry
     ewald contribution        =    -142.39291712 Ry

     total magnetization       =     0.00 Bohr mag/cell
     absolute magnetization    =     0.00 Bohr mag/cell

     convergence has been achieved in   8 iterations
 
     init_run     :      0.63s CPU      0.71s WALL (       1 calls)
     electrons    :     12.01s CPU     12.75s WALL (       1 calls)

     Called by init_run:
     wfcinit      :      0.45s CPU      0.47s WALL (       1 calls)
     potinit      :      0.01s CPU      0.01s WALL (       1 calls)
     hinit0       :      0.14s CPU      0.19s WALL (       1 calls)

     Called by electrons:
     c_bands      :     10.00s CPU     10.63s WALL (       8 calls)
     sum_band     :      1.84s CPU      1.94s WALL (       8 calls)
     v_of_rho     :      0.08s CPU      0.09s WALL (       9 calls)
     newd         :      0.09s CPU      0.09s WALL (       9 calls)
     mix_rho      :      0.01s CPU      0.01s WALL (       8 calls)

     Called by c_bands:
     init_us_2    :      0.13s CPU      0.14s WALL (    2856 calls)
     cegterg      :      9.50s CPU     10.10s WALL (    1344 calls)

     Called by *egterg:
     cdiaghg      :      1.20s CPU      1.28s WALL (    4511 calls)
     h_psi        :      7.82s CPU      8.31s WALL (    4679 calls)
     s_psi        :      0.13s CPU      0.14s WALL (    4679 calls)
     g_psi        :      0.03s CPU      0.03s WALL (    3167 calls)

     Called by h_psi:
     h_psi:calbec :      0.22s CPU      0.23s WALL (    4679 calls)
     vloc_psi     :      7.40s CPU      7.87s WALL (    4679 calls)
     add_vuspsi   :      0.14s CPU      0.15s WALL (    4679 calls)

     General routines
     calbec       :      0.27s CPU      0.29s WALL (    6023 calls)
     fft          :      0.05s CPU      0.05s WALL (     219 calls)
     ffts         :      0.00s CPU      0.00s WALL (      34 calls)
     fftw         :      8.39s CPU      8.95s WALL (   99130 calls)
     interpolate  :      0.01s CPU      0.01s WALL (      18 calls)
 
     Parallel routines
     fft_scatt_xy :      0.43s CPU      0.43s WALL (   99383 calls)
     fft_scatt_yz :      3.25s CPU      3.47s WALL (   99383 calls)
 
     PWSCF        :     12.87s CPU     13.71s WALL

 
   This run was terminated on:  17: 6: 5  28Mar2023            

=------------------------------------------------------------------------------=
   JOB DONE.
=------------------------------------------------------------------------------=
