MPI startup(): shm:dapl fabric is unknown or has been removed from the product, please use ofi or shm:ofi instead.

     Program PWSCF v.6.7MaX starts on 28Mar2023 at 18:46:30 

     This program is part of the open-source Quantum ESPRESSO suite
     for quantum simulation of materials; please cite
         "P. Giannozzi et al., J. Phys.:Condens. Matter 21 395502 (2009);
         "P. Giannozzi et al., J. Phys.:Condens. Matter 29 465901 (2017);
          URL http://www.quantum-espresso.org", 
     in publications or presentations arising from this work. More details at
     http://www.quantum-espresso.org/quote

     Parallel version (MPI), running on     8 processors

     MPI processes distributed on     1 nodes
     R & G space division:  proc/nbgrp/npool/nimage =       8
     Reading input from k_points_09.pwi

     Current dimensions of program PWSCF are:
     Max number of different atomic species (ntypx) = 10
     Max number of k-points (npk) =  40000
     Max angular momentum in pseudopotentials (lmaxx) =  3

     Subspace diagonalization in iterative solution of the eigenvalue problem:
     a serial algorithm will be used

 
     Parallelization info
     --------------------
     sticks:   dense  smooth     PW     G-vecs:    dense   smooth      PW
     Min          63      31     10                  953      334      66
     Max          64      32     11                  955      337      69
     Sum         511     253     85                 7631     2685     537
 


     bravais-lattice index     =            2
     lattice parameter (alat)  =       7.2447  a.u.
     unit-cell volume          =      95.0607 (a.u.)^3
     number of atoms/cell      =            1
     number of atomic types    =            1
     number of electrons       =        15.00
     number of Kohn-Sham states=           12
     kinetic-energy cutoff     =      35.0000  Ry
     charge density cutoff     =     280.0000  Ry
     scf convergence threshold =      1.0E-06
     mixing beta               =       0.4000
     number of iterations used =            8  plain     mixing
     Exchange-correlation=  SLA  PW   PBX  PBC
                           (   1   4   3   4   0   0   0)

     celldm(1)=   7.244700  celldm(2)=   0.000000  celldm(3)=   0.000000
     celldm(4)=   0.000000  celldm(5)=   0.000000  celldm(6)=   0.000000

     crystal axes: (cart. coord. in units of alat)
               a(1) = (  -0.500000   0.000000   0.500000 )  
               a(2) = (   0.000000   0.500000   0.500000 )  
               a(3) = (  -0.500000   0.500000   0.000000 )  

     reciprocal axes: (cart. coord. in units 2 pi/alat)
               b(1) = ( -1.000000 -1.000000  1.000000 )  
               b(2) = (  1.000000  1.000000  1.000000 )  
               b(3) = ( -1.000000  1.000000 -1.000000 )  


     PseudoPot. # 1 for Rh read from file:
     /home/software/materia/pseudo/rh_pbe_v1.4.uspp.F.UPF
     MD5 check sum: 761627e959a2e3a1f56b0b5fe687810e
     Pseudo is Ultrasoft + core correction, Zval = 15.0
     Generated by new atomic code, or converted to UPF format
     Using radial grid of  969 points,  7 beta functions with: 
                l(1) =   0
                l(2) =   0
                l(3) =   1
                l(4) =   1
                l(5) =   2
                l(6) =   2
                l(7) =   2
     Q(r) pseudized with  8 coefficients,  rinner =    1.200   1.200   1.200
                                                       1.200   1.200

     atomic species   valence    mass     pseudopotential
        Rh            15.00   102.90500     Rh( 1.00)

     Starting magnetic structure 
     atomic species   magnetization
        Rh           0.010

     48 Sym. Ops., with inversion, found



   Cartesian axes

     site n.     atom                  positions (alat units)
         1           Rh  tau(   1) = (   0.0000000   0.0000000   0.0000000  )

     number of k points=    35  Gaussian smearing, width (Ry)=  0.0200
                       cart. coord. in units 2pi/alat
        k(    1) = (   0.0000000   0.0000000   0.0000000), wk =   0.0013717
        k(    2) = (  -0.1111111   0.1111111  -0.1111111), wk =   0.0109739
        k(    3) = (  -0.2222222   0.2222222  -0.2222222), wk =   0.0109739
        k(    4) = (  -0.3333333   0.3333333  -0.3333333), wk =   0.0109739
        k(    5) = (  -0.4444444   0.4444444  -0.4444444), wk =   0.0109739
        k(    6) = (   0.0000000   0.2222222   0.0000000), wk =   0.0082305
        k(    7) = (  -0.1111111   0.3333333  -0.1111111), wk =   0.0329218
        k(    8) = (  -0.2222222   0.4444444  -0.2222222), wk =   0.0329218
        k(    9) = (  -0.3333333   0.5555556  -0.3333333), wk =   0.0329218
        k(   10) = (   0.5555556  -0.3333333   0.5555556), wk =   0.0329218
        k(   11) = (   0.4444444  -0.2222222   0.4444444), wk =   0.0329218
        k(   12) = (   0.3333333  -0.1111111   0.3333333), wk =   0.0329218
        k(   13) = (   0.2222222  -0.0000000   0.2222222), wk =   0.0164609
        k(   14) = (   0.0000000   0.4444444   0.0000000), wk =   0.0082305
        k(   15) = (  -0.1111111   0.5555556  -0.1111111), wk =   0.0329218
        k(   16) = (  -0.2222222   0.6666667  -0.2222222), wk =   0.0329218
        k(   17) = (   0.6666667  -0.2222222   0.6666667), wk =   0.0329218
        k(   18) = (   0.5555556  -0.1111111   0.5555556), wk =   0.0329218
        k(   19) = (   0.4444444   0.0000000   0.4444444), wk =   0.0164609
        k(   20) = (   0.0000000   0.6666667   0.0000000), wk =   0.0082305
        k(   21) = (  -0.1111111   0.7777778  -0.1111111), wk =   0.0329218
        k(   22) = (   0.7777778  -0.1111111   0.7777778), wk =   0.0329218
        k(   23) = (   0.6666667  -0.0000000   0.6666667), wk =   0.0164609
        k(   24) = (   0.0000000   0.8888889   0.0000000), wk =   0.0082305
        k(   25) = (   0.8888889   0.0000000   0.8888889), wk =   0.0164609
        k(   26) = (  -0.2222222   0.4444444   0.0000000), wk =   0.0329218
        k(   27) = (  -0.3333333   0.5555556  -0.1111111), wk =   0.0658436
        k(   28) = (   0.5555556  -0.3333333   0.7777778), wk =   0.0658436
        k(   29) = (  -0.2222222   0.6666667   0.0000000), wk =   0.0329218
        k(   30) = (   0.6666667  -0.2222222   0.8888889), wk =   0.0658436
        k(   31) = (   0.5555556  -0.1111111   0.7777778), wk =   0.0658436
        k(   32) = (   0.4444444   0.0000000   0.6666667), wk =   0.0329218
        k(   33) = (   0.7777778  -0.1111111   1.0000000), wk =   0.0329218
        k(   34) = (   0.6666667  -0.0000000   0.8888889), wk =   0.0329218
        k(   35) = (   0.5555556  -0.1111111   1.0000000), wk =   0.0329218

     Dense  grid:     7631 G-vectors     FFT dimensions: (  27,  27,  27)

     Smooth grid:     2685 G-vectors     FFT dimensions: (  20,  20,  20)

     Estimated max dynamical RAM per process >       7.59 MB

     Estimated total dynamical RAM >      60.75 MB
     Generating pointlists ...
     new r_m :   0.2917 (alat units)  2.1131 (a.u.) for type    1

     Initial potential from superposition of free atoms

     starting charge   14.49990, renormalised to   15.00000

     negative rho (up, down):  2.592E-02 2.540E-02
     Starting wfcs are   12 randomized atomic wfcs

     total cpu time spent up to now is        1.0 secs

     Self-consistent Calculation

     iteration #  1     ecut=    35.00 Ry     beta= 0.40
     Davidson diagonalization with overlap
     ethr =  1.00E-02,  avg # of iterations =  4.5

     negative rho (up, down):  2.710E-02 2.689E-02

     total cpu time spent up to now is        1.9 secs

     total energy              =    -171.08869991 Ry
     estimated scf accuracy    <       0.55680476 Ry

     total magnetization       =     0.04 Bohr mag/cell
     absolute magnetization    =     0.04 Bohr mag/cell

     iteration #  2     ecut=    35.00 Ry     beta= 0.40
     Davidson diagonalization with overlap
     ethr =  3.71E-03,  avg # of iterations =  2.0

     negative rho (up, down):  2.714E-02 2.714E-02

     total cpu time spent up to now is        2.5 secs

     total energy              =    -171.19186118 Ry
     estimated scf accuracy    <       0.00134536 Ry

     total magnetization       =     0.05 Bohr mag/cell
     absolute magnetization    =     0.05 Bohr mag/cell

     iteration #  3     ecut=    35.00 Ry     beta= 0.40
     Davidson diagonalization with overlap
     ethr =  8.97E-06,  avg # of iterations =  3.4

     negative rho (up, down):  2.707E-02 2.732E-02

     total cpu time spent up to now is        3.2 secs

     total energy              =    -171.19218619 Ry
     estimated scf accuracy    <       0.00046330 Ry

     total magnetization       =     0.04 Bohr mag/cell
     absolute magnetization    =     0.04 Bohr mag/cell

     iteration #  4     ecut=    35.00 Ry     beta= 0.40
     Davidson diagonalization with overlap
     ethr =  3.09E-06,  avg # of iterations =  1.1

     negative rho (up, down):  2.710E-02 2.730E-02

     total cpu time spent up to now is        3.7 secs

     total energy              =    -171.19221405 Ry
     estimated scf accuracy    <       0.00003806 Ry

     total magnetization       =     0.02 Bohr mag/cell
     absolute magnetization    =     0.02 Bohr mag/cell

     iteration #  5     ecut=    35.00 Ry     beta= 0.40
     Davidson diagonalization with overlap
     ethr =  2.54E-07,  avg # of iterations =  1.8

     negative rho (up, down):  2.718E-02 2.724E-02

     total cpu time spent up to now is        4.3 secs

     total energy              =    -171.19222213 Ry
     estimated scf accuracy    <       0.00000421 Ry

     total magnetization       =     0.02 Bohr mag/cell
     absolute magnetization    =     0.02 Bohr mag/cell

     iteration #  6     ecut=    35.00 Ry     beta= 0.40
     Davidson diagonalization with overlap
     ethr =  2.81E-08,  avg # of iterations =  1.8

     negative rho (up, down):  2.720E-02 2.722E-02

     total cpu time spent up to now is        4.9 secs

     total energy              =    -171.19222782 Ry
     estimated scf accuracy    <       0.00000104 Ry

     total magnetization       =     0.00 Bohr mag/cell
     absolute magnetization    =     0.00 Bohr mag/cell

     iteration #  7     ecut=    35.00 Ry     beta= 0.40
     Davidson diagonalization with overlap
     ethr =  6.91E-09,  avg # of iterations =  2.0

     negative rho (up, down):  2.720E-02 2.722E-02
 
     Magnetic moment per site:
     atom:    1    charge:   13.2471    magn:    0.0017    constr:    0.0000

     total cpu time spent up to now is        5.5 secs

     End of self-consistent calculation

 ------ SPIN UP ------------


          k = 0.0000 0.0000 0.0000 (   331 PWs)   bands (ev):

   -25.6356 -25.6356 -25.6356  12.9178  17.7599  17.7599  17.7599  19.7633
    19.7633  37.3061  42.6280  42.6280

          k =-0.1111 0.1111-0.1111 (   332 PWs)   bands (ev):

   -25.7165 -25.6463 -25.6463  13.3904  17.5736  17.9324  17.9324  19.6837
    19.6837  37.8965  40.2995  43.2583

          k =-0.2222 0.2222-0.2222 (   326 PWs)   bands (ev):

   -25.9151 -25.6727 -25.6727  14.4735  17.4802  18.1297  18.1297  19.8084
    19.8084  36.6810  38.7597  44.7547

          k =-0.3333 0.3333-0.3333 (   332 PWs)   bands (ev):

   -26.1418 -25.7039 -25.7039  14.9434  17.9407  17.9407  18.8022  20.5082
    20.5082  32.9664  37.8180  44.2811

          k =-0.4444 0.4444-0.4444 (   338 PWs)   bands (ev):

   -26.2867 -25.7255 -25.7255  14.8273  17.7178  17.7178  21.0053  21.1728
    21.1728  29.7034  36.8311  42.5134

          k = 0.0000 0.2222 0.0000 (   331 PWs)   bands (ev):

   -25.7119 -25.6650 -25.6650  13.5491  17.3589  18.0874  18.0874  19.3575
    19.9219  38.1578  40.9725  42.4094

          k =-0.1111 0.3333-0.1111 (   330 PWs)   bands (ev):

   -25.8615 -25.6977 -25.6857  14.4769  17.0171  18.2831  18.4048  19.3065
    20.1328  38.1181  39.1783  42.2113

          k =-0.2222 0.4444-0.2222 (   332 PWs)   bands (ev):

   -26.0710 -25.7292 -25.7217  15.2438  17.4278  17.8642  18.3681  20.5034
    20.7114  34.4473  38.6152  41.7326

          k =-0.3333 0.5556-0.3333 (   335 PWs)   bands (ev):

   -26.2329 -25.7613 -25.7464  15.1887  17.4714  18.1153  18.8327  21.2610
    22.4670  30.6584  37.4739  41.1391

          k = 0.5556-0.3333 0.5556 (   334 PWs)   bands (ev):

   -26.2771 -25.7840 -25.7399  15.1450  17.4032  17.9868  19.4909  21.1360
    23.6243  29.1256  37.0965  40.5830

          k = 0.4444-0.2222 0.4444 (   328 PWs)   bands (ev):

   -26.1847 -25.7797 -25.7109  15.2935  17.6320  18.1123  18.6016  20.3276
    22.2833  31.9132  37.5828  40.7648

          k = 0.3333-0.1111 0.3333 (   331 PWs)   bands (ev):

   -26.0014 -25.7482 -25.6768  15.1607  17.2339  18.0632  18.3887  19.3912
    20.9030  35.7213  38.4952  42.3298

          k = 0.2222-0.0000 0.2222 (   325 PWs)   bands (ev):

   -25.8117 -25.6953 -25.6508  14.1100  17.2613  18.1741  18.2012  19.2972
    20.0349  38.5462  38.7715  42.3087

          k = 0.0000 0.4444 0.0000 (   331 PWs)   bands (ev):

   -25.9050 -25.7375 -25.7375  14.9755  16.4593  18.7688  19.0237  19.0237
    20.3404  39.4924  40.2972  40.2973

          k =-0.1111 0.5556-0.1111 (   325 PWs)   bands (ev):

   -26.0441 -25.7817 -25.7744  15.5248  16.1869  18.3634  19.3065  20.6153
    20.8175  36.2749  38.9786  38.9824

          k =-0.2222 0.6667-0.2222 (   329 PWs)   bands (ev):

   -26.1700 -25.8461 -25.7922  15.5713  16.5908  18.1049  19.0979  21.3474
    23.2542  32.1020  37.3450  38.5311

          k = 0.6667-0.2222 0.6667 (   335 PWs)   bands (ev):

   -26.2127 -25.9093 -25.7828  15.7097  16.8207  18.2258  18.8489  21.1768
    25.9958  29.0004  35.9680  39.5114

          k = 0.5556-0.1111 0.5556 (   335 PWs)   bands (ev):

   -26.1680 -25.9285 -25.7492  16.0791  17.0291  17.8494  18.7742  20.3131
    24.7346  31.3099  35.2134  39.9677

          k = 0.4444 0.0000 0.4444 (   331 PWs)   bands (ev):

   -26.0849 -25.8639 -25.7075  16.2376  16.8784  17.6090  18.8548  19.3451
    22.6685  34.7875  35.8684  40.7204

          k = 0.0000 0.6667 0.0000 (   323 PWs)   bands (ev):

   -26.1155 -25.8187 -25.8187  15.2358  15.5809  20.3304  20.3535  20.3535
    20.8496  36.8661  36.8661  37.3119

          k =-0.1111 0.7778-0.1111 (   331 PWs)   bands (ev):

   -26.1901 -25.8778 -25.8428  15.1459  15.4824  19.7443  20.3722  21.3870
    23.2971  33.7868  35.3723  35.9632

          k = 0.7778-0.1111 0.7778 (   331 PWs)   bands (ev):

   -26.1832 -25.9766 -25.8334  15.3441  15.9802  18.9155  20.0332  21.3168
    26.8249  30.2241  33.5822  36.7813

          k = 0.6667-0.0000 0.6667 (   329 PWs)   bands (ev):

   -26.0859 -26.0842 -25.7962  15.8599  16.7501  17.9115  19.5426  20.6850
    27.2631  30.4333  32.5578  39.0896

          k = 0.0000 0.8889 0.0000 (   334 PWs)   bands (ev):

   -26.2489 -25.8744 -25.8744  14.7163  15.0612  21.1922  21.4890  21.4890
    23.3075  33.4718  34.4257  34.4257

          k = 0.8889 0.0000 0.8889 (   338 PWs)   bands (ev):

   -26.2453 -25.9160 -25.8709  14.8330  15.2177  20.5473  20.9439  21.5509
    25.3953  32.2944  32.9861  34.7484

          k =-0.2222 0.4444 0.0000 (   331 PWs)   bands (ev):

   -25.9807 -25.7728 -25.7057  15.4122  16.6352  17.9701  19.0242  19.3613
    20.9508  36.9781  38.2189  41.4653

          k =-0.3333 0.5556-0.1111 (   328 PWs)   bands (ev):

   -26.1217 -25.8376 -25.7383  15.8565  17.0784  17.4490  18.9447  20.2709
    22.6216  33.5263  37.1866  39.4497

          k = 0.5556-0.3333 0.7778 (   337 PWs)   bands (ev):

   -26.2189 -25.8701 -25.7679  15.7247  16.9496  18.1989  18.6796  21.0235
    24.8283  29.8170  37.0218  38.3345

          k =-0.2222 0.6667 0.0000 (   330 PWs)   bands (ev):

   -26.1286 -25.8620 -25.8005  15.7158  15.9105  18.3123  20.3354  20.3460
    22.7270  35.1005  35.7256  37.4558

          k = 0.6667-0.2222 0.8889 (   335 PWs)   bands (ev):

   -26.1697 -25.9416 -25.8260  15.7782  16.2772  17.9754  19.8043  21.1511
    25.5202  31.3928  35.4176  35.7274

          k = 0.5556-0.1111 0.7778 (   336 PWs)   bands (ev):

   -26.1481 -26.0063 -25.8163  16.1113  16.6030  17.6391  19.3941  21.0497
    27.5595  29.4338  34.0626  36.7144

          k = 0.4444 0.0000 0.6667 (   332 PWs)   bands (ev):

   -26.1333 -25.9668 -25.7765  16.6940  16.8153  16.8370  19.4625  20.3638
    24.9811  33.2460  33.2660  38.1812

          k = 0.7778-0.1111 1.0000 (   332 PWs)   bands (ev):

   -26.2119 -25.9190 -25.8724  15.1492  15.4719  19.4913  20.6970  21.4915
    25.5301  33.0198  33.5559  33.9682

          k = 0.6667-0.0000 0.8889 (   339 PWs)   bands (ev):

   -26.1617 -26.0052 -25.8639  15.5110  16.0500  18.5106  20.0240  21.4781
    28.2154  30.3935  32.4785  34.8537

          k = 0.5556-0.1111 1.0000 (   332 PWs)   bands (ev):

   -26.1164 -26.0327 -25.8681  15.9393  16.6637  17.4127  19.6775  21.4869
    28.2779  31.2373  32.3643  34.0533

 ------ SPIN DOWN ----------


          k = 0.0000 0.0000 0.0000 (   331 PWs)   bands (ev):

   -25.6329 -25.6329 -25.6329  12.9174  17.7617  17.7617  17.7617  19.7662
    19.7662  37.3052  42.6278  42.6278

          k =-0.1111 0.1111-0.1111 (   332 PWs)   bands (ev):

   -25.7138 -25.6436 -25.6436  13.3901  17.5753  17.9342  17.9342  19.6866
    19.6866  37.8957  40.2990  43.2582

          k =-0.2222 0.2222-0.2222 (   326 PWs)   bands (ev):

   -25.9125 -25.6700 -25.6700  14.4734  17.4815  18.1317  18.1317  19.8111
    19.8111  36.6809  38.7590  44.7548

          k =-0.3333 0.3333-0.3333 (   332 PWs)   bands (ev):

   -26.1391 -25.7012 -25.7012  14.9441  17.9429  17.9429  18.8025  20.5107
    20.5107  32.9669  37.8172  44.2814

          k =-0.4444 0.4444-0.4444 (   338 PWs)   bands (ev):

   -26.2841 -25.7228 -25.7228  14.8282  17.7200  17.7200  21.0049  21.1754
    21.1754  29.7045  36.8301  42.5136

          k = 0.0000 0.2222 0.0000 (   331 PWs)   bands (ev):

   -25.7093 -25.6624 -25.6624  13.5487  17.3606  18.0892  18.0892  19.3603
    19.9249  38.1571  40.9719  42.4094

          k =-0.1111 0.3333-0.1111 (   330 PWs)   bands (ev):

   -25.8589 -25.6951 -25.6830  14.4767  17.0187  18.2852  18.4068  19.3090
    20.1356  38.1179  39.1776  42.2115

          k =-0.2222 0.4444-0.2222 (   332 PWs)   bands (ev):

   -26.0684 -25.7265 -25.7191  15.2443  17.4288  17.8663  18.3702  20.5053
    20.7141  34.4476  38.6146  41.7329

          k =-0.3333 0.5556-0.3333 (   335 PWs)   bands (ev):

   -26.2303 -25.7587 -25.7437  15.1896  17.4735  18.1175  18.8337  21.2636
    22.4682  30.6591  37.4731  41.1393

          k = 0.5556-0.3333 0.5556 (   334 PWs)   bands (ev):

   -26.2744 -25.7813 -25.7373  15.1459  17.4053  17.9891  19.4921  21.1385
    23.6252  29.1267  37.0958  40.5832

          k = 0.4444-0.2222 0.4444 (   328 PWs)   bands (ev):

   -26.1821 -25.7771 -25.7082  15.2944  17.6341  18.1146  18.6024  20.3300
    22.2851  31.9138  37.5822  40.7649

          k = 0.3333-0.1111 0.3333 (   331 PWs)   bands (ev):

   -25.9987 -25.7456 -25.6741  15.1608  17.2351  18.0652  18.3908  19.3937
    20.9054  35.7214  38.4948  42.3299

          k = 0.2222-0.0000 0.2222 (   325 PWs)   bands (ev):

   -25.8091 -25.6926 -25.6481  14.1097  17.2629  18.1760  18.2030  19.3000
    20.0377  38.5457  38.7711  42.3087

          k = 0.0000 0.4444 0.0000 (   331 PWs)   bands (ev):

   -25.9024 -25.7348 -25.7348  14.9755  16.4608  18.7709  19.0256  19.0256
    20.3434  39.4914  40.2973  40.2976

          k =-0.1111 0.5556-0.1111 (   325 PWs)   bands (ev):

   -26.0414 -25.7791 -25.7718  15.5255  16.1882  18.3650  19.3086  20.6170
    20.8203  36.2750  38.9788  38.9822

          k =-0.2222 0.6667-0.2222 (   329 PWs)   bands (ev):

   -26.1674 -25.8434 -25.7895  15.5725  16.5923  18.1062  19.1002  21.3501
    23.2554  32.1025  37.3450  38.5313

          k = 0.6667-0.2222 0.6667 (   335 PWs)   bands (ev):

   -26.2101 -25.9066 -25.7801  15.7109  16.8224  18.2270  18.8513  21.1793
    25.9965  29.0014  35.9682  39.5117

          k = 0.5556-0.1111 0.5556 (   335 PWs)   bands (ev):

   -26.1654 -25.9259 -25.7466  16.0802  17.0309  17.8506  18.7766  20.3153
    24.7359  31.3106  35.2137  39.9673

          k = 0.4444 0.0000 0.4444 (   331 PWs)   bands (ev):

   -26.0823 -25.8613 -25.7048  16.2380  16.8798  17.6109  18.8574  19.3471
    22.6704  34.7876  35.8688  40.7199

          k = 0.0000 0.6667 0.0000 (   323 PWs)   bands (ev):

   -26.1129 -25.8160 -25.8160  15.2370  15.5822  20.3310  20.3555  20.3555
    20.8527  36.8663  36.8663  37.3121

          k =-0.1111 0.7778-0.1111 (   331 PWs)   bands (ev):

   -26.1875 -25.8752 -25.8401  15.1474  15.4838  19.7456  20.3748  21.3896
    23.2980  33.7870  35.3729  35.9633

          k = 0.7778-0.1111 0.7778 (   331 PWs)   bands (ev):

   -26.1806 -25.9740 -25.8307  15.3456  15.9815  18.9168  20.0359  21.3191
    26.8255  30.2245  33.5830  36.7815

          k = 0.6667-0.0000 0.6667 (   329 PWs)   bands (ev):

   -26.0833 -26.0815 -25.7935  15.8615  16.7514  17.9128  19.5454  20.6871
    27.2638  30.4339  32.5586  39.0900

          k = 0.0000 0.8889 0.0000 (   334 PWs)   bands (ev):

   -26.2463 -25.8717 -25.8717  14.7178  15.0625  21.1953  21.4912  21.4912
    23.3073  33.4728  34.4257  34.4257

          k = 0.8889 0.0000 0.8889 (   338 PWs)   bands (ev):

   -26.2427 -25.9133 -25.8683  14.8345  15.2190  20.5488  20.9469  21.5531
    25.3956  32.2951  32.9866  34.7485

          k =-0.2222 0.4444 0.0000 (   331 PWs)   bands (ev):

   -25.9781 -25.7702 -25.7031  15.4122  16.6366  17.9723  19.0261  19.3637
    20.9533  36.9780  38.2191  41.4652

          k =-0.3333 0.5556-0.1111 (   328 PWs)   bands (ev):

   -26.1191 -25.8350 -25.7357  15.8574  17.0796  17.4508  18.9469  20.2732
    22.6234  33.5267  37.1866  39.4496

          k = 0.5556-0.3333 0.7778 (   337 PWs)   bands (ev):

   -26.2163 -25.8675 -25.7652  15.7257  16.9516  18.2002  18.6818  21.0259
    24.8293  29.8178  37.0216  38.3347

          k =-0.2222 0.6667 0.0000 (   330 PWs)   bands (ev):

   -26.1260 -25.8594 -25.7978  15.7171  15.9118  18.3138  20.3374  20.3486
    22.7286  35.1007  35.7258  37.4560

          k = 0.6667-0.2222 0.8889 (   335 PWs)   bands (ev):

   -26.1670 -25.9389 -25.8233  15.7797  16.2787  17.9768  19.8068  21.1534
    25.5211  31.3932  35.4180  35.7277

          k = 0.5556-0.1111 0.7778 (   336 PWs)   bands (ev):

   -26.1455 -26.0037 -25.8136  16.1129  16.6044  17.6404  19.3967  21.0519
    27.5601  29.4345  34.0631  36.7147

          k = 0.4444 0.0000 0.6667 (   332 PWs)   bands (ev):

   -26.1307 -25.9642 -25.7738  16.6959  16.8166  16.8380  19.4651  20.3658
    24.9824  33.2464  33.2664  38.1812

          k = 0.7778-0.1111 1.0000 (   332 PWs)   bands (ev):

   -26.2093 -25.9164 -25.8697  15.1508  15.4732  19.4928  20.6999  21.4937
    25.5307  33.0204  33.5560  33.9686

          k = 0.6667-0.0000 0.8889 (   339 PWs)   bands (ev):

   -26.1591 -26.0026 -25.8612  15.5126  16.0513  18.5120  20.0267  21.4803
    28.2159  30.3938  32.4794  34.8540

          k = 0.5556-0.1111 1.0000 (   332 PWs)   bands (ev):

   -26.1138 -26.0301 -25.8655  15.9410  16.6650  17.4140  19.6802  21.4891
    28.2785  31.2376  32.3650  34.0538

     the Fermi energy is    20.6787 ev

!    total energy              =    -171.19222798 Ry
     estimated scf accuracy    <       0.00000090 Ry
     smearing contrib. (-TS)   =      -0.00362613 Ry
     internal energy E=F+TS    =    -171.18860185 Ry

     The total energy is F=E-TS. E is the sum of the following terms:
     one-electron contribution =     -24.33105230 Ry
     hartree contribution      =      25.46591855 Ry
     xc contribution           =     -29.93055098 Ry
     ewald contribution        =    -142.39291712 Ry

     total magnetization       =     0.00 Bohr mag/cell
     absolute magnetization    =     0.00 Bohr mag/cell

     convergence has been achieved in   7 iterations
 
     init_run     :      0.43s CPU      0.53s WALL (       1 calls)
     electrons    :      4.22s CPU      4.53s WALL (       1 calls)

     Called by init_run:
     wfcinit      :      0.18s CPU      0.22s WALL (       1 calls)
     potinit      :      0.01s CPU      0.02s WALL (       1 calls)
     hinit0       :      0.20s CPU      0.21s WALL (       1 calls)

     Called by electrons:
     c_bands      :      3.36s CPU      3.62s WALL (       7 calls)
     sum_band     :      0.72s CPU      0.75s WALL (       7 calls)
     v_of_rho     :      0.07s CPU      0.08s WALL (       8 calls)
     newd         :      0.08s CPU      0.09s WALL (       8 calls)
     mix_rho      :      0.01s CPU      0.01s WALL (       7 calls)

     Called by c_bands:
     init_us_2    :      0.05s CPU      0.05s WALL (    1050 calls)
     cegterg      :      3.19s CPU      3.44s WALL (     490 calls)

     Called by *egterg:
     cdiaghg      :      0.42s CPU      0.48s WALL (    1650 calls)
     h_psi        :      2.63s CPU      2.83s WALL (    1720 calls)
     s_psi        :      0.05s CPU      0.05s WALL (    1720 calls)
     g_psi        :      0.01s CPU      0.01s WALL (    1160 calls)

     Called by h_psi:
     h_psi:calbec :      0.07s CPU      0.07s WALL (    1720 calls)
     vloc_psi     :      2.49s CPU      2.68s WALL (    1720 calls)
     add_vuspsi   :      0.05s CPU      0.05s WALL (    1720 calls)

     General routines
     calbec       :      0.08s CPU      0.09s WALL (    2210 calls)
     fft          :      0.04s CPU      0.04s WALL (     194 calls)
     ffts         :      0.00s CPU      0.00s WALL (      30 calls)
     fftw         :      2.83s CPU      3.04s WALL (   36176 calls)
     interpolate  :      0.01s CPU      0.01s WALL (      16 calls)
 
     Parallel routines
     fft_scatt_xy :      0.17s CPU      0.17s WALL (   36400 calls)
     fft_scatt_yz :      0.95s CPU      1.01s WALL (   36400 calls)
 
     PWSCF        :      4.93s CPU      5.61s WALL

 
   This run was terminated on:  18:46:36  28Mar2023            

=------------------------------------------------------------------------------=
   JOB DONE.
=------------------------------------------------------------------------------=
