&CONTROL
    calculation = 'relax'
    restart_mode = 'restart'
    pseudo_dir = '/home/STUDENTI/enrico.pedretti/pseudo/'
    outdir = '/home/STUDENTI/leonardo.razzai/Rh_work/surf_111_CO2/interf'
    prefix = 'interf_at_6.0-L'
    nstep = 1000
    disk_io = 'nowf'
    max_seconds = 144000
/
&SYSTEM
    ibrav = 4
    celldm(1) = 10.245552
    celldm(3) = 6.1017745
    nat = 35
    ntyp = 3
    ecutwfc = 35
    ecutrho = 280
    nspin = 2
    starting_magnetization(1) = 0.01
    occupations = 'smearing'
    smearing = 'gaussian'
    degauss = 0.02
/
&ELECTRONS
    diagonalization = 'david'
    electron_maxstep = 200
    mixing_mode = 'local-TF'
    mixing_beta = 0.50
/
&IONS
    ion_dynamics = 'bfgs'
    upscale = 10
/

ATOMIC_SPECIES
Rh      102.905    rh_pbe_v1.4.uspp.F.UPF
O       15.9990    O.pbe-n-rrkjus_psl.1.0.0.UPF   
C       12.0112    C.pbe-n-rrkjus_psl.1.0.0.UPF

ATOMIC_POSITIONS angstrom
Rh   0.0001466   0.0003269   20.1316096  1  1  0
Rh   2.7107102   0.0003269   20.1316096  1  1  0
Rh   -1.3554284   2.3475589   20.1316096  1  1  0
Rh   1.3554284   2.3473300   20.1316096  1  1  0
Rh   -0.0002314   1.5650613   17.9533460
Rh   2.7110882   1.5650613   17.9533460
Rh   -1.3554284   3.9124848   17.9550417
Rh   1.3554284   3.9128105   17.9534630
Rh   1.3554284   0.7808427   15.7795056
Rh   4.0662852   0.7827049   15.7756988
Rh   -0.0015522   3.1301248   15.7779001
Rh   2.7124090   3.1301248   15.7779001
Rh   0.0005851   0.0004324   13.5994384
Rh   2.7102717   0.0004324   13.5994384
Rh   -1.3554284   2.3482436   13.5963353
Rh   1.3554284   2.3479608   13.6134670
O   2.5342323   2.3477522   10.5905750
O   0.1766245   2.3477522   10.5905750
C   1.3554284   2.3479561   10.5906085  1  1  0
Rh   1.3554284   2.3479611   7.5679415
Rh   -1.3554284   2.3482438   7.5850941
Rh   2.7102722   0.0004324   7.5819894
Rh   0.0005846   0.0004324   7.5819894
Rh   2.7124085   3.1301244   5.4034758
Rh   -0.0015517   3.1301244   5.4034758
Rh   4.0662852   0.7827033   5.4056757
Rh   1.3554284   0.7808412   5.4018656
Rh   1.3554284   3.9128101   3.2278653
Rh   -1.3554284   3.9124847   3.2262717
Rh   2.7110881   1.5650612   3.2279783
Rh   -0.0002313   1.5650612   3.2279783
Rh   1.3554284   2.3473291   1.0496074  1  1  0
Rh   -1.3554284   2.3475593   1.0496074  1  1  0
Rh   2.7107090   0.0003275   1.0496074  1  1  0
Rh   0.0001478   0.0003275   1.0496074  1  1  0

K_POINTS automatic
5 5 1 1 1 0

